!pbe ma-def2-SVP Freq 
%maxcore 3000
%pal
nprocs 4
end
# MECP_BC

*xyz 0 1
  H   8.59629412378031      0.79309993623628     -3.72231860957519
  H   9.91408797308425      1.96981137244831     -4.04639349963182
  C   9.59155973212620      1.14446045013848     -3.38142937146926
  H   9.48389570698033      1.54731484066405     -2.35375572869404
  H   9.73523405420591     -0.92540611442555     -5.18976860154126
  H   7.14333399450843     -3.48815245908591     -5.70196454021514
  C   10.60372089850874     -0.00672883721705     -3.40269281527446
  H   11.13498340696535      0.14636623681542     -5.53260051945420
  C   10.72722278986840     -0.59843087061940     -4.81851426116683
  H   8.88472576913592     -3.37582337149543     -5.28884862809837
  H   8.20101388938423     -4.92210485461886     -5.87267381857450
  C   7.99354591061463     -4.03524325489096     -5.24164743677476
  O   10.07836021398385     -1.00319509643537     -2.50305563890762
  H   12.40146340021325      1.25355050562744     -3.55407672185919
  C   11.97736430369799      0.46742045867694     -2.89605357726206
  H   11.88617095931376      0.88070794031093     -1.87125654137602
  H   11.40039694930459     -1.48043049384699     -4.81257409068499
  H   10.70592554556116     -1.77793987181793     -2.48285988237368
  C   7.68498773832733     -4.44129295597204     -3.80013280281035
  H   6.53393187064803     -2.66990287371145     -3.35582573162917
  H   8.24960120117651     -2.55167388571119     -2.88716220129556
  C   7.37394819017694     -3.23556608743350     -2.89752898165138
  H   12.68952024047574     -0.38195890340115     -2.86169568267877
  H   6.83468483295888     -5.15803147059766     -3.77305560472470
  H   8.55268556734495     -4.99417207207790     -3.38011328016446
  H   8.62278795605022     -1.75426572750798     -1.06392122833419
  H   6.44630107452046     -0.92733890284794     -1.65571771817001
  H   10.29141782948583     -0.46350809928264      0.29492053037898
  H   4.97754759526129      1.06743031904450     -1.26733017420688
  C   6.99815053787058     -3.70809582360082     -1.49436964907162
  C   8.15231208283761     -2.03710272110335     -0.10192538467327
  H   10.10790987765277     -1.48614632522891      1.72954431535704
  C   9.69699758500586     -0.58435081087695      1.22626142581479
  H   8.71339540653770     -2.88963637502887      0.32897234056446
  C   5.82316618422509     -1.57265907410195     -1.00617682074630
  H   7.20962864966826     -8.41164300113085     -2.97247205994426
  C   4.25126327546468      0.40386836199689     -0.74655397006920
  H   6.06973915205270     -4.30418751940372     -1.53421494129974
  H   7.77799886044326     -4.37204378137797     -1.07338046606295
  H   10.93579220615859      0.80329085107330      2.38291154462719
  H   5.68145512831401     -0.26076000520397      0.73700386262744
  N   6.77104088691581     -2.62089788869308     -0.43294798853699
  C   5.01983873991358     -0.71779778985276     -0.02296569746586
  H   5.12598403986417     -2.12062177444751     -1.66852070914046
  H   3.77452803300460      1.03657529488865      0.03180704795504
  C   8.22797879174475     -0.85544198206337      0.85987537779175
  C   9.87046252004611      0.63987508763200      2.12642073637749
  C   7.37952967104549     -8.89732545571300     -1.99042532245636
  H   8.44340663225747     -8.74805524643496     -1.71333403546984
  C   3.18136991261422     -0.07033255775502     -1.73479513110090
  H   2.60909050264367      0.78771479593450     -2.13937459082716
  H   3.61133920085497     -0.60583683973342     -2.60639420385073
  H   10.00064112390078     -5.39096677227069     -1.92302956840105
  H   7.20425774827150     -9.98702709658375     -2.10505991219352
  H   7.80084687927781      0.06050888550279      0.39666016697916
  H   9.50369733386054      1.56451539327176      1.63251946888261
  F   9.18541579978221     -6.25815291011400     -0.07803370180877
  C   10.62032109628551     -5.42861251270250     -1.02256888075313
  Br  12.03444913965872     -3.66780537339493     -2.36755184324429
  H   4.79261872935603     -7.97385257821291     -2.30957177123405
  C   11.67463824159150     -6.48011829955208     -0.88480315931194
  H   7.65929537639595     -1.04823670591629      1.79560443143934
  H   9.31163823696746      0.53177682474317      3.07955292593616
  H   4.29182503073987     -1.35133726573637      0.52758975708654
  C   6.21901407538167     -3.27619308228091      0.83199280338192
  O   6.67472056145480     -6.86659101765768     -0.84918239788751
  H   10.56080314748329     -4.58448150074995     -0.32920185017831
  H   7.05846158226576     -3.86175060985055      1.26520453528486
  C   6.45227020556960     -8.28294291492405     -0.92513270213329
  H   2.45366711899694     -0.75368444376124     -1.24750944226344
  H   7.61775888756506     -6.70628502998202     -0.57280577380477
  C   4.98314661082846     -8.45592268772117     -1.32958328761561
  H   11.18879866134260     -7.42228456750805     -0.55636410615102
  H   5.22812484457775     -5.07562900931739      0.11605416621224
  H   6.02138413927786     -2.44758450369349      1.53768619729290
  C   4.97613986487090     -4.14903306770573      0.67464756861727
  H   4.71231264863524     -9.52721741084859     -1.41046294183669
  H   4.17598181529251     -3.62395962278084      0.10589765518399
  H   12.44233042447395     -6.19941053482168     -0.14000974759171
  H   4.31714837197417     -7.98284827262590     -0.57936700779430
  C   6.71406371808535     -8.92755915850135      0.44861274228921
  H   7.76638333083792     -8.76185793416467      0.75815979634637
  H   11.04949330441603     -6.31712427732152      2.32290261855625
  H   9.03924600947860     -5.35604378962128      1.27355334524284
  H   6.52999723476049    -10.02154738257741      0.42726404104596
  H   11.53006390513667     -4.62206006329835      2.67509095783627
  C   4.43278930976585     -4.54967845502962      2.05615624141298
  H   5.24644000573968     -5.04766985035307      2.62823370059969
  O   8.93428534874094     -4.64033832471234      1.96762825860430
  C   10.94513084168970     -5.48597483349668      3.05057281027282
  H   6.05537881188903     -8.47727327922412      1.21857344999926
  H   3.46625945720363     -6.41345345577584      1.43202683212514
  H   4.17009972675654     -3.63614942556874      2.63660278992633
  C   3.21935737425793     -5.47717647207276      1.97415546481509
  C   9.46549385630865     -5.09958795119825      3.22315482338483
  H   11.39090125044862     -5.81634653796860      4.01078631262705
  H   8.70114682695960     -7.13917771945516      2.98123754446826
  H   2.37485805410068     -4.99661991262929      1.43701852002776
  H   9.89446550928644     -3.04596590606753      3.82511249240518
  C   8.64833524687208     -6.30867069429986      3.71508240967112
  C   9.32547645445707     -3.92240898878392      4.19585456632039
  H   2.85632886121022     -5.76042320060115      2.98185249347381
  H   7.58241694362755     -6.02934180608915      3.84079493369241
  H   9.02484309219127     -6.68593040025665      4.68778485172720
  H   8.26143614682807     -3.62670898987702      4.29562401893276
  H   9.70837941513883     -4.18486224317660      5.20197984008751
  H   12.17321067293314     -6.67293753742348     -1.85327596016486
*
