!pbe ma-def2-SVP Freq 
%maxcore 3000
%pal
nprocs 4
end
# MECP_BC

*xyz 0 1
  H   -3.82186166817953      0.74255982680858     -0.61225187394774
  C   -3.86155366395995      0.27349723034878      0.37553088063171
  H   -1.74266919294666     -0.09391198802246      0.54175673590162
  H   -4.79212564240444     -0.21514585342926      0.67577838398972
  C   -2.61392809445449      0.12649976707482      1.18675643770348
  H   -2.70583413951799     -0.67394835258419      1.94418142000595
  Br  -3.66379758146869     -1.92227975599663     -1.04847021510529
  H   -2.42308495726427      1.08764360950282      1.70818471805463
  H   -6.52984468418609     -4.38359538098433     -0.27793026094943
  H   -7.93223682929333     -4.71461221262775      0.78733448060412
  C   -7.62143730119381     -4.22632375215211     -0.15824142440674
  H   -8.13243565077280     -4.75502237676109     -0.98996480211948
  C   -7.95773372073048     -2.73421751600992     -0.15128342420867
  H   -7.44385145799948     -2.24233271206446      0.70341027406378
  H   -6.45293790900125     -2.21869570891869     -1.60809982202944
  C   -7.53678005549106     -2.03006653656876     -1.45239170687065
  H   -9.04788228313643     -2.58783583452055      0.02146782713899
  H   -8.08639928564044     -2.49071408489906     -2.30313999633289
  H   -4.37607487647073     -0.43371645953456     -5.25001333438311
  H   -6.76316156170297     -0.84012701924876      3.06343642773152
  H   -6.29910151235681     -0.97583538870778     -3.76905104539749
  H   -3.52977873136403     -0.20686974621692     -3.70981638463992
  H   -2.28653788494852      3.60433563835440     -0.24783781757634
  H   -5.57735518602448      0.43699842778293      3.49731981934208
  H   -2.35617920629955      3.38363387938187     -2.02732090596768
  C   -6.65125723156660      0.16214964221636      3.52475266127678
  C   -4.07663584181928      0.34076084612052     -4.50881728537526
  C   -2.56181869118004      4.09675837728778     -1.20307071250119
  H   -6.96120773147293      0.09112463397179      4.58764718507588
  H   -5.53549147256068     -0.41834460233206     -2.27428753785375
  H   -1.90460921870717      4.98096161800805     -1.33212155406130
  H   -2.26769476184478      0.87415325778391     -5.62336285041778
  C   -7.80686598079087     -0.53151818556082     -1.35073385630591
  C   -6.13527396114816     -0.07617416498052     -3.14434634155756
  H   -7.20754495980048     -0.07586461266419     -0.53657965018172
  H   -8.64857893066798     -1.09669940092394     -3.70444854279974
  F   -4.54507869523103      1.90960087361480      1.09413393812701
  C   -3.15494655402773      1.36311122505632     -5.17435476496725
  C   -5.33829267847669      0.98324644436601     -3.90555568981275
  H   -8.86814549741389     -0.34521881066029     -1.09866312656300
  N   -7.52447234127653      0.30985378644957     -2.60507113827543
  C   -8.61656078062077      0.00652080487304     -3.61826329736603
  H   -6.13812992992541      1.55066681869217      1.33444035923658
  C   -7.49211660140706      1.20009640813104      2.75776532790441
  H   -4.71296455869335      2.87534983322465     -0.21796663202912
  H   -3.67405654317317      1.92069819085721     -5.98293669602378
  C   -4.05026110052891      4.49276011582364     -1.20080851847783
  O   -7.08580403399141      1.23294360290353      1.37976482855743
  H   -2.78560404178849      2.11042365270918     -4.44150886826212
  O   -4.86630026581234      3.31513770903413     -1.10464525572583
  H   -9.09748836053343     -0.20173297055441      2.28203778660094
  H   -9.86385250857846     -0.81065384253841     -5.90937447512587
  H   -9.56189463252708      0.32404427661073     -3.13963373713914
  H   -5.93048267065550      1.45320716880517     -4.71874807712214
  H   -4.11875139554865      4.92796845293686      0.94384832232291
  H   -5.03665714488572      1.79456250997058     -3.20956868940737
  C   -8.97111678249617      0.79386159356468      2.75417357818609
  H   -4.23266820402285      4.47606782110890     -3.37793798736472
  H   -6.25096746260372      2.90285199367830      3.34964924120573
  C   -4.35282844772672      5.42998185401802     -0.01745311603526
  H   -9.37596560096673      0.74140916662676      3.78427679749139
  C   -7.31690393478071      2.59789357826891      3.37860077992245
  C   -4.42779959770852      5.16232899533664     -2.52868083591626
  H   -6.61352048380845      1.96375294861232     -1.62090199703136
  H   -7.57658730658555      0.23543636686026     -5.50893695980303
  C   -8.48800243757335      0.62121191103953     -5.01009361408043
  C   -7.53443634490751      1.78601837350181     -2.20948862083700
  H   -7.65278849644501      2.61915706275363      4.43535961822161
  H   -3.75489369212895      6.36235786587329     -0.07099028858099
  H   -3.84333772577100      6.08935410775156     -2.69081023118453
  C   -9.70978854927438      0.29144400282539     -5.89088490819913
  H   -11.35790794901513      0.70067783150398     -4.47526074225945
  H   -8.79357924751461      1.78847441188375     -0.44516994597817
  C   -11.00921040719881      0.99418406439415     -5.48703344233316
  H   -7.41354601554026      2.35651459164429     -3.14745560306054
  C   -8.75243470497738      2.28215101055636     -1.43666297871682
  H   -9.57390138264358      1.52753282449795      2.18072003407792
  H   -9.45702770711943      0.57200809942533     -6.93489479320162
  H   -11.82914087941477      0.74802700207490     -6.19104627581257
  H   -5.42694131882481      5.70459586116985     -0.00761487426615
  H   -7.90359860556049      3.34739958796000      2.80933238432646
  H   -5.50528666396097      5.42365046687936     -2.53630071066418
  H   -8.37778211413436      1.72454422497668     -4.94836687325897
  H   -9.70149964899286      2.05867911182543     -1.97429631591781
  H   -10.88812601019720      2.09801410160127     -5.48866913247056
  C   -8.64977039877383      3.79995972543569     -1.21363009495239
  H   -7.67163437117214      4.01928795010675     -0.73406463137906
  H   -9.79269709507609      3.88849450973931      0.65050355887026
  H   -8.62835001571720      4.32006679956234     -2.19708778162673
  C   -9.79040110453314      4.35122483146142     -0.35782234277888
  H   -10.78264376466918      4.15211836143771     -0.81627355515104
  H   -9.70026333470126      5.44741563080406     -0.22082484242380
*
