&control 
/ 

&system 
           nat = 28 
           ntyp = 4 
/ 

&electrons 
/ 

&ions 
/ 

ATOMIC_SPECIES 
  C   
  N   
  O   
  H   

ATOMIC_POSITIONS angstroms 
C   0,79974604       7,34254503       11,15590858      
C   1,30886793       8,58192158       10,77439117      
C   2,66613054       8,72145081       10,47052479      
C   1,67275000       6,25750637       11,23034954      
C   3,02909160       6,37312794       10,92704201      
C   3,52182698       7,61876249       10,54336166      
C   7,14699411       9,46810722       10,22177982      
C   7,71065998       10,74156666      10,18437767      
C   9,09994125       10,89599800      10,18138123      
C   7,99749279       8,36351967       10,26067448      
C   9,38596725       8,49438763       10,25357819      
C   9,93394375       9,77485275       10,21207523      
N   1,14318013       4,94130516       11,64748383      
N   7,40742588       7,00860071       10,31407833      
O   1,94422913       3,99614811       11,72876644      
O   -0,07158995      4,85886574       11,89410973      
O   8,18485737       6,04222107       10,37167740      
O   6,16861582       6,91675091       10,30027390      
H   3,66914320       5,49693871       10,99670410      
H   3,05752325       9,69454765       10,17604923      
H   0,64504623       9,44284248       10,71559525      
H   -0,25047493      7,19997787       11,39781475      
H   4,57858181       7,72883034       10,30383301      
H   10,00723076      7,60249758       10,28157425      
H   9,53333664       11,89515686      10,15528297      
H   7,06408453       11,61712837      10,15937710      
H   6,07095623       9,31337070       10,22417831      
H   11,01618385      9,89704514       10,20717907      

CELL_PARAMETERS angstroms 
3,00000000      0,00000000      0,00000000      
0,00000000      3,00000000      0,00000000      
0,00000000      0,00000000      3,00000000      

