 H                                      
   1.00000000000000     
    25.0000000000000000    0.0000000000000000    0.0000000000000000
     0.0000000000000000   25.0000000000000000    0.0000000000000000
     0.0000000000000000    0.0000000000000000   25.0000000000000000
   H 
     2
Direct
  0.5000000000000000  0.5000000000000000  0.4969897058374855
  0.5000000000000000  0.5000000000000000  0.5250102941625154
 
  0.00000000E+00  0.00000000E+00  0.00000000E+00
  0.00000000E+00  0.00000000E+00  0.00000000E+00
