       N       E                     dE             d eps       ncg     rms          rms(c)
DAV:   1     0.159214264191E+01    0.15921E+01   -0.26264E+02    24   0.612E+01
DAV:   2    -0.730151727452E+01   -0.88937E+01   -0.88937E+01    24   0.260E+01
DAV:   3    -0.745094001733E+01   -0.14942E+00   -0.14942E+00    32   0.543E+00
DAV:   4    -0.745098172427E+01   -0.41707E-04   -0.41707E-04    16   0.121E-01
DAV:   5    -0.745098188627E+01   -0.16200E-06   -0.16199E-06    24   0.759E-03    0.447E+00
RMM:   6    -0.700602174928E+01    0.44496E+00   -0.17996E-01    16   0.129E+00    0.246E+00
RMM:   7    -0.676164017584E+01    0.24438E+00   -0.48410E-01    16   0.210E+00    0.292E-01
RMM:   8    -0.676554033512E+01   -0.39002E-02   -0.50893E-03    16   0.229E-01    0.231E-01
RMM:   9    -0.676236824163E+01    0.31721E-02   -0.37290E-03    16   0.179E-01    0.360E-02
RMM:  10    -0.676352627050E+01   -0.11580E-02   -0.12607E-03    16   0.944E-02    0.250E-02
RMM:  11    -0.676406397452E+01   -0.53770E-03   -0.19899E-05    16   0.144E-02    0.119E-02
RMM:  12    -0.676594386817E+01   -0.18799E-02   -0.41205E-04    16   0.569E-02    0.916E-03
RMM:  13    -0.676622363199E+01   -0.27976E-03   -0.30589E-05    16   0.139E-02    0.910E-03
RMM:  14    -0.676645092114E+01   -0.22729E-03   -0.21857E-05    16   0.128E-02    0.340E-03
RMM:  15    -0.676653042122E+01   -0.79500E-04   -0.12712E-06    16   0.335E-03    0.730E-04
RMM:  16    -0.676656457344E+01   -0.34152E-04   -0.30108E-07    15   0.189E-03    0.359E-04
RMM:  17    -0.676658097092E+01   -0.16397E-04   -0.12171E-07    15   0.107E-03    0.634E-04
RMM:  18    -0.676658486644E+01   -0.38955E-05   -0.45550E-08    15   0.598E-04    0.157E-04
RMM:  19    -0.676658772614E+01   -0.28597E-05    0.00000E+00    14   0.265E-04    0.102E-04
RMM:  20    -0.676658791621E+01   -0.19007E-06    0.00000E+00    14   0.312E-04
   1 F= -.67666105E+01 E0= -.67666105E+01  d E =-.676661E+01
       N       E                     dE             d eps       ncg     rms          rms(c)
DAV:   1    -0.676614779434E+01    0.43993E-03   -0.14906E-02    32   0.575E-01    0.603E-02
RMM:   2    -0.676608148203E+01    0.66312E-04   -0.40324E-05    16   0.174E-02    0.326E-02
RMM:   3    -0.676607039674E+01    0.11085E-04   -0.62017E-05    16   0.218E-02    0.219E-03
RMM:   4    -0.676607286287E+01   -0.24661E-05   -0.81515E-07    16   0.288E-03    0.279E-04
RMM:   5    -0.676607332885E+01   -0.46598E-06   -0.23922E-08    15   0.546E-04
   2 F= -.67660963E+01 E0= -.67660963E+01  d E =0.514263E-03
       N       E                     dE             d eps       ncg     rms          rms(c)
DAV:   1    -0.676649378886E+01   -0.42093E-03   -0.23776E-03    24   0.229E-01    0.239E-02
RMM:   2    -0.676648450581E+01    0.92831E-05   -0.61227E-06    16   0.730E-03    0.131E-02
RMM:   3    -0.676648220708E+01    0.22987E-05   -0.10008E-05    16   0.877E-03    0.881E-04
RMM:   4    -0.676648265000E+01   -0.44293E-06   -0.11858E-07    15   0.113E-03
   3 F= -.67665055E+01 E0= -.67665055E+01  d E =-.409189E-03
       N       E                     dE             d eps       ncg     rms          rms(c)
DAV:   1    -0.676663364177E+01   -0.15143E-03   -0.25124E-03    24   0.236E-01    0.248E-02
RMM:   2    -0.676662289677E+01    0.10745E-04   -0.68956E-06    16   0.761E-03    0.135E-02
RMM:   3    -0.676661998801E+01    0.29088E-05   -0.10810E-05    16   0.909E-03    0.917E-04
RMM:   4    -0.676662039216E+01   -0.40415E-06   -0.12478E-07    15   0.117E-03
   4 F= -.67666431E+01 E0= -.67666431E+01  d E =-.137610E-03
