       N       E                     dE             d eps       ncg     rms          rms(c)
DAV:   1    -0.178620062549E+01   -0.17862E+01   -0.38980E+02    96   0.222E+01
DAV:   2    -0.732088781115E+01   -0.55347E+01   -0.55347E+01    64   0.633E+00
DAV:   3    -0.743694210832E+01   -0.11605E+00   -0.11605E+00    96   0.129E+00
DAV:   4    -0.743701241264E+01   -0.70304E-04   -0.70304E-04    96   0.308E-02
DAV:   5    -0.743701244272E+01   -0.30074E-07   -0.30552E-07   128   0.745E-04    0.446E+00
RMM:   6    -0.699407499716E+01    0.44294E+00   -0.16687E-01    64   0.316E-01    0.245E+00
RMM:   7    -0.675072938332E+01    0.24335E+00   -0.45669E-01    64   0.520E-01    0.291E-01
RMM:   8    -0.675457653675E+01   -0.38472E-02   -0.43977E-03    64   0.531E-02    0.233E-01
RMM:   9    -0.675136535259E+01    0.32112E-02   -0.36414E-03    64   0.449E-02    0.360E-02
RMM:  10    -0.675255917963E+01   -0.11938E-02   -0.12118E-03    64   0.231E-02    0.235E-02
RMM:  11    -0.675311093788E+01   -0.55176E-03   -0.19276E-05    64   0.359E-03    0.119E-02
RMM:  12    -0.675496713846E+01   -0.18562E-02   -0.35602E-04    64   0.138E-02    0.836E-03
RMM:  13    -0.675527582622E+01   -0.30869E-03   -0.21357E-05    64   0.314E-03    0.891E-03
RMM:  14    -0.675547477959E+01   -0.19895E-03   -0.15707E-05    64   0.278E-03    0.297E-03
RMM:  15    -0.675555972107E+01   -0.84941E-04   -0.14542E-06    64   0.900E-04    0.843E-04
RMM:  16    -0.675558662223E+01   -0.26901E-04   -0.18695E-07    64   0.380E-04    0.446E-04
RMM:  17    -0.675560262377E+01   -0.16002E-04   -0.79338E-08    63   0.206E-04    0.337E-04
RMM:  18    -0.675560605021E+01   -0.34264E-05   -0.49275E-08    63   0.165E-04    0.308E-04
RMM:  19    -0.675560853463E+01   -0.24844E-05   -0.14167E-08    63   0.833E-05    0.334E-05
RMM:  20    -0.675560867133E+01   -0.13669E-06    0.00000E+00    62   0.219E-05
   1 F= -.67556314E+01 E0= -.67583844E+01  d E =0.110122E-01
       N       E                     dE             d eps       ncg     rms          rms(c)
DAV:   1    -0.675562973841E+01   -0.21204E-04   -0.88375E-01    64   0.115E+00    0.230E-01
RMM:   2    -0.675555084720E+01    0.78891E-04   -0.29942E-03    64   0.834E-02    0.142E-01
RMM:   3    -0.675551010496E+01    0.40742E-04   -0.59471E-04    64   0.228E-02    0.760E-03
RMM:   4    -0.675552548975E+01   -0.15385E-04   -0.67075E-06    64   0.259E-03    0.406E-03
RMM:   5    -0.675554547074E+01   -0.19981E-04   -0.46656E-06    64   0.188E-03    0.812E-04
RMM:   6    -0.675555398252E+01   -0.85118E-05   -0.43511E-07    64   0.456E-04    0.379E-04
RMM:   7    -0.675556234999E+01   -0.83675E-05   -0.66432E-07    64   0.499E-04    0.240E-04
RMM:   8    -0.675556821176E+01   -0.58618E-05   -0.34163E-07    64   0.356E-04    0.129E-04
RMM:   9    -0.675556892520E+01   -0.71344E-06    0.00000E+00    62   0.499E-05
   2 F= -.67555917E+01 E0= -.67583447E+01  d E =0.110122E-01
       N       E                     dE             d eps       ncg     rms          rms(c)
DAV:   1    -0.675549221591E+01    0.75996E-04   -0.34999E+00    64   0.229E+00    0.454E-01
RMM:   2    -0.675563877398E+01   -0.14656E-03   -0.14116E-02    64   0.171E-01    0.284E-01
RMM:   3    -0.675539428405E+01    0.24449E-03   -0.22645E-03    64   0.439E-02    0.186E-02
RMM:   4    -0.675542846908E+01   -0.34185E-04   -0.34954E-05    64   0.560E-03    0.811E-03
RMM:   5    -0.675549733895E+01   -0.68870E-04   -0.19280E-05    64   0.388E-03    0.138E-03
RMM:   6    -0.675552118960E+01   -0.23851E-04   -0.13447E-06    64   0.863E-04    0.802E-04
RMM:   7    -0.675554771899E+01   -0.26529E-04   -0.27628E-06    64   0.103E-03    0.330E-04
RMM:   8    -0.675556271748E+01   -0.14998E-04   -0.96763E-07    64   0.615E-04    0.127E-04
RMM:   9    -0.675556615705E+01   -0.34396E-05   -0.84164E-08    63   0.194E-04    0.955E-05
RMM:  10    -0.675556973728E+01   -0.35802E-05   -0.71866E-08    63   0.178E-04    0.373E-05
RMM:  11    -0.675557090563E+01   -0.11684E-05   -0.88874E-09    63   0.687E-05    0.141E-05
RMM:  12    -0.675557113315E+01   -0.22751E-06    0.00000E+00    62   0.263E-05
   3 F= -.67555939E+01 E0= -.67583470E+01  d E =0.110122E-01
       N       E                     dE             d eps       ncg     rms          rms(c)
DAV:   1    -0.675562355404E+01   -0.52648E-04   -0.17610E+00    64   0.162E+00    0.323E-01
RMM:   2    -0.675556752116E+01    0.56033E-04   -0.63606E-03    64   0.119E-01    0.201E-01
RMM:   3    -0.675546232128E+01    0.10520E-03   -0.11790E-03    64   0.321E-02    0.101E-02
RMM:   4    -0.675548979747E+01   -0.27476E-04   -0.12552E-05    64   0.349E-03    0.556E-03
RMM:   5    -0.675552805281E+01   -0.38255E-04   -0.94995E-06    64   0.264E-03    0.936E-04
RMM:   6    -0.675554371237E+01   -0.15660E-04   -0.92226E-07    64   0.674E-04    0.481E-04
RMM:   7    -0.675555702532E+01   -0.13313E-04   -0.11510E-06    64   0.660E-04    0.228E-04
RMM:   8    -0.675556655326E+01   -0.95279E-05   -0.59646E-07    64   0.477E-04    0.850E-05
RMM:   9    -0.675556861888E+01   -0.20656E-05   -0.27616E-08    63   0.117E-04    0.574E-05
RMM:  10    -0.675557042581E+01   -0.18069E-05   -0.28607E-08    63   0.112E-04    0.255E-05
RMM:  11    -0.675557115958E+01   -0.73377E-06    0.00000E+00    62   0.513E-05
   4 F= -.67555939E+01 E0= -.67583470E+01  d E =0.110122E-01
       N       E                     dE             d eps       ncg     rms          rms(c)
DAV:   1    -0.675557387826E+01   -0.34524E-05   -0.35007E+00    64   0.229E+00    0.454E-01
RMM:   2    -0.675563771399E+01   -0.63836E-04   -0.13281E-02    64   0.167E-01    0.283E-01
RMM:   3    -0.675538449705E+01    0.25322E-03   -0.23649E-03    64   0.448E-02    0.152E-02
RMM:   4    -0.675542856870E+01   -0.44072E-04   -0.27873E-05    64   0.517E-03    0.809E-03
RMM:   5    -0.675549708164E+01   -0.68513E-04   -0.19063E-05    64   0.386E-03    0.138E-03
RMM:   6    -0.675552127745E+01   -0.24196E-04   -0.13731E-06    64   0.866E-04    0.795E-04
RMM:   7    -0.675554753651E+01   -0.26259E-04   -0.27173E-06    64   0.102E-03    0.332E-04
RMM:   8    -0.675556286738E+01   -0.15331E-04   -0.10210E-06    64   0.630E-04    0.129E-04
RMM:   9    -0.675556613700E+01   -0.32696E-05   -0.71336E-08    63   0.181E-04    0.958E-05
RMM:  10    -0.675556970705E+01   -0.35700E-05   -0.70059E-08    63   0.176E-04    0.388E-05
RMM:  11    -0.675557089797E+01   -0.11909E-05   -0.92767E-09    63   0.697E-05    0.145E-05
RMM:  12    -0.675557113104E+01   -0.23307E-06    0.00000E+00    62   0.260E-05
   5 F= -.67555939E+01 E0= -.67583470E+01  d E =0.110122E-01
       N       E                     dE             d eps       ncg     rms          rms(c)
DAV:   1    -0.671269607205E+01    0.42875E-01   -0.20190E+00    64   0.169E+00    0.543E-01
RMM:   2    -0.670931313465E+01    0.33829E-02   -0.10610E-02    64   0.136E-01    0.331E-01
RMM:   3    -0.670748352541E+01    0.18296E-02   -0.66399E-03    64   0.587E-02    0.524E-02
RMM:   4    -0.670749387135E+01   -0.10346E-04   -0.45513E-05    64   0.628E-03    0.298E-02
RMM:   5    -0.670754764265E+01   -0.53771E-04   -0.11837E-04    64   0.890E-03    0.142E-02
RMM:   6    -0.670755133718E+01   -0.36945E-05   -0.50577E-06    64   0.171E-03    0.518E-03
RMM:   7    -0.670758619333E+01   -0.34856E-04   -0.82687E-06    64   0.196E-03    0.215E-03
RMM:   8    -0.670759524310E+01   -0.90498E-05   -0.27365E-07    64   0.397E-04    0.900E-04
RMM:   9    -0.670761144563E+01   -0.16203E-04   -0.85734E-07    64   0.607E-04    0.441E-04
RMM:  10    -0.670761868959E+01   -0.72440E-05   -0.14241E-07    63   0.268E-04    0.183E-04
RMM:  11    -0.670762222484E+01   -0.35353E-05   -0.52752E-08    63   0.152E-04    0.108E-04
RMM:  12    -0.670762449599E+01   -0.22712E-05   -0.24843E-08    63   0.107E-04    0.377E-05
RMM:  13    -0.670762491213E+01   -0.41614E-06    0.00000E+00    62   0.361E-05
   6 F= -.67076457E+01 E0= -.67103988E+01  d E =0.110122E-01
       N       E                     dE             d eps       ncg     rms          rms(c)
DAV:   1    -0.673620146159E+01   -0.28577E-01   -0.41610E+00    64   0.239E+00    0.942E-01
RMM:   2    -0.672288105176E+01    0.13320E-01   -0.25055E-02    64   0.173E-01    0.516E-01
RMM:   3    -0.671687873040E+01    0.60023E-02   -0.15472E-02    64   0.876E-02    0.596E-02
RMM:   4    -0.671697217393E+01   -0.93444E-04   -0.77046E-04    64   0.225E-02    0.194E-02
RMM:   5    -0.671701628587E+01   -0.44112E-04   -0.10746E-04    64   0.955E-03    0.383E-03
RMM:   6    -0.671704931804E+01   -0.33032E-04   -0.19317E-05    64   0.336E-03    0.300E-03
RMM:   7    -0.671705491837E+01   -0.56003E-05   -0.17533E-06    64   0.113E-03    0.783E-04
RMM:   8    -0.671706815913E+01   -0.13241E-04   -0.17035E-06    64   0.803E-04    0.795E-04
RMM:   9    -0.671707292745E+01   -0.47683E-05   -0.20670E-07    64   0.299E-04    0.714E-04
RMM:  10    -0.671707920583E+01   -0.62784E-05   -0.22343E-07    64   0.315E-04    0.919E-05
RMM:  11    -0.671708187728E+01   -0.26714E-05   -0.17598E-08    63   0.950E-05    0.637E-05
RMM:  12    -0.671708343319E+01   -0.15559E-05   -0.12473E-08    63   0.737E-05    0.288E-05
RMM:  13    -0.671708428409E+01   -0.85090E-06    0.00000E+00    62   0.467E-05
   7 F= -.67171097E+01 E0= -.67198627E+01  d E =0.110122E-01
       N       E                     dE             d eps       ncg     rms          rms(c)
DAV:   1    -0.675924075793E+01   -0.42157E-01   -0.18407E+00    64   0.162E+00    0.468E-01
RMM:   2    -0.675686814457E+01    0.23726E-02   -0.10177E-02    64   0.129E-01    0.281E-01
RMM:   3    -0.675542874480E+01    0.14394E-02   -0.46298E-03    64   0.488E-02    0.366E-02
RMM:   4    -0.675544468509E+01   -0.15940E-04   -0.40263E-05    64   0.594E-03    0.213E-02
RMM:   5    -0.675548547281E+01   -0.40788E-04   -0.66459E-05    64   0.679E-03    0.775E-03
RMM:   6    -0.675549212012E+01   -0.66473E-05   -0.25880E-06    64   0.123E-03    0.273E-03
RMM:   7    -0.675552670987E+01   -0.34590E-04   -0.56801E-06    64   0.153E-03    0.164E-03
RMM:   8    -0.675553538900E+01   -0.86791E-05   -0.21000E-07    64   0.341E-04    0.415E-04
RMM:   9    -0.675555012697E+01   -0.14738E-04   -0.84768E-07    64   0.572E-04    0.326E-04
RMM:  10    -0.675555689273E+01   -0.67658E-05   -0.12030E-07    63   0.240E-04    0.251E-04
RMM:  11    -0.675555926142E+01   -0.23687E-05   -0.41049E-08    63   0.135E-04    0.778E-05
RMM:  12    -0.675556122696E+01   -0.19655E-05   -0.19956E-08    63   0.961E-05    0.320E-05
RMM:  13    -0.675556155719E+01   -0.33023E-06    0.00000E+00    62   0.333E-05
   8 F= -.67555843E+01 E0= -.67583374E+01  d E =0.110122E-01
       N       E                     dE             d eps       ncg     rms          rms(c)
DAV:   1    -0.675543785994E+01    0.12337E-03   -0.34995E+00    64   0.229E+00    0.454E-01
RMM:   2    -0.675562732186E+01   -0.18946E-03   -0.14624E-02    64   0.173E-01    0.284E-01
RMM:   3    -0.675538766850E+01    0.23965E-03   -0.22190E-03    64   0.437E-02    0.202E-02
RMM:   4    -0.675541797811E+01   -0.30310E-04   -0.38604E-05    64   0.585E-03    0.812E-03
RMM:   5    -0.675548739239E+01   -0.69414E-04   -0.19520E-05    64   0.391E-03    0.138E-03
RMM:   6    -0.675551099352E+01   -0.23601E-04   -0.13141E-06    64   0.859E-04    0.812E-04
RMM:   7    -0.675553794780E+01   -0.26954E-04   -0.28241E-06    64   0.104E-03    0.332E-04
RMM:   8    -0.675555297218E+01   -0.15024E-04   -0.94895E-07    64   0.610E-04    0.130E-04
RMM:   9    -0.675555652372E+01   -0.35515E-05   -0.90203E-08    63   0.200E-04    0.978E-05
RMM:  10    -0.675556022806E+01   -0.37043E-05   -0.74556E-08    63   0.181E-04    0.392E-05
RMM:  11    -0.675556140016E+01   -0.11721E-05   -0.87537E-09    63   0.684E-05    0.149E-05
RMM:  12    -0.675556164784E+01   -0.24768E-06    0.00000E+00    62   0.274E-05
   9 F= -.67555844E+01 E0= -.67583375E+01  d E =0.110122E-01
       N       E                     dE             d eps       ncg     rms          rms(c)
DAV:   1    -0.675561520410E+01   -0.53804E-04   -0.17610E+00    64   0.162E+00    0.323E-01
RMM:   2    -0.675555771863E+01    0.57485E-04   -0.63423E-03    64   0.118E-01    0.201E-01
RMM:   3    -0.675545196437E+01    0.10575E-03   -0.11815E-03    64   0.321E-02    0.993E-03
RMM:   4    -0.675548032569E+01   -0.28361E-04   -0.12360E-05    64   0.347E-03    0.556E-03
RMM:   5    -0.675551854493E+01   -0.38219E-04   -0.94904E-06    64   0.264E-03    0.935E-04
RMM:   6    -0.675553426009E+01   -0.15715E-04   -0.92424E-07    64   0.674E-04    0.480E-04
RMM:   7    -0.675554754400E+01   -0.13284E-04   -0.11492E-06    64   0.659E-04    0.228E-04
RMM:   8    -0.675555707490E+01   -0.95309E-05   -0.59683E-07    64   0.477E-04    0.849E-05
RMM:   9    -0.675555913899E+01   -0.20641E-05   -0.27476E-08    63   0.117E-04    0.573E-05
RMM:  10    -0.675556094700E+01   -0.18080E-05   -0.28602E-08    63   0.112E-04    0.254E-05
RMM:  11    -0.675556167872E+01   -0.73172E-06    0.00000E+00    62   0.514E-05
  10 F= -.67555844E+01 E0= -.67583375E+01  d E =0.110122E-01
       N       E                     dE             d eps       ncg     rms          rms(c)
DAV:   1    -0.675555326704E+01    0.76800E-05   -0.35006E+00    64   0.229E+00    0.454E-01
RMM:   2    -0.675562838527E+01   -0.75118E-04   -0.13388E-02    64   0.167E-01    0.283E-01
RMM:   3    -0.675537568719E+01    0.25270E-03   -0.23529E-03    64   0.447E-02    0.156E-02
RMM:   4    -0.675541870815E+01   -0.43021E-04   -0.28661E-05    64   0.522E-03    0.809E-03
RMM:   5    -0.675548751866E+01   -0.68811E-04   -0.19108E-05    64   0.386E-03    0.138E-03
RMM:   6    -0.675551178567E+01   -0.24267E-04   -0.13713E-06    64   0.865E-04    0.795E-04
RMM:   7    -0.675553803446E+01   -0.26249E-04   -0.27229E-06    64   0.102E-03    0.332E-04
RMM:   8    -0.675555333766E+01   -0.15303E-04   -0.10148E-06    64   0.628E-04    0.128E-04
RMM:   9    -0.675555665683E+01   -0.33192E-05   -0.72979E-08    63   0.182E-04    0.957E-05
RMM:  10    -0.675556023112E+01   -0.35743E-05   -0.70057E-08    63   0.176E-04    0.384E-05
RMM:  11    -0.675556142156E+01   -0.11904E-05   -0.92514E-09    63   0.698E-05    0.144E-05
RMM:  12    -0.675556165306E+01   -0.23151E-06    0.00000E+00    62   0.260E-05
  11 F= -.67555844E+01 E0= -.67583375E+01  d E =0.110122E-01
       N       E                     dE             d eps       ncg     rms          rms(c)
DAV:   1    -0.672086571740E+01    0.34696E-01   -0.18656E+00    64   0.163E+00    0.483E-01
RMM:   2    -0.671821739395E+01    0.26483E-02   -0.96873E-03    64   0.121E-01    0.273E-01
RMM:   3    -0.671697004398E+01    0.12473E-02   -0.36450E-03    64   0.443E-02    0.334E-02
RMM:   4    -0.671701250291E+01   -0.42459E-04   -0.13880E-04    64   0.970E-03    0.106E-02
RMM:   5    -0.671703818092E+01   -0.25678E-04   -0.23973E-05    64   0.438E-03    0.220E-03
RMM:   6    -0.671706062823E+01   -0.22447E-04   -0.66944E-06    64   0.186E-03    0.222E-03
RMM:   7    -0.671706396227E+01   -0.33340E-05   -0.46206E-07    64   0.559E-04    0.444E-04
RMM:   8    -0.671707265108E+01   -0.86888E-05   -0.87799E-07    64   0.567E-04    0.366E-04
RMM:   9    -0.671707465812E+01   -0.20070E-05   -0.54626E-08    63   0.161E-04    0.256E-04
RMM:  10    -0.671707755352E+01   -0.28954E-05   -0.72185E-08    63   0.176E-04    0.673E-05
RMM:  11    -0.671707891748E+01   -0.13640E-05   -0.14316E-08    63   0.827E-05    0.652E-05
RMM:  12    -0.671707931945E+01   -0.40197E-06    0.00000E+00    62   0.373E-05
  12 F= -.67171047E+01 E0= -.67198578E+01  d E =0.110122E-01
       N       E                     dE             d eps       ncg     rms          rms(c)
DAV:   1    -0.672390847361E+01   -0.68296E-02   -0.42738E+00    64   0.241E+00    0.901E-01
RMM:   2    -0.671355013744E+01    0.10358E-01   -0.31264E-02    64   0.229E-01    0.546E-01
RMM:   3    -0.670728742255E+01    0.62627E-02   -0.19819E-02    64   0.993E-02    0.870E-02
RMM:   4    -0.670728460709E+01    0.28155E-05   -0.17305E-04    64   0.118E-02    0.387E-02
RMM:   5    -0.670738238134E+01   -0.97774E-04   -0.24157E-04    64   0.132E-02    0.194E-02
RMM:   6    -0.670739516590E+01   -0.12785E-04   -0.15469E-05    64   0.295E-03    0.552E-03
RMM:   7    -0.670746843050E+01   -0.73265E-04   -0.18868E-05    64   0.291E-03    0.359E-03
RMM:   8    -0.670748602963E+01   -0.17599E-04   -0.64475E-07    64   0.620E-04    0.965E-04
RMM:   9    -0.670751927353E+01   -0.33244E-04   -0.19236E-06    64   0.914E-04    0.627E-04
RMM:  10    -0.670753324749E+01   -0.13974E-04   -0.27470E-07    64   0.368E-04    0.367E-04
RMM:  11    -0.670754127985E+01   -0.80324E-05   -0.14408E-07    63   0.267E-04    0.171E-04
RMM:  12    -0.670754612224E+01   -0.48424E-05   -0.10360E-07    63   0.229E-04    0.247E-04
RMM:  13    -0.670754646385E+01   -0.34161E-06   -0.50282E-09    63   0.589E-05
  13 F= -.67075673E+01 E0= -.67103203E+01  d E =0.110122E-01
