 vasp.5.2.12 11Nov11 complex                                                    
  
 executed on             Altamira date 2018.09.03  11:48:36
 running on   32 nodes
 distr:  one band on    1 nodes,   32 groups


--------------------------------------------------------------------------------------------------------


 INCAR:
 POTCAR:    PAW_PBE H 15Jun2001                   

 ----------------------------------------------------------------------------- 
|                                                                             |
|           W    W    AA    RRRRR   N    N  II  N    N   GGGG   !!!           |
|           W    W   A  A   R    R  NN   N  II  NN   N  G    G  !!!           |
|           W    W  A    A  R    R  N N  N  II  N N  N  G       !!!           |
|           W WW W  AAAAAA  RRRRR   N  N N  II  N  N N  G  GGG   !            |
|           WW  WW  A    A  R   R   N   NN  II  N   NN  G    G                |
|           W    W  A    A  R    R  N    N  II  N    N   GGGG   !!!           |
|                                                                             |
|      For optimal performance we recommend that you set                      |
|        NPAR = approx SQRT( number of cores)                                 |
|      This will greatly improve the performance of VASP for DFT.             |
|      The default NPAR=number of cores might be grossly inefficient          |
|      on modern multi-core architectures or massively parallel machines.     |
|      Unfortunately you need to use the default for hybrid, GW and RPA       |
|      calculations.                                                          |
|                                                                             |
 ----------------------------------------------------------------------------- 

 POTCAR:    PAW_PBE H 15Jun2001                   
   VRHFIN =H: ultrasoft test                                                    
   LEXCH  = PE                                                                  
   EATOM  =    12.4884 eV,    0.9179 Ry                                         
                                                                                
   TITEL  = PAW_PBE H 15Jun2001                                                 
   LULTRA =        F    use ultrasoft PP ?                                      
   IUNSCR =        0    unscreen: 0-lin 1-nonlin 2-no                           
   RPACOR =    0.000    partial core radius                                     
   POMASS =    1.000; ZVAL   =    1.000    mass and valenz                      
   RCORE  =    1.100    outmost cutoff radius                                   
   RWIGS  =    0.700; RWIGS  =    0.370    wigner-seitz radius (au A)           
   ENMAX  =  250.000; ENMIN  =  200.000 eV                                      
   RCLOC  =    0.701    cutoff for local pot                                    
   LCOR   =        T    correct aug charges                                     
   LPAW   =        T    paw PP                                                  
   EAUG   =  400.000                                                            
   RMAX   =    1.123    core radius for proj-oper                               
   RAUG   =    1.200    factor for augmentation sphere                          
   RDEP   =    1.112    radius for radial grids                                 
   RDEPT  =    0.926    core radius for aug-charge                              
                                                                                
   Atomic configuration                                                         
    2 entries                                                                   
     n  l   j            E        occ.                                          
     1  0  0.50        -6.4927   1.0000                                         
     2  1  0.50        -3.4015   0.0000                                         
   Description                                                                  
     l       E           TYP  RCUT    TYP  RCUT                                 
     0     -6.4927494     23  1.100                                             
     0      6.8029130     23  1.100                                             
     1     -4.0817478     23  1.100                                             
  local pseudopotential read in
  atomic valenz-charges read in
  non local Contribution for L=           0  read in
    real space projection operators read in
  non local Contribution for L=           0  read in
    real space projection operators read in
  non local Contribution for L=           1  read in
    real space projection operators read in
    PAW grid and wavefunctions read in
 
   number of l-projection  operators is LMAX  =           3
   number of lm-projection operators is LMMAX =           5
 

 ----------------------------------------------------------------------------- 
|                                                                             |
|  ADVICE TO THIS USER RUNNING 'VASP/VAMP'   (HEAR YOUR MASTER'S VOICE ...):  |
|                                                                             |
|      You have a (more or less) 'small supercell' and for smaller cells      |
|      it is recommended  to use the reciprocal-space projection scheme!      |
|      The real space optimization is not  efficient for small cells and it   |
|      is also less accurate ...                                              |
|      Therefore set LREAL=.FALSE. in the  INCAR file                         |
|                                                                             |
 ----------------------------------------------------------------------------- 

 Optimization of the real space projectors (new method)

 maximal supplied QI-value         = 34.20
 optimisation between [QCUT,QGAM] = [ 10.60, 21.55] = [ 31.48,130.03] Ry 
 Optimized for a Real-space Cutoff    1.23 Angstroem

   l    n(q)    QCUT    max X(q) W(low)/X(q) W(high)/X(q)  e(spline) 
   0      8    10.603    19.460    0.37E-03    0.59E-03    0.23E-06
   0      8    10.603    12.209    0.35E-03    0.56E-03    0.22E-06
   1      7    10.603     4.655    0.70E-04    0.28E-03    0.29E-06
  PAW_PBE H 15Jun2001                   :
 energy of atom  1       EATOM=  -12.4884
 kinetic energy error for atom=    0.0045 (will be added to EATOM!!)
 
 
 POSCAR:  H                                      
  positions in direct lattice
  velocities in cartesian coordinates
  No initial velocities read in
 exchange correlation table for  LEXCH =        8
   RHO(1)=    0.500       N(1)  =     2000
   RHO(2)=  100.500       N(2)  =     4000

 VTST: version 3.2, (02/03/18)

 CHAIN: initializing optimizer
 
 OPT: Using VASP Dynamics algorithm
 CHAIN: Read ICHAIN            0
 
 POSCAR:  H                                      
  positions in direct lattice
  velocities in cartesian coordinates
  No initial velocities read in
 


--------------------------------------------------------------------------------------------------------


 ion  position               nearest neighbor table
   1  0.500  0.500  0.497-   2 0.75
   2  0.500  0.500  0.527-   1 0.75
 
  LATTYP: Found a simple cubic cell.
 ALAT       =    25.0000000000
  
  Lattice vectors:
  
 A1 = (  25.0000000000,   0.0000000000,   0.0000000000)
 A2 = (   0.0000000000,  25.0000000000,   0.0000000000)
 A3 = (   0.0000000000,   0.0000000000,  25.0000000000)
 Subroutine PRICEL returns:
 Original cell was already a primitive cell.
 

Analysis of symmetry for initial positions (statically):

 Routine SETGRP: Setting up the symmetry group for a 
 simple cubic supercell.


 Subroutine GETGRP returns: Found 16 space group operations
 (whereof  8 operations were pure point group operations)
 out of a pool of 48 trial point group operations.


The static configuration has the point symmetry C_4v.
 The point group associated with its full space group is D_4h.

Analysis of symmetry for dynamics (positions and initial velocities):

 Subroutine DYNSYM returns: Found 16 space group operations
 (whereof  8 operations were pure point group operations)
 out of a pool of 16 trial space group operations
 (whereof  8 operations were pure point group operations)
 and found also     1 'primitive' translations


The dynamic configuration has the point symmetry C_4v.
 The point group associated with its full space group is D_4h.
 
 
 KPOINTS: k-points                                

Automatic generation of k-mesh.
 
 Subroutine IBZKPT returns following result:
 ===========================================
 
 Found      1 irreducible k-points:
 
 Following reciprocal coordinates:
            Coordinates               Weight
  0.000000  0.000000  0.000000      1.000000
 
 Following cartesian coordinates:
            Coordinates               Weight
  0.000000  0.000000  0.000000      1.000000
 
 
 Subroutine IBZKPT_HF returns following result:
 ==============================================
 
 Found      1 k-points in 1st BZ
 the following      1 k-points will be used (e.g. in the exchange kernel)
 Following reciprocal coordinates:   # in IRBZ
  0.000000  0.000000  0.000000       1 t-inv F


--------------------------------------------------------------------------------------------------------




 Dimension of arrays:
   k-points           NKPTS =      1   k-points in BZ     NKDIM =      1   number of bands    NBANDS=     32
   number of dos      NEDOS =    301   number of ions     NIONS =      2
   non local maximal  LDIM  =      3   non local SUM 2l+1 LMDIM =      5
   total plane-waves  NPLWV = ******
   max r-space proj   IRMAX =   1408   max aug-charges    IRDMAX=   1053
   dimension x,y,z NGX =   140 NGY =  140 NGZ =  140
   dimension x,y,z NGXF=   280 NGYF=  280 NGZF=  280
   support grid    NGXF=   280 NGYF=  280 NGZF=  280
   ions per type =               2
 NGX,Y,Z   is equivalent  to a cutoff of   9.31,  9.31,  9.31 a.u.
 NGXF,Y,Z  is equivalent  to a cutoff of  18.62, 18.62, 18.62 a.u.


 I would recommend the setting:
   dimension x,y,z NGX =   130 NGY =  130 NGZ =  130
 SYSTEM =  unknown system                          
 POSCAR =   H                                      

 Startparameter for this run:
   NWRITE =      2    write-flag & timer
   PREC   = normal    normal or accurate (medium, high low for compatibility)
   ISTART =      0    job   : 0-new  1-cont  2-samecut
   ICHARG =      2    charge: 1-file 2-atom 10-const
   ISPIN  =      1    spin polarized calculation?
   LNONCOLLINEAR =      F non collinear calculations
   LSORBIT =      F    spin-orbit coupling
   INIWAV =      1    electr: 0-lowe 1-rand  2-diag
   LASPH  =      F    aspherical Exc in radial PAW
   METAGGA=      F    non-selfconsistent MetaGGA calc.

 Electronic Relaxation 1
   ENCUT  =  450.0 eV  33.07 Ry    5.75 a.u.  43.24 43.24 43.24*2*pi/ulx,y,z
   ENINI  =  450.0     initial cutoff
   ENAUG  =  400.0 eV  augmentation charge cutoff
   NELM   =     80;   NELMIN=  2; NELMDL=  0     # of ELM steps 
   EDIFF  = 0.1E-05   stopping-criterion for ELM
   LREAL  =      T    real-space projection
   NLSPLINE    = F    spline interpolate recip. space projectors
   LCOMPAT=      F    compatible to vasp.4.4
   GGA_COMPAT  = T    GGA compatible to vasp.4.4-vasp.4.6
   LMAXPAW     = -100 max onsite density
   LMAXMIX     =    2 max onsite mixed and CHGCAR
   VOSKOWN=      0    Vosko Wilk Nusair interpolation
   ROPT   =   -0.00050
 Ionic relaxation
   EDIFFG = -.1E-01   stopping-criterion for IOM
   NSW    =     61    number of steps for IOM
   NBLOCK =      1;   KBLOCK =      1    inner block; outer block 
   IBRION =      5    ionic relax: 0-MD 1-quasi-New 2-CG
   NFREE  =      2    steps in history (QN), initial steepest desc. (CG)
   ISIF   =      2    stress and relaxation
   IWAVPR =     11    prediction:  0-non 1-charg 2-wave 3-comb
   ISYM   =      2    0-nonsym 1-usesym 2-fastsym
   LCORR  =      T    Harris-Foulkes like correction to forces

   POTIM  = 0.0500    time-step for ionic-motion
   TEIN   =    0.0    initial temperature
   TEBEG  =    0.0;   TEEND  =   0.0 temperature during run
   SMASS  =  -3.00    Nose mass-parameter (am)
   estimated Nose-frequenzy (Omega)   =  0.10E-29 period in steps =****** mass=  -0.143E-25a.u.
   SCALEE = 1.0000    scale energy and forces
   NPACO  =    256;   APACO  = 16.0  distance and # of slots for P.C.
   PSTRESS=    0.0 pullay stress

  Mass of Ions in am
   POMASS =   1.00
  Ionic Valenz
   ZVAL   =   1.00
  Atomic Wigner-Seitz radii
   RWIGS  =  -1.00
  virtual crystal weights 
   VCA    =   1.00
   NELECT =       2.0000    total number of electrons
   NUPDOWN=      -1.0000    fix difference up-down

 DOS related values:
   EMIN   =  10.00;   EMAX   =-10.00  energy-range for DOS
   EFERMI =   0.00
   ISMEAR =     2;   SIGMA  =   0.20  broadening in eV -4-tet -1-fermi 0-gaus

 Electronic relaxation 2 (details)
   IALGO  =     68    algorithm
   LDIAG  =      T    sub-space diagonalisation (order eigenvalues)
   LSUBROT=      T    optimize rotation matrix (better conditioning)
   TURBO    =      0    0=normal 1=particle mesh
   IRESTART =      0    0=no restart 2=restart with 2 vectors
   NREBOOT  =      0    no. of reboots
   NMIN     =      0    reboot dimension
   EREF     =   0.00    reference energy to select bands
   IMIX   =      4    mixing-type and parameters
     AMIX     =   0.40;   BMIX     =  1.00
     AMIX_MAG =   1.60;   BMIX_MAG =  1.00
     AMIN     =   0.10
     WC   =   100.;   INIMIX=   1;  MIXPRE=   1

 Intra band minimization:
   WEIMIN = 0.0010     energy-eigenvalue tresh-hold
   EBREAK =  0.78E-08  absolut break condition
   DEPER  =   0.30     relativ break condition  

   TIME   =   0.40     timestep for ELM

  volume/ion in A,a.u.               =    7812.50     52721.35
  Fermi-wavevector in a.u.,A,eV,Ry     =   0.082505  0.155911  0.092615  0.006807
  Thomas-Fermi vector in A             =   0.612481
 
 Write flags
   LWAVE  =      T    write WAVECAR
   LCHARG =      T    write CHGCAR
   LVTOT  =      F    write LOCPOT, total local potential
   LVHAR  =      F    write LOCPOT, Hartree potential only
   LELF   =      F    write electronic localiz. function (ELF)
   LORBIT =      0    0 simple, 1 ext, 2 COOP (PROOUT)


 Dipole corrections
   LMONO  =      F    monopole corrections only (constant potential shift)
   LDIPOL =      F    correct potential (dipole corrections)
   IDIPOL =      0    1-x, 2-y, 3-z, 4-all directions 
   EPSILON=  1.0000000 bulk dielectric constant

 Exchange correlation treatment:
   GGA     =    PE    GGA type
   LEXCH   =     8    internal setting for exchange type
   VOSKOWN=      0    Vosko Wilk Nusair interpolation
   LHFCALC =     F    Hartree Fock is set to
   LHFONE  =     F    Hartree Fock one center treatment
   AEXX    =    0.0000 exact exchange contribution

 Linear response parameters
   LEPSILON=     F    determine dielectric tensor
   LRPA    =     F    only Hartree local field effects (RPA)
   LNABLA  =     F    use nabla operator in PAW spheres
   LVEL    =     F    velocity operator in full k-point grid
   LINTERFAST=   F  fast interpolation
   KINTER  =     0    interpolate to denser k-point grid
   CSHIFT  =0.1000    complex shift for real part using Kramers Kronig
   OMEGAMAX=  -1.0    maximum frequency
   RTIME   =    0.100 relaxation time in fs

 Orbital magnetization related:
   ORBITALMAG=     F  switch on orbital magnetization
   LCHIMAG   =     F  perturbation theory with respect to B field
   DQ        =  0.001000  dq finite difference perturbation B field



--------------------------------------------------------------------------------------------------------


 finite differences
 charge density and potential will be updated during run
 non-spin polarized calculation
 RMM-DIIS sequential band-by-band and
  variant of blocked Davidson during initial phase
 perform sub-space diagonalisation
    before iterative eigenvector-optimisation
 modified Broyden-mixing scheme, WC =      100.0
 initial mixing is a Kerker type mixing with AMIX =  0.4000 and BMIX =      1.0000
 Hartree-type preconditioning will be used
 using additional bands           31
 real space projection scheme for non local part
 calculate Harris-corrections to forces 
   (improved forces if not selfconsistent)
 use gradient corrections 
 use of overlap-Matrix (Vanderbilt PP)
 Methfessel and Paxton  Order N= 2 SIGMA  =   0.20


--------------------------------------------------------------------------------------------------------


  energy-cutoff  :      450.00
  volume of cell :    15625.00
      direct lattice vectors                 reciprocal lattice vectors
    25.000000000  0.000000000  0.000000000     0.040000000  0.000000000  0.000000000
     0.000000000 25.000000000  0.000000000     0.000000000  0.040000000  0.000000000
     0.000000000  0.000000000 25.000000000     0.000000000  0.000000000  0.040000000

  length of vectors
    25.000000000 25.000000000 25.000000000     0.040000000  0.040000000  0.040000000


 
 k-points in units of 2pi/SCALE and weight: k-points                                
   0.00000000  0.00000000  0.00000000       1.000
 
 k-points in reciprocal lattice and weights: k-points                                
   0.00000000  0.00000000  0.00000000       1.000
 
 position of ions in fractional coordinates (direct lattice) 
   0.50000000  0.50000000  0.49698971
   0.50000000  0.50000000  0.52701029
 
 position of ions in cartesian coordinates  (Angst):
  12.50000000 12.50000000 12.42474265
  12.50000000 12.50000000 13.17525735
 


--------------------------------------------------------------------------------------------------------


 k-point  1 :  0.00000.00000.0000  plane waves:  338755

 maximum and minimum number of plane-waves per node :    338755   338755

 maximum number of plane-waves:    338755
 maximum index in each direction: 
   IXMAX=   43   IYMAX=   43   IZMAX=   43
   IXMIN=  -43   IYMIN=  -43   IZMIN=  -43

 WARNING: aliasing errors must be expected set NGX to 174 to avoid them
 WARNING: aliasing errors must be expected set NGY to 174 to avoid them
 WARNING: aliasing errors must be expected set NGZ to 174 to avoid them
 aliasing errors are usually negligible using standard VASP settings
 and one can safely disregard these warnings

 serial   3D FFT for wavefunctions
 parallel 3D FFT for charge:
    minimum data exchange during FFTs selected (reduces bandwidth)


 total amount of memory used by VASP on root node   214541. kBytes
========================================================================

   base      :      30000. kBytes
   nonlr-proj:        161. kBytes
   fftplans  :      34854. kBytes
   grid      :     144103. kBytes
   one-center:          2. kBytes
   wavefun   :       5421. kBytes
 
 Broyden mixing: mesh for mixing (old mesh)
   NGX = 87   NGY = 87   NGZ = 87
  (NGX  =280   NGY  =280   NGZ  =280)
  gives a total of 658503 points

 initial charge density was supplied:
 charge density of overlapping atoms calculated
 number of electron       2.0000000 magnetization 
 keeping initial charge density in first step


--------------------------------------------------------------------------------------------------------


 Maximum index for non-local projection operator         1318
 Maximum index for augmentation-charges            0 (set IRDMAX)


--------------------------------------------------------------------------------------------------------


 First call to EWALD:  gamma=   0.071
 Maximum number of real-space cells 3x 3x 3
 Maximum number of reciprocal cells 3x 3x 3

    FEWALD:  cpu time    0.00: real time    0.00


----------------------------------------- Iteration    1(   1)  ---------------------------------------


    POTLOK:  cpu time    0.97: real time    0.98
    SETDIJ:  cpu time    0.00: real time    0.00
     EDDAV:  cpu time    1.78: real time    3.34
       DOS:  cpu time    0.01: real time    0.01
    --------------------------------------------
      LOOP:  cpu time    2.75: real time    4.33

 eigenvalue-minimisations  :    96
 total energy-change (2. order) :-0.1786201E+01  (-0.3898023E+02)
 number of electron       2.0000000 magnetization 
 augmentation part        2.0000000 magnetization 

 Free energy of the ion-electron system (eV)
  ---------------------------------------------------
  alpha Z        PSCENC =         0.00062366
  Ewald energy   TEWEN  =        15.91911908
  -1/2 Hartree   DENC   =       -25.39279846
  -exchange  EXHF       =         0.00000000
  -V(xc)+E(xc)   XCENC  =         4.34945049
  PAW double counting   =         4.26805487       -4.28581044
  entropy T*S    EENTRO =         0.01101221
  eigenvalues    EBANDS =       -21.62364747
  atomic energy  EATOM  =        24.96779543
  ---------------------------------------------------
  free energy    TOTEN  =        -1.78620063 eV

  energy without entropy =       -1.79721283  energy(sigma->0) =       -1.78895368


--------------------------------------------------------------------------------------------------------




----------------------------------------- Iteration    1(   2)  ---------------------------------------


     EDDAV:  cpu time    1.35: real time    1.37
       DOS:  cpu time    0.00: real time    0.00
    --------------------------------------------
      LOOP:  cpu time    1.35: real time    1.37

 eigenvalue-minimisations  :    64
 total energy-change (2. order) :-0.5534687E+01  (-0.5534687E+01)
 number of electron       2.0000000 magnetization 
 augmentation part        2.0000000 magnetization 

 Free energy of the ion-electron system (eV)
  ---------------------------------------------------
  alpha Z        PSCENC =         0.00062366
  Ewald energy   TEWEN  =        15.91911908
  -1/2 Hartree   DENC   =       -25.39279846
  -exchange  EXHF       =         0.00000000
  -V(xc)+E(xc)   XCENC  =         4.34945049
  PAW double counting   =         4.26805487       -4.28581044
  entropy T*S    EENTRO =         0.01101221
  eigenvalues    EBANDS =       -27.15833465
  atomic energy  EATOM  =        24.96779543
  ---------------------------------------------------
  free energy    TOTEN  =        -7.32088781 eV

  energy without entropy =       -7.33190002  energy(sigma->0) =       -7.32364086


--------------------------------------------------------------------------------------------------------




----------------------------------------- Iteration    1(   3)  ---------------------------------------


     EDDAV:  cpu time    1.74: real time    1.77
       DOS:  cpu time    0.00: real time    0.00
    --------------------------------------------
      LOOP:  cpu time    1.74: real time    1.78

 eigenvalue-minimisations  :    96
 total energy-change (2. order) :-0.1160543E+00  (-0.1160543E+00)
 number of electron       2.0000000 magnetization 
 augmentation part        2.0000000 magnetization 

 Free energy of the ion-electron system (eV)
  ---------------------------------------------------
  alpha Z        PSCENC =         0.00062366
  Ewald energy   TEWEN  =        15.91911908
  -1/2 Hartree   DENC   =       -25.39279846
  -exchange  EXHF       =         0.00000000
  -V(xc)+E(xc)   XCENC  =         4.34945049
  PAW double counting   =         4.26805487       -4.28581044
  entropy T*S    EENTRO =         0.01101221
  eigenvalues    EBANDS =       -27.27438895
  atomic energy  EATOM  =        24.96779543
  ---------------------------------------------------
  free energy    TOTEN  =        -7.43694211 eV

  energy without entropy =       -7.44795432  energy(sigma->0) =       -7.43969516


--------------------------------------------------------------------------------------------------------




----------------------------------------- Iteration    1(   4)  ---------------------------------------


     EDDAV:  cpu time    1.75: real time    1.78
       DOS:  cpu time    0.00: real time    0.00
    --------------------------------------------
      LOOP:  cpu time    1.75: real time    1.78

 eigenvalue-minimisations  :    96
 total energy-change (2. order) :-0.7030432E-04  (-0.7030383E-04)
 number of electron       2.0000000 magnetization 
 augmentation part        2.0000000 magnetization 

 Free energy of the ion-electron system (eV)
  ---------------------------------------------------
  alpha Z        PSCENC =         0.00062366
  Ewald energy   TEWEN  =        15.91911908
  -1/2 Hartree   DENC   =       -25.39279846
  -exchange  EXHF       =         0.00000000
  -V(xc)+E(xc)   XCENC  =         4.34945049
  PAW double counting   =         4.26805487       -4.28581044
  entropy T*S    EENTRO =         0.01101221
  eigenvalues    EBANDS =       -27.27445925
  atomic energy  EATOM  =        24.96779543
  ---------------------------------------------------
  free energy    TOTEN  =        -7.43701241 eV

  energy without entropy =       -7.44802462  energy(sigma->0) =       -7.43976546


--------------------------------------------------------------------------------------------------------




----------------------------------------- Iteration    1(   5)  ---------------------------------------


     EDDAV:  cpu time    2.23: real time    2.27
       DOS:  cpu time    0.00: real time    0.00
    CHARGE:  cpu time    1.62: real time    1.65
    MIXING:  cpu time    0.02: real time    0.02
    --------------------------------------------
      LOOP:  cpu time    3.88: real time    3.94

 eigenvalue-minimisations  :   128
 total energy-change (2. order) :-0.3007438E-07  (-0.3055244E-07)
 number of electron       1.9999991 magnetization 
 augmentation part        0.0465192 magnetization 

 Broyden mixing:
  rms(total) = 0.44565E+00    rms(broyden)= 0.44555E+00
  rms(prec ) = 0.46815E+00
  weight for this iteration     100.00

 Free energy of the ion-electron system (eV)
  ---------------------------------------------------
  alpha Z        PSCENC =         0.00062366
  Ewald energy   TEWEN  =        15.91911908
  -1/2 Hartree   DENC   =       -25.39279846
  -exchange  EXHF       =         0.00000000
  -V(xc)+E(xc)   XCENC  =         4.34945049
  PAW double counting   =         4.26805487       -4.28581044
  entropy T*S    EENTRO =         0.01101221
  eigenvalues    EBANDS =       -27.27445928
  atomic energy  EATOM  =        24.96779543
  ---------------------------------------------------
  free energy    TOTEN  =        -7.43701244 eV

  energy without entropy =       -7.44802465  energy(sigma->0) =       -7.43976549


--------------------------------------------------------------------------------------------------------




----------------------------------------- Iteration    1(   6)  ---------------------------------------


    POTLOK:  cpu time    0.88: real time    0.88
    SETDIJ:  cpu time    0.00: real time    0.00
    EDDIAG:  cpu time    0.43: real time    0.45
  RMM-DIIS:  cpu time    0.87: real time    0.87
    ORTHCH:  cpu time    0.07: real time    0.07
       DOS:  cpu time    0.00: real time    0.00
    CHARGE:  cpu time    1.34: real time    1.34
    MIXING:  cpu time    0.02: real time    0.02
    --------------------------------------------
      LOOP:  cpu time    3.62: real time    3.64

 eigenvalue-minimisations  :    64
 total energy-change (2. order) : 0.4429374E+00  (-0.1668707E-01)
 number of electron       1.9999992 magnetization 
 augmentation part        0.0447319 magnetization 

 Broyden mixing:
  rms(total) = 0.24497E+00    rms(broyden)= 0.24496E+00
  rms(prec ) = 0.25853E+00
  weight for this iteration     100.00

 eigenvalues of (default mixing * dielectric matrix)
  average eigenvalue GAMMA=   2.1960
  2.1960

 Free energy of the ion-electron system (eV)
  ---------------------------------------------------
  alpha Z        PSCENC =         0.00062366
  Ewald energy   TEWEN  =        15.91911908
  -1/2 Hartree   DENC   =       -27.88057402
  -exchange  EXHF       =         0.00000000
  -V(xc)+E(xc)   XCENC  =         4.70554631
  PAW double counting   =        10.82302296      -10.85432133
  entropy T*S    EENTRO =         0.01101221
  eigenvalues    EBANDS =       -24.68629930
  atomic energy  EATOM  =        24.96779543
  ---------------------------------------------------
  free energy    TOTEN  =        -6.99407500 eV

  energy without entropy =       -7.00508720  energy(sigma->0) =       -6.99682805


--------------------------------------------------------------------------------------------------------




----------------------------------------- Iteration    1(   7)  ---------------------------------------


    POTLOK:  cpu time    0.86: real time    0.86
    SETDIJ:  cpu time    0.00: real time    0.00
    EDDIAG:  cpu time    0.28: real time    0.29
  RMM-DIIS:  cpu time    0.86: real time    0.86
    ORTHCH:  cpu time    0.07: real time    0.07
       DOS:  cpu time    0.00: real time    0.00
    CHARGE:  cpu time    1.36: real time    1.36
    MIXING:  cpu time    0.02: real time    0.02
    --------------------------------------------
      LOOP:  cpu time    3.46: real time    3.48

 eigenvalue-minimisations  :    64
 total energy-change (2. order) : 0.2433456E+00  (-0.4566908E-01)
 number of electron       1.9999992 magnetization 
 augmentation part        0.0418431 magnetization 

 Broyden mixing:
  rms(total) = 0.29132E-01    rms(broyden)= 0.29086E-01
  rms(prec ) = 0.31247E-01
  weight for this iteration     100.00

 eigenvalues of (default mixing * dielectric matrix)
  average eigenvalue GAMMA=   2.5837
  2.5837  2.5837

 Free energy of the ion-electron system (eV)
  ---------------------------------------------------
  alpha Z        PSCENC =         0.00062366
  Ewald energy   TEWEN  =        15.91911908
  -1/2 Hartree   DENC   =       -31.70678967
  -exchange  EXHF       =         0.00000000
  -V(xc)+E(xc)   XCENC  =         5.25960317
  PAW double counting   =        23.78038334      -23.83334672
  entropy T*S    EENTRO =         0.01101221
  eigenvalues    EBANDS =       -21.14912987
  atomic energy  EATOM  =        24.96779543
  ---------------------------------------------------
  free energy    TOTEN  =        -6.75072938 eV

  energy without entropy =       -6.76174159  energy(sigma->0) =       -6.75348244


--------------------------------------------------------------------------------------------------------




----------------------------------------- Iteration    1(   8)  ---------------------------------------


    POTLOK:  cpu time    0.87: real time    0.87
    SETDIJ:  cpu time    0.00: real time    0.00
    EDDIAG:  cpu time    0.28: real time    0.28
  RMM-DIIS:  cpu time    0.87: real time    0.87
    ORTHCH:  cpu time    0.07: real time    0.07
       DOS:  cpu time    0.00: real time    0.00
    CHARGE:  cpu time    1.35: real time    1.35
    MIXING:  cpu time    0.03: real time    0.03
    --------------------------------------------
      LOOP:  cpu time    3.48: real time    3.49

 eigenvalue-minimisations  :    64
 total energy-change (2. order) :-0.3847153E-02  (-0.4397688E-03)
 number of electron       1.9999992 magnetization 
 augmentation part        0.0419155 magnetization 

 Broyden mixing:
  rms(total) = 0.23276E-01    rms(broyden)= 0.23274E-01
  rms(prec ) = 0.24940E-01
  weight for this iteration     100.00

 eigenvalues of (default mixing * dielectric matrix)
  average eigenvalue GAMMA=   1.9872
  0.9318  2.5149  2.5149

 Free energy of the ion-electron system (eV)
  ---------------------------------------------------
  alpha Z        PSCENC =         0.00062366
  Ewald energy   TEWEN  =        15.91911908
  -1/2 Hartree   DENC   =       -31.62562195
  -exchange  EXHF       =         0.00000000
  -V(xc)+E(xc)   XCENC  =         5.23329162
  PAW double counting   =        22.58705446      -22.63403869
  entropy T*S    EENTRO =         0.01101221
  eigenvalues    EBANDS =       -21.21381235
  atomic energy  EATOM  =        24.96779543
  ---------------------------------------------------
  free energy    TOTEN  =        -6.75457654 eV

  energy without entropy =       -6.76558874  energy(sigma->0) =       -6.75732959


--------------------------------------------------------------------------------------------------------




----------------------------------------- Iteration    1(   9)  ---------------------------------------


    POTLOK:  cpu time    0.91: real time    0.91
    SETDIJ:  cpu time    0.00: real time    0.00
    EDDIAG:  cpu time    0.28: real time    0.28
  RMM-DIIS:  cpu time    0.87: real time    0.87
    ORTHCH:  cpu time    0.07: real time    0.07
       DOS:  cpu time    0.00: real time    0.00
    CHARGE:  cpu time    1.33: real time    1.34
    MIXING:  cpu time    0.02: real time    0.02
    --------------------------------------------
      LOOP:  cpu time    3.49: real time    3.50

 eigenvalue-minimisations  :    64
 total energy-change (2. order) : 0.3211184E-02  (-0.3641363E-03)
 number of electron       1.9999992 magnetization 
 augmentation part        0.0416824 magnetization 

 Broyden mixing:
  rms(total) = 0.36029E-02    rms(broyden)= 0.35976E-02
  rms(prec ) = 0.50744E-02
  weight for this iteration     100.00

 eigenvalues of (default mixing * dielectric matrix)
  average eigenvalue GAMMA=   2.5832
  4.2732  0.9977  2.6972  2.3647

 Free energy of the ion-electron system (eV)
  ---------------------------------------------------
  alpha Z        PSCENC =         0.00062366
  Ewald energy   TEWEN  =        15.91911908
  -1/2 Hartree   DENC   =       -32.02839300
  -exchange  EXHF       =         0.00000000
  -V(xc)+E(xc)   XCENC  =         5.28772779
  PAW double counting   =        23.90486905      -23.95382319
  entropy T*S    EENTRO =         0.01101221
  eigenvalues    EBANDS =       -20.86029639
  atomic energy  EATOM  =        24.96779543
  ---------------------------------------------------
  free energy    TOTEN  =        -6.75136535 eV

  energy without entropy =       -6.76237756  energy(sigma->0) =       -6.75411840


--------------------------------------------------------------------------------------------------------




----------------------------------------- Iteration    1(  10)  ---------------------------------------


    POTLOK:  cpu time    0.86: real time    0.87
    SETDIJ:  cpu time    0.00: real time    0.00
    EDDIAG:  cpu time    0.28: real time    0.28
  RMM-DIIS:  cpu time    0.89: real time    0.89
    ORTHCH:  cpu time    0.07: real time    0.07
       DOS:  cpu time    0.00: real time    0.00
    CHARGE:  cpu time    1.33: real time    1.33
    MIXING:  cpu time    0.03: real time    0.03
    --------------------------------------------
      LOOP:  cpu time    3.46: real time    3.48

 eigenvalue-minimisations  :    64
 total energy-change (2. order) :-0.1193827E-02  (-0.1211775E-03)
 number of electron       1.9999992 magnetization 
 augmentation part        0.0415954 magnetization 

 Broyden mixing:
  rms(total) = 0.23546E-02    rms(broyden)= 0.23530E-02
  rms(prec ) = 0.27625E-02
  weight for this iteration     100.00

 eigenvalues of (default mixing * dielectric matrix)
  average eigenvalue GAMMA=   2.2226
  4.1950  2.4534  2.4534  1.0055  1.0055

 Free energy of the ion-electron system (eV)
  ---------------------------------------------------
  alpha Z        PSCENC =         0.00062366
  Ewald energy   TEWEN  =        15.91911908
  -1/2 Hartree   DENC   =       -32.23231804
  -exchange  EXHF       =         0.00000000
  -V(xc)+E(xc)   XCENC  =         5.30594350
  PAW double counting   =        23.95623519      -24.00577555
  entropy T*S    EENTRO =         0.01101221
  eigenvalues    EBANDS =       -20.67519466
  atomic energy  EATOM  =        24.96779543
  ---------------------------------------------------
  free energy    TOTEN  =        -6.75255918 eV

  energy without entropy =       -6.76357139  energy(sigma->0) =       -6.75531223


--------------------------------------------------------------------------------------------------------




----------------------------------------- Iteration    1(  11)  ---------------------------------------


    POTLOK:  cpu time    0.87: real time    0.87
    SETDIJ:  cpu time    0.00: real time    0.00
    EDDIAG:  cpu time    0.28: real time    0.28
  RMM-DIIS:  cpu time    0.86: real time    0.86
    ORTHCH:  cpu time    0.07: real time    0.08
       DOS:  cpu time    0.00: real time    0.00
    CHARGE:  cpu time    1.35: real time    1.35
    MIXING:  cpu time    0.03: real time    0.03
    --------------------------------------------
      LOOP:  cpu time    3.47: real time    3.48

 eigenvalue-minimisations  :    64
 total energy-change (2. order) :-0.5517582E-03  (-0.1927554E-05)
 number of electron       1.9999992 magnetization 
 augmentation part        0.0415883 magnetization 

 Broyden mixing:
  rms(total) = 0.11930E-02    rms(broyden)= 0.11928E-02
  rms(prec ) = 0.16488E-02
  weight for this iteration     100.00

 eigenvalues of (default mixing * dielectric matrix)
  average eigenvalue GAMMA=   2.6992
  5.3964  3.9281  2.6052  2.2751  1.0167  0.9737

 Free energy of the ion-electron system (eV)
  ---------------------------------------------------
  alpha Z        PSCENC =         0.00062366
  Ewald energy   TEWEN  =        15.91911908
  -1/2 Hartree   DENC   =       -32.23253635
  -exchange  EXHF       =         0.00000000
  -V(xc)+E(xc)   XCENC  =         5.30450877
  PAW double counting   =        23.92134941      -23.97066514
  entropy T*S    EENTRO =         0.01101221
  eigenvalues    EBANDS =       -20.67431801
  atomic energy  EATOM  =        24.96779543
  ---------------------------------------------------
  free energy    TOTEN  =        -6.75311094 eV

  energy without entropy =       -6.76412315  energy(sigma->0) =       -6.75586399


--------------------------------------------------------------------------------------------------------




----------------------------------------- Iteration    1(  12)  ---------------------------------------


    POTLOK:  cpu time    0.92: real time    0.93
    SETDIJ:  cpu time    0.00: real time    0.00
    EDDIAG:  cpu time    0.28: real time    0.28
  RMM-DIIS:  cpu time    0.86: real time    0.87
    ORTHCH:  cpu time    0.07: real time    0.08
       DOS:  cpu time    0.00: real time    0.00
    CHARGE:  cpu time    1.35: real time    1.35
    MIXING:  cpu time    0.03: real time    0.03
    --------------------------------------------
      LOOP:  cpu time    3.52: real time    3.55

 eigenvalue-minimisations  :    64
 total energy-change (2. order) :-0.1856201E-02  (-0.3560204E-04)
 number of electron       1.9999992 magnetization 
 augmentation part        0.0415971 magnetization 

 Broyden mixing:
  rms(total) = 0.83585E-03    rms(broyden)= 0.83585E-03
  rms(prec ) = 0.94572E-03
  weight for this iteration     100.00

 eigenvalues of (default mixing * dielectric matrix)
  average eigenvalue GAMMA=   2.8091
  5.7821  3.8144  2.8987  2.8987  2.2333  0.9825  1.0542

 Free energy of the ion-electron system (eV)
  ---------------------------------------------------
  alpha Z        PSCENC =         0.00062366
  Ewald energy   TEWEN  =        15.91911908
  -1/2 Hartree   DENC   =       -32.21993701
  -exchange  EXHF       =         0.00000000
  -V(xc)+E(xc)   XCENC  =         5.29887427
  PAW double counting   =        23.85282210      -23.90187228
  entropy T*S    EENTRO =         0.01101221
  eigenvalues    EBANDS =       -20.68340460
  atomic energy  EATOM  =        24.96779543
  ---------------------------------------------------
  free energy    TOTEN  =        -6.75496714 eV

  energy without entropy =       -6.76597935  energy(sigma->0) =       -6.75772019


--------------------------------------------------------------------------------------------------------




----------------------------------------- Iteration    1(  13)  ---------------------------------------


    POTLOK:  cpu time    0.87: real time    0.87
    SETDIJ:  cpu time    0.00: real time    0.00
    EDDIAG:  cpu time    0.34: real time    0.34
  RMM-DIIS:  cpu time    0.86: real time    0.86
    ORTHCH:  cpu time    0.07: real time    0.08
       DOS:  cpu time    0.00: real time    0.00
    CHARGE:  cpu time    1.34: real time    1.34
    MIXING:  cpu time    0.03: real time    0.03
    --------------------------------------------
      LOOP:  cpu time    3.51: real time    3.53

 eigenvalue-minimisations  :    64
 total energy-change (2. order) :-0.3086878E-03  (-0.2135738E-05)
 number of electron       1.9999992 magnetization 
 augmentation part        0.0415828 magnetization 

 Broyden mixing:
  rms(total) = 0.89103E-03    rms(broyden)= 0.89100E-03
  rms(prec ) = 0.94507E-03
  weight for this iteration     100.00

 eigenvalues of (default mixing * dielectric matrix)
  average eigenvalue GAMMA=   2.8021
  7.1158  4.2496  3.2950  2.5787  2.2439  1.0215  1.0215  0.8910

 Free energy of the ion-electron system (eV)
  ---------------------------------------------------
  alpha Z        PSCENC =         0.00062366
  Ewald energy   TEWEN  =        15.91911908
  -1/2 Hartree   DENC   =       -32.24436194
  -exchange  EXHF       =         0.00000000
  -V(xc)+E(xc)   XCENC  =         5.30146074
  PAW double counting   =        23.89304920      -23.94233543
  entropy T*S    EENTRO =         0.01101221
  eigenvalues    EBANDS =       -20.66163877
  atomic energy  EATOM  =        24.96779543
  ---------------------------------------------------
  free energy    TOTEN  =        -6.75527583 eV

  energy without entropy =       -6.76628803  energy(sigma->0) =       -6.75802888


--------------------------------------------------------------------------------------------------------




----------------------------------------- Iteration    1(  14)  ---------------------------------------


    POTLOK:  cpu time    0.87: real time    0.87
    SETDIJ:  cpu time    0.00: real time    0.00
    EDDIAG:  cpu time    0.31: real time    0.34
  RMM-DIIS:  cpu time    0.86: real time    0.87
    ORTHCH:  cpu time    0.07: real time    0.08
       DOS:  cpu time    0.00: real time    0.00
    CHARGE:  cpu time    1.43: real time    1.44
    MIXING:  cpu time    0.03: real time    0.03
    --------------------------------------------
      LOOP:  cpu time    3.58: real time    3.64

 eigenvalue-minimisations  :    64
 total energy-change (2. order) :-0.1989534E-03  (-0.1570733E-05)
 number of electron       1.9999992 magnetization 
 augmentation part        0.0415845 magnetization 

 Broyden mixing:
  rms(total) = 0.29688E-03    rms(broyden)= 0.29688E-03
  rms(prec ) = 0.32493E-03
  weight for this iteration     100.00

 eigenvalues of (default mixing * dielectric matrix)
  average eigenvalue GAMMA=   3.0119
  8.0966  4.8686  3.7462  2.5797  2.5797  2.2128  1.0575  1.0160  0.9502

 Free energy of the ion-electron system (eV)
  ---------------------------------------------------
  alpha Z        PSCENC =         0.00062366
  Ewald energy   TEWEN  =        15.91911908
  -1/2 Hartree   DENC   =       -32.24068761
  -exchange  EXHF       =         0.00000000
  -V(xc)+E(xc)   XCENC  =         5.30039740
  PAW double counting   =        23.87838133      -23.92758702
  entropy T*S    EENTRO =         0.01101221
  eigenvalues    EBANDS =       -20.66452925
  atomic energy  EATOM  =        24.96779543
  ---------------------------------------------------
  free energy    TOTEN  =        -6.75547478 eV

  energy without entropy =       -6.76648699  energy(sigma->0) =       -6.75822783


--------------------------------------------------------------------------------------------------------




----------------------------------------- Iteration    1(  15)  ---------------------------------------


    POTLOK:  cpu time    0.87: real time    0.88
    SETDIJ:  cpu time    0.00: real time    0.00
    EDDIAG:  cpu time    0.28: real time    0.28
  RMM-DIIS:  cpu time    0.87: real time    0.87
    ORTHCH:  cpu time    0.07: real time    0.08
       DOS:  cpu time    0.00: real time    0.00
    CHARGE:  cpu time    1.33: real time    1.33
    MIXING:  cpu time    0.03: real time    0.03
    --------------------------------------------
      LOOP:  cpu time    3.46: real time    3.47

 eigenvalue-minimisations  :    64
 total energy-change (2. order) :-0.8494148E-04  (-0.1454212E-06)
 number of electron       1.9999992 magnetization 
 augmentation part        0.0415875 magnetization 

 Broyden mixing:
  rms(total) = 0.84260E-04    rms(broyden)= 0.84236E-04
  rms(prec ) = 0.97521E-04
  weight for this iteration     100.00

 eigenvalues of (default mixing * dielectric matrix)
  average eigenvalue GAMMA=   2.9664
  8.5843  5.2723  3.6162  3.2412  2.4074  2.1930  1.3303  1.0683  0.9939  0.9570

 Free energy of the ion-electron system (eV)
  ---------------------------------------------------
  alpha Z        PSCENC =         0.00062366
  Ewald energy   TEWEN  =        15.91911908
  -1/2 Hartree   DENC   =       -32.23850693
  -exchange  EXHF       =         0.00000000
  -V(xc)+E(xc)   XCENC  =         5.29984236
  PAW double counting   =        23.87367402      -23.92282956
  entropy T*S    EENTRO =         0.01101221
  eigenvalues    EBANDS =       -20.66628999
  atomic energy  EATOM  =        24.96779543
  ---------------------------------------------------
  free energy    TOTEN  =        -6.75555972 eV

  energy without entropy =       -6.76657193  energy(sigma->0) =       -6.75831277


--------------------------------------------------------------------------------------------------------




----------------------------------------- Iteration    1(  16)  ---------------------------------------


    POTLOK:  cpu time    0.89: real time    0.89
    SETDIJ:  cpu time    0.01: real time    0.01
    EDDIAG:  cpu time    0.28: real time    0.29
  RMM-DIIS:  cpu time    0.87: real time    0.87
    ORTHCH:  cpu time    0.07: real time    0.07
       DOS:  cpu time    0.00: real time    0.00
    CHARGE:  cpu time    1.33: real time    1.34
    MIXING:  cpu time    0.03: real time    0.03
    --------------------------------------------
      LOOP:  cpu time    3.49: real time    3.50

 eigenvalue-minimisations  :    64
 total energy-change (2. order) :-0.2690116E-04  (-0.1869492E-07)
 number of electron       1.9999992 magnetization 
 augmentation part        0.0415885 magnetization 

 Broyden mixing:
  rms(total) = 0.44560E-04    rms(broyden)= 0.44548E-04
  rms(prec ) = 0.53213E-04
  weight for this iteration     100.00

 eigenvalues of (default mixing * dielectric matrix)
  average eigenvalue GAMMA=   3.0977
  9.1708  5.7455  4.4156  3.2824  2.7931  2.4364  2.1707  0.9544  0.9824  1.0618
  1.0618

 Free energy of the ion-electron system (eV)
  ---------------------------------------------------
  alpha Z        PSCENC =         0.00062366
  Ewald energy   TEWEN  =        15.91911908
  -1/2 Hartree   DENC   =       -32.23777836
  -exchange  EXHF       =         0.00000000
  -V(xc)+E(xc)   XCENC  =         5.29965939
  PAW double counting   =        23.87051615      -23.91967569
  entropy T*S    EENTRO =         0.01101221
  eigenvalues    EBANDS =       -20.66685850
  atomic energy  EATOM  =        24.96779543
  ---------------------------------------------------
  free energy    TOTEN  =        -6.75558662 eV

  energy without entropy =       -6.76659883  energy(sigma->0) =       -6.75833967


--------------------------------------------------------------------------------------------------------




----------------------------------------- Iteration    1(  17)  ---------------------------------------


    POTLOK:  cpu time    0.88: real time    0.88
    SETDIJ:  cpu time    0.00: real time    0.00
    EDDIAG:  cpu time    0.28: real time    0.28
  RMM-DIIS:  cpu time    0.87: real time    0.87
    ORTHCH:  cpu time    0.07: real time    0.08
       DOS:  cpu time    0.00: real time    0.00
    CHARGE:  cpu time    1.36: real time    1.37
    MIXING:  cpu time    0.03: real time    0.03
    --------------------------------------------
      LOOP:  cpu time    3.49: real time    3.51

 eigenvalue-minimisations  :    63
 total energy-change (2. order) :-0.1600154E-04  (-0.7933803E-08)
 number of electron       1.9999992 magnetization 
 augmentation part        0.0415884 magnetization 

 Broyden mixing:
  rms(total) = 0.33717E-04    rms(broyden)= 0.33716E-04
  rms(prec ) = 0.36113E-04
  weight for this iteration     100.00

 eigenvalues of (default mixing * dielectric matrix)
  average eigenvalue GAMMA=   3.0636
  9.3809  5.9871  4.5391  3.5095  2.9874  2.4588  2.2023  1.6581  1.0447  1.0447
  0.9553  0.9952

 Free energy of the ion-electron system (eV)
  ---------------------------------------------------
  alpha Z        PSCENC =         0.00062366
  Ewald energy   TEWEN  =        15.91911908
  -1/2 Hartree   DENC   =       -32.23865256
  -exchange  EXHF       =         0.00000000
  -V(xc)+E(xc)   XCENC  =         5.29974941
  PAW double counting   =        23.87094402      -23.92010424
  entropy T*S    EENTRO =         0.01101221
  eigenvalues    EBANDS =       -20.66608962
  atomic energy  EATOM  =        24.96779543
  ---------------------------------------------------
  free energy    TOTEN  =        -6.75560262 eV

  energy without entropy =       -6.76661483  energy(sigma->0) =       -6.75835568


--------------------------------------------------------------------------------------------------------




----------------------------------------- Iteration    1(  18)  ---------------------------------------


    POTLOK:  cpu time    0.88: real time    0.88
    SETDIJ:  cpu time    0.00: real time    0.00
    EDDIAG:  cpu time    0.28: real time    0.28
  RMM-DIIS:  cpu time    0.86: real time    0.86
    ORTHCH:  cpu time    0.07: real time    0.07
       DOS:  cpu time    0.00: real time    0.00
    CHARGE:  cpu time    1.33: real time    1.33
    MIXING:  cpu time    0.03: real time    0.03
    --------------------------------------------
      LOOP:  cpu time    3.46: real time    3.47

 eigenvalue-minimisations  :    63
 total energy-change (2. order) :-0.3426444E-05  (-0.4927468E-08)
 number of electron       1.9999992 magnetization 
 augmentation part        0.0415877 magnetization 

 Broyden mixing:
  rms(total) = 0.30772E-04    rms(broyden)= 0.30771E-04
  rms(prec ) = 0.32818E-04
  weight for this iteration     100.00

 eigenvalues of (default mixing * dielectric matrix)
  average eigenvalue GAMMA=   3.1536
  9.5668  6.5528  4.9414  3.9914  3.3784  2.8045  2.4776  2.1864  1.0812  0.9848
  0.9848  1.0231  1.0231

 Free energy of the ion-electron system (eV)
  ---------------------------------------------------
  alpha Z        PSCENC =         0.00062366
  Ewald energy   TEWEN  =        15.91911908
  -1/2 Hartree   DENC   =       -32.23955986
  -exchange  EXHF       =         0.00000000
  -V(xc)+E(xc)   XCENC  =         5.29987054
  PAW double counting   =        23.87322004      -23.92238813
  entropy T*S    EENTRO =         0.01101221
  eigenvalues    EBANDS =       -20.66529902
  atomic energy  EATOM  =        24.96779543
  ---------------------------------------------------
  free energy    TOTEN  =        -6.75560605 eV

  energy without entropy =       -6.76661826  energy(sigma->0) =       -6.75835910


--------------------------------------------------------------------------------------------------------




----------------------------------------- Iteration    1(  19)  ---------------------------------------


    POTLOK:  cpu time    0.89: real time    0.89
    SETDIJ:  cpu time    0.00: real time    0.00
    EDDIAG:  cpu time    0.28: real time    0.29
  RMM-DIIS:  cpu time    0.88: real time    0.88
    ORTHCH:  cpu time    0.07: real time    0.07
       DOS:  cpu time    0.00: real time    0.00
    CHARGE:  cpu time    1.33: real time    1.33
    MIXING:  cpu time    0.04: real time    0.04
    --------------------------------------------
      LOOP:  cpu time    3.50: real time    3.51

 eigenvalue-minimisations  :    63
 total energy-change (2. order) :-0.2484419E-05  (-0.1416669E-08)
 number of electron       1.9999992 magnetization 
 augmentation part        0.0415879 magnetization 

 Broyden mixing:
  rms(total) = 0.33448E-05    rms(broyden)= 0.33447E-05
  rms(prec ) = 0.41373E-05
  weight for this iteration     100.00

 eigenvalues of (default mixing * dielectric matrix)
  average eigenvalue GAMMA=   2.9862
  9.5576  6.5864  4.8340  4.1054  3.1184  2.8333  2.4577  2.1798  1.2394  1.0220
  1.0180  1.0180  0.9493  0.8877

 Free energy of the ion-electron system (eV)
  ---------------------------------------------------
  alpha Z        PSCENC =         0.00062366
  Ewald energy   TEWEN  =        15.91911908
  -1/2 Hartree   DENC   =       -32.23897198
  -exchange  EXHF       =         0.00000000
  -V(xc)+E(xc)   XCENC  =         5.29978056
  PAW double counting   =        23.87190506      -23.92106906
  entropy T*S    EENTRO =         0.01101221
  eigenvalues    EBANDS =       -20.66580349
  atomic energy  EATOM  =        24.96779543
  ---------------------------------------------------
  free energy    TOTEN  =        -6.75560853 eV

  energy without entropy =       -6.76662074  energy(sigma->0) =       -6.75836159


--------------------------------------------------------------------------------------------------------




----------------------------------------- Iteration    1(  20)  ---------------------------------------


    POTLOK:  cpu time    0.89: real time    0.89
    SETDIJ:  cpu time    0.00: real time    0.00
    EDDIAG:  cpu time    0.28: real time    0.28
  RMM-DIIS:  cpu time    0.86: real time    0.86
    ORTHCH:  cpu time    0.07: real time    0.08
       DOS:  cpu time    0.00: real time    0.00
    --------------------------------------------
      LOOP:  cpu time    2.11: real time    2.12

 eigenvalue-minimisations  :    62
 total energy-change (2. order) :-0.1366948E-06  ( 0.0000000E+00)
 number of electron       1.9999992 magnetization 
 augmentation part        0.0415879 magnetization 

 Free energy of the ion-electron system (eV)
  ---------------------------------------------------
  alpha Z        PSCENC =         0.00062366
  Ewald energy   TEWEN  =        15.91911908
  -1/2 Hartree   DENC   =       -32.23897274
  -exchange  EXHF       =         0.00000000
  -V(xc)+E(xc)   XCENC  =         5.29978174
  PAW double counting   =        23.87200893      -23.92117288
  entropy T*S    EENTRO =         0.01101221
  eigenvalues    EBANDS =       -20.66580410
  atomic energy  EATOM  =        24.96779543
  ---------------------------------------------------
  free energy    TOTEN  =        -6.75560867 eV

  energy without entropy =       -6.76662088  energy(sigma->0) =       -6.75836172


--------------------------------------------------------------------------------------------------------




 average (electrostatic) potential at core
  the test charge radii are     0.5201
  (the norm of the test charge is              1.0000)
       1 -41.6281       2 -41.6282
 
 
 
 E-fermi : -10.2063     XC(G=0):  -0.0457     alpha+bet : -0.0035


 k-point   1 :       0.0000    0.0000    0.0000
  band No.  band energies     occupation 
      1     -10.3329      2.00000
      2      -0.0403      0.00000
      3       0.1272      0.00000
      4       0.1502      0.00000
      5       0.2060      0.00000
      6       0.2060      0.00000
      7       0.2172      0.00000
      8       0.2178      0.00000
      9       0.2839      0.00000
     10       0.3842      0.00000
     11       0.4170      0.00000
     12       0.4170      0.00000
     13       0.4545      0.00000
     14       0.4556      0.00000
     15       0.4556      0.00000
     16       0.4568      0.00000
     17       0.4568      0.00000
     18       0.4584      0.00000
     19       0.4598      0.00000
     20       0.4626      0.00000
     21       0.5535      0.00000
     22       0.6557      0.00000
     23       0.6557      0.00000
     24       0.6700      0.00000
     25       0.6957      0.00000
     26       0.6995      0.00000
     27       0.6995      0.00000
     28       0.7025      0.00000
     29       0.7597      0.00000
     30       0.8813      0.00000
     31       0.8814      0.00000
     32       0.9165      0.00000


--------------------------------------------------------------------------------------------------------


 soft charge-density along one line, spin component           1
         0         1         2         3         4         5         6         7         8         9
 total charge-density along one line
 
 pseudopotential strength for first ion, spin component:           1
 -2.344  -4.039   0.000  -0.002   0.000
 -4.039  -6.875   0.000  -0.005   0.000
  0.000   0.000  -0.341   0.000  -0.000
 -0.002  -0.005   0.000  -0.335   0.000
  0.000   0.000  -0.000   0.000  -0.341
 total augmentation occupancy for first ion, spin component:           1
  2.995  -0.446   0.000   0.372   0.000
 -0.446   0.066   0.000  -0.055  -0.000
  0.000   0.000   0.000   0.000   0.000
  0.372  -0.055   0.000   0.046  -0.000
  0.000  -0.000   0.000  -0.000   0.000


------------------------ aborting loop because EDIFF is reached ----------------------------------------


    CHARGE:  cpu time    1.39: real time    1.40
    FORLOC:  cpu time    0.02: real time    0.02
    FORNL :  cpu time    0.28: real time    0.29
    STRESS:  cpu time    0.90: real time    0.92
    FORHAR:  cpu time    0.21: real time    0.22
    MIXING:  cpu time    0.04: real time    0.04

  Grimme's potential added to compensate for missing vdW interactions
  -------------------------------------------------------------------

  Parameters for Grimme's potential:
         C6(Jnm^6/mol)     R0(A)
   -----------------------------
   H        0.140          1.001

  Cutoff radius:   30.000 A

  Global scaling factor:    0.750 A

  Parameter d:   20.000 A

  Number of pair interactions contributing to Grimme's potential:      19
  Estimated vdW energy (eV):  -0.00002

  FORCE on cell =-STRESS in cart. coord.  units (eV):
  Direction    XX          YY          ZZ          XY          YZ          ZX
  --------------------------------------------------------------------------------------
  Alpha Z     0.00062     0.00062     0.00062
  Ewald      -1.09006    -1.09006    18.09927    -0.00000    -0.00000    -0.00000
  Hartree    10.00093    10.00093    12.23717    -0.00000    -0.00000    -0.00000
  E(xc)      -5.97467    -5.97467    -5.75450     0.00000    -0.00000    -0.00000
  Local     -18.77283   -18.77283   -32.31676     0.00000    -0.00000     0.00000
  n-local    -5.36928    -5.36928    -6.31249     0.00000    -0.00000     0.00000
  augment     0.27431     0.27431     0.20391     0.00000     0.00000     0.00000
  Kinetic    20.86372    20.86372    13.75749    -0.00000    -0.00000     0.00000
  Fock        0.00000     0.00000     0.00000     0.00000     0.00000     0.00000
  -------------------------------------------------------------------------------------
  Total      -0.06726    -0.06726    -0.08526    -0.00000    -0.00000    -0.00000
  in kB      -0.00690    -0.00690    -0.00874    -0.00000    -0.00000    -0.00000
  external pressure =       -0.01 kB  Pullay stress =        0.00 kB


 VOLUME and BASIS-vectors are now :
 -----------------------------------------------------------------------------
  energy-cutoff  :      450.00
  volume of cell :    15625.00
      direct lattice vectors                 reciprocal lattice vectors
    25.000000000  0.000000000  0.000000000     0.040000000  0.000000000  0.000000000
     0.000000000 25.000000000  0.000000000     0.000000000  0.040000000  0.000000000
     0.000000000  0.000000000 25.000000000     0.000000000  0.000000000  0.040000000

  length of vectors
    25.000000000 25.000000000 25.000000000     0.040000000  0.040000000  0.040000000


 FORCES acting on ions
    electron-ion (+dipol)            ewald-force                    non-local-force                 convergence-correction
 -----------------------------------------------------------------------------------------------
   0.480E-13 0.461E-13 0.205E+02   -.308E-19 -.281E-18 -.256E+02   0.258E-25 -.258E-25 0.505E+01   -.841E-16 -.150E-16 -.904E-05
   0.477E-13 0.830E-13 -.205E+02   -.741E-19 0.252E-18 0.256E+02   -.517E-25 0.517E-25 -.505E+01   -.802E-16 0.162E-16 0.904E-05
 -----------------------------------------------------------------------------------------------
   0.957E-13 0.129E-12 0.150E-04   -.105E-18 -.291E-19 0.000E+00   -.258E-25 0.258E-25 -.178E-14   -.164E-15 0.123E-17 -.190E-11
 
 
 POSITION                                       TOTAL-FORCE (eV/Angst)
 -----------------------------------------------------------------------------------
     12.50000     12.50000     12.42474         0.000000      0.000000     -0.001635
     12.50000     12.50000     13.17526         0.000000      0.000000      0.001635
 -----------------------------------------------------------------------------------
    total drift:                                0.000000      0.000000      0.000015


--------------------------------------------------------------------------------------------------------



  FREE ENERGIE OF THE ION-ELECTRON SYSTEM (eV)
  ---------------------------------------------------
  free  energy   TOTEN  =        -6.755631 eV

  energy  without entropy=       -6.766644  energy(sigma->0) =       -6.758384
 


--------------------------------------------------------------------------------------------------------


    POTLOK:  cpu time    0.88: real time    0.88


--------------------------------------------------------------------------------------------------------


 stress matrix after NEB project (eV)
     -0.06726      0.00000     -0.00000
     -0.00000     -0.06726      0.00000
      0.00000     -0.00000     -0.08526
  FORCES: max atom, RMS     0.001635    0.001635
  FORCE total and by dimension    0.002312    0.001635
  Stress total and by dimension    0.127736    0.085256
 Finite differences:
   Step               POTIM =   5.000000000000000E-002
   Degrees of freedom DOF   =            6
  LATTYP: Found a simple cubic cell.
 ALAT       =    25.0000000000
  
  Lattice vectors:
  
 A1 = (  25.0000000000,   0.0000000000,   0.0000000000)
 A2 = (   0.0000000000,  25.0000000000,   0.0000000000)
 A3 = (   0.0000000000,   0.0000000000,  25.0000000000)
 Subroutine PRICEL returns:
 Original cell was already a primitive cell.
 

Analysis of symmetry for initial positions (statically):

 Routine SETGRP: Setting up the symmetry group for a 
 simple cubic supercell.


 Subroutine GETGRP returns: Found  4 space group operations
 (whereof  2 operations were pure point group operations)
 out of a pool of 48 trial point group operations.


The static configuration has the point symmetry C_1h.
 The point group associated with its full space group is C_2h.

Analysis of symmetry for dynamics (positions and initial velocities):

 Subroutine DYNSYM returns: Found  4 space group operations
 (whereof  2 operations were pure point group operations)
 out of a pool of  4 trial space group operations
 (whereof  2 operations were pure point group operations)
 and found also     1 'primitive' translations


The dynamic configuration has the point symmetry C_1h.
 The point group associated with its full space group is C_2h.
 
 KPOINTS: k-points                                

Automatic generation of k-mesh.
 
 Subroutine IBZKPT returns following result:
 ===========================================
 
 Found      1 irreducible k-points:
 
 Following reciprocal coordinates:
            Coordinates               Weight
  0.000000  0.000000  0.000000      1.000000
 
 Following cartesian coordinates:
            Coordinates               Weight
  0.000000  0.000000  0.000000      1.000000
 
    WAVPRE:  cpu time    0.05: real time    0.05
    FEWALD:  cpu time    0.00: real time    0.00
    ORTHCH:  cpu time    0.14: real time    0.14
     LOOP+:  cpu time  116.58: real time  130.50


----------------------------------------- Iteration    2(   1)  ---------------------------------------


    POTLOK:  cpu time    0.88: real time    0.90
    SETDIJ:  cpu time    0.00: real time    0.00
     EDDAV:  cpu time    1.27: real time    1.30
       DOS:  cpu time    0.00: real time    0.00
    CHARGE:  cpu time    1.45: real time    1.45
    MIXING:  cpu time    0.02: real time    0.02
    --------------------------------------------
      LOOP:  cpu time    3.63: real time    3.68

 eigenvalue-minimisations  :    64
 total energy-change (2. order) :-0.2120378E-04  (-0.8837537E-01)
 number of electron       1.9999994 magnetization 
 augmentation part        0.0414112 magnetization 

 Broyden mixing:
  rms(total) = 0.22959E-01    rms(broyden)= 0.22910E-01
  rms(prec ) = 0.23552E-01
  weight for this iteration     100.00

 Free energy of the ion-electron system (eV)
  ---------------------------------------------------
  alpha Z        PSCENC =         0.00062366
  Ewald energy   TEWEN  =        15.87668674
  -1/2 Hartree   DENC   =       -32.22086015
  -exchange  EXHF       =         0.00000000
  -V(xc)+E(xc)   XCENC  =         5.29773643
  PAW double counting   =        23.87207390      -23.92123793
  entropy T*S    EENTRO =         0.01101221
  eigenvalues    EBANDS =       -20.63946002
  atomic energy  EATOM  =        24.96779543
  ---------------------------------------------------
  free energy    TOTEN  =        -6.75562974 eV

  energy without entropy =       -6.76664195  energy(sigma->0) =       -6.75838279


--------------------------------------------------------------------------------------------------------




----------------------------------------- Iteration    2(   2)  ---------------------------------------


    POTLOK:  cpu time    0.97: real time    0.97
    SETDIJ:  cpu time    0.00: real time    0.00
    EDDIAG:  cpu time    0.28: real time    0.28
  RMM-DIIS:  cpu time    0.86: real time    0.86
    ORTHCH:  cpu time    0.07: real time    0.07
       DOS:  cpu time    0.00: real time    0.00
    CHARGE:  cpu time    1.28: real time    1.28
    MIXING:  cpu time    0.02: real time    0.02
    --------------------------------------------
      LOOP:  cpu time    3.48: real time    3.56

 eigenvalue-minimisations  :    64
 total energy-change (2. order) : 0.7889121E-04  (-0.2994202E-03)
 number of electron       1.9999994 magnetization 
 augmentation part        0.0414868 magnetization 

 Broyden mixing:
  rms(total) = 0.14204E-01    rms(broyden)= 0.14200E-01
  rms(prec ) = 0.14612E-01
  weight for this iteration     100.00

 eigenvalues of (default mixing * dielectric matrix)
  average eigenvalue GAMMA=   2.5420
  2.5420

 Free energy of the ion-electron system (eV)
  ---------------------------------------------------
  alpha Z        PSCENC =         0.00062366
  Ewald energy   TEWEN  =        15.87668674
  -1/2 Hartree   DENC   =       -32.20972189
  -exchange  EXHF       =         0.00000000
  -V(xc)+E(xc)   XCENC  =         5.29608605
  PAW double counting   =        23.83240813      -23.88142153
  entropy T*S    EENTRO =         0.01101221
  eigenvalues    EBANDS =       -20.64901964
  atomic energy  EATOM  =        24.96779543
  ---------------------------------------------------
  free energy    TOTEN  =        -6.75555085 eV

  energy without entropy =       -6.76656305  energy(sigma->0) =       -6.75830390


--------------------------------------------------------------------------------------------------------




----------------------------------------- Iteration    2(   3)  ---------------------------------------


    POTLOK:  cpu time    0.88: real time    0.88
    SETDIJ:  cpu time    0.00: real time    0.00
    EDDIAG:  cpu time    0.28: real time    0.28
  RMM-DIIS:  cpu time    0.87: real time    0.87
    ORTHCH:  cpu time    0.07: real time    0.07
       DOS:  cpu time    0.00: real time    0.00
    CHARGE:  cpu time    1.28: real time    1.28
    MIXING:  cpu time    0.03: real time    0.03
    --------------------------------------------
      LOOP:  cpu time    3.40: real time    3.41

 eigenvalue-minimisations  :    64
 total energy-change (2. order) : 0.4074224E-04  (-0.5947072E-04)
 number of electron       1.9999994 magnetization 
 augmentation part        0.0414995 magnetization 

 Broyden mixing:
  rms(total) = 0.75980E-03    rms(broyden)= 0.75576E-03
  rms(prec ) = 0.83993E-03
  weight for this iteration     100.00

 eigenvalues of (default mixing * dielectric matrix)
  average eigenvalue GAMMA=   1.8489
  2.6184  1.0793

 Free energy of the ion-electron system (eV)
  ---------------------------------------------------
  alpha Z        PSCENC =         0.00062366
  Ewald energy   TEWEN  =        15.87668674
  -1/2 Hartree   DENC   =       -32.20737524
  -exchange  EXHF       =         0.00000000
  -V(xc)+E(xc)   XCENC  =         5.29561147
  PAW double counting   =        23.76469195      -23.81361170
  entropy T*S    EENTRO =         0.01101221
  eigenvalues    EBANDS =       -20.65094462
  atomic energy  EATOM  =        24.96779543
  ---------------------------------------------------
  free energy    TOTEN  =        -6.75551010 eV

  energy without entropy =       -6.76652231  energy(sigma->0) =       -6.75826316


--------------------------------------------------------------------------------------------------------




----------------------------------------- Iteration    2(   4)  ---------------------------------------


    POTLOK:  cpu time    0.88: real time    0.88
    SETDIJ:  cpu time    0.00: real time    0.00
    EDDIAG:  cpu time    0.28: real time    0.28
  RMM-DIIS:  cpu time    0.86: real time    0.86
    ORTHCH:  cpu time    0.07: real time    0.07
       DOS:  cpu time    0.00: real time    0.00
    CHARGE:  cpu time    1.30: real time    1.30
    MIXING:  cpu time    0.02: real time    0.02
    --------------------------------------------
      LOOP:  cpu time    3.40: real time    3.42

 eigenvalue-minimisations  :    64
 total energy-change (2. order) :-0.1538479E-04  (-0.6707490E-06)
 number of electron       1.9999994 magnetization 
 augmentation part        0.0414999 magnetization 

 Broyden mixing:
  rms(total) = 0.40611E-03    rms(broyden)= 0.40575E-03
  rms(prec ) = 0.46385E-03
  weight for this iteration     100.00

 eigenvalues of (default mixing * dielectric matrix)
  average eigenvalue GAMMA=   2.1923
  1.0043  2.5746  2.9980

 Free energy of the ion-electron system (eV)
  ---------------------------------------------------
  alpha Z        PSCENC =         0.00062366
  Ewald energy   TEWEN  =        15.87668674
  -1/2 Hartree   DENC   =       -32.20820174
  -exchange  EXHF       =         0.00000000
  -V(xc)+E(xc)   XCENC  =         5.29573005
  PAW double counting   =        23.76265630      -23.81158475
  entropy T*S    EENTRO =         0.01101221
  eigenvalues    EBANDS =       -20.65024339
  atomic energy  EATOM  =        24.96779543
  ---------------------------------------------------
  free energy    TOTEN  =        -6.75552549 eV

  energy without entropy =       -6.76653770  energy(sigma->0) =       -6.75827854


--------------------------------------------------------------------------------------------------------




----------------------------------------- Iteration    2(   5)  ---------------------------------------


    POTLOK:  cpu time    0.88: real time    0.88
    SETDIJ:  cpu time    0.00: real time    0.00
    EDDIAG:  cpu time    0.28: real time    0.28
  RMM-DIIS:  cpu time    0.87: real time    0.87
    ORTHCH:  cpu time    0.07: real time    0.07
       DOS:  cpu time    0.00: real time    0.00
    CHARGE:  cpu time    1.28: real time    1.28
    MIXING:  cpu time    0.02: real time    0.02
    --------------------------------------------
      LOOP:  cpu time    3.40: real time    3.42

 eigenvalue-minimisations  :    64
 total energy-change (2. order) :-0.1998099E-04  (-0.4665592E-06)
 number of electron       1.9999994 magnetization 
 augmentation part        0.0414989 magnetization 

 Broyden mixing:
  rms(total) = 0.81171E-04    rms(broyden)= 0.81079E-04
  rms(prec ) = 0.10684E-03
  weight for this iteration     100.00

 eigenvalues of (default mixing * dielectric matrix)
  average eigenvalue GAMMA=   2.0305
  2.9675  2.6000  0.9881  1.5666

 Free energy of the ion-electron system (eV)
  ---------------------------------------------------
  alpha Z        PSCENC =         0.00062366
  Ewald energy   TEWEN  =        15.87668674
  -1/2 Hartree   DENC   =       -32.20951068
  -exchange  EXHF       =         0.00000000
  -V(xc)+E(xc)   XCENC  =         5.29592189
  PAW double counting   =        23.76175574      -23.81070244
  entropy T*S    EENTRO =         0.01101221
  eigenvalues    EBANDS =       -20.64912801
  atomic energy  EATOM  =        24.96779543
  ---------------------------------------------------
  free energy    TOTEN  =        -6.75554547 eV

  energy without entropy =       -6.76655768  energy(sigma->0) =       -6.75829852


--------------------------------------------------------------------------------------------------------




----------------------------------------- Iteration    2(   6)  ---------------------------------------


    POTLOK:  cpu time    0.88: real time    0.88
    SETDIJ:  cpu time    0.00: real time    0.00
    EDDIAG:  cpu time    0.31: real time    0.31
  RMM-DIIS:  cpu time    0.86: real time    0.86
    ORTHCH:  cpu time    0.07: real time    0.07
       DOS:  cpu time    0.00: real time    0.00
    CHARGE:  cpu time    1.28: real time    1.28
    MIXING:  cpu time    0.02: real time    0.02
    --------------------------------------------
      LOOP:  cpu time    3.42: real time    3.44

 eigenvalue-minimisations  :    64
 total energy-change (2. order) :-0.8511782E-05  (-0.4351118E-07)
 number of electron       1.9999994 magnetization 
 augmentation part        0.0414991 magnetization 

 Broyden mixing:
  rms(total) = 0.37925E-04    rms(broyden)= 0.37915E-04
  rms(prec ) = 0.59786E-04
  weight for this iteration     100.00

 eigenvalues of (default mixing * dielectric matrix)
  average eigenvalue GAMMA=   2.2064
  3.6860  2.5663  2.7936  1.0232  0.9628

 Free energy of the ion-electron system (eV)
  ---------------------------------------------------
  alpha Z        PSCENC =         0.00062366
  Ewald energy   TEWEN  =        15.87668674
  -1/2 Hartree   DENC   =       -32.20898996
  -exchange  EXHF       =         0.00000000
  -V(xc)+E(xc)   XCENC  =         5.29584478
  PAW double counting   =        23.76104464      -23.80998701
  entropy T*S    EENTRO =         0.01101221
  eigenvalues    EBANDS =       -20.64958446
  atomic energy  EATOM  =        24.96779543
  ---------------------------------------------------
  free energy    TOTEN  =        -6.75555398 eV

  energy without entropy =       -6.76656619  energy(sigma->0) =       -6.75830703


--------------------------------------------------------------------------------------------------------




----------------------------------------- Iteration    2(   7)  ---------------------------------------


    POTLOK:  cpu time    0.88: real time    0.88
    SETDIJ:  cpu time    0.00: real time    0.00
    EDDIAG:  cpu time    0.27: real time    0.28
  RMM-DIIS:  cpu time    0.87: real time    0.87
    ORTHCH:  cpu time    0.07: real time    0.07
       DOS:  cpu time    0.00: real time    0.00
    CHARGE:  cpu time    1.39: real time    1.40
    MIXING:  cpu time    0.02: real time    0.02
    --------------------------------------------
      LOOP:  cpu time    3.52: real time    3.54

 eigenvalue-minimisations  :    64
 total energy-change (2. order) :-0.8367471E-05  (-0.6643243E-07)
 number of electron       1.9999994 magnetization 
 augmentation part        0.0414993 magnetization 

 Broyden mixing:
  rms(total) = 0.23957E-04    rms(broyden)= 0.23956E-04
  rms(prec ) = 0.33529E-04
  weight for this iteration     100.00

 eigenvalues of (default mixing * dielectric matrix)
  average eigenvalue GAMMA=   2.5353
  4.9326  3.0132  2.5630  2.7249  0.9948  0.9832

 Free energy of the ion-electron system (eV)
  ---------------------------------------------------
  alpha Z        PSCENC =         0.00062366
  Ewald energy   TEWEN  =        15.87668674
  -1/2 Hartree   DENC   =       -32.20857876
  -exchange  EXHF       =         0.00000000
  -V(xc)+E(xc)   XCENC  =         5.29578498
  PAW double counting   =        23.76056608      -23.80950555
  entropy T*S    EENTRO =         0.01101221
  eigenvalues    EBANDS =       -20.64994712
  atomic energy  EATOM  =        24.96779543
  ---------------------------------------------------
  free energy    TOTEN  =        -6.75556235 eV

  energy without entropy =       -6.76657456  energy(sigma->0) =       -6.75831540


--------------------------------------------------------------------------------------------------------




----------------------------------------- Iteration    2(   8)  ---------------------------------------


    POTLOK:  cpu time    0.88: real time    0.88
    SETDIJ:  cpu time    0.00: real time    0.00
    EDDIAG:  cpu time    0.27: real time    0.28
  RMM-DIIS:  cpu time    0.85: real time    0.87
    ORTHCH:  cpu time    0.07: real time    0.07
       DOS:  cpu time    0.00: real time    0.00
    CHARGE:  cpu time    1.28: real time    1.28
    MIXING:  cpu time    0.03: real time    0.03
    --------------------------------------------
      LOOP:  cpu time    3.39: real time    3.42

 eigenvalue-minimisations  :    64
 total energy-change (2. order) :-0.5861763E-05  (-0.3416326E-07)
 number of electron       1.9999994 magnetization 
 augmentation part        0.0414991 magnetization 

 Broyden mixing:
  rms(total) = 0.12858E-04    rms(broyden)= 0.12858E-04
  rms(prec ) = 0.16338E-04
  weight for this iteration     100.00

 eigenvalues of (default mixing * dielectric matrix)
  average eigenvalue GAMMA=   2.2835
  4.9637  3.0693  2.6708  2.5365  1.0086  0.9711  0.7642

 Free energy of the ion-electron system (eV)
  ---------------------------------------------------
  alpha Z        PSCENC =         0.00062366
  Ewald energy   TEWEN  =        15.87668674
  -1/2 Hartree   DENC   =       -32.20884967
  -exchange  EXHF       =         0.00000000
  -V(xc)+E(xc)   XCENC  =         5.29582444
  PAW double counting   =        23.76144593      -23.81038889
  entropy T*S    EENTRO =         0.01101221
  eigenvalues    EBANDS =       -20.64971806
  atomic energy  EATOM  =        24.96779543
  ---------------------------------------------------
  free energy    TOTEN  =        -6.75556821 eV

  energy without entropy =       -6.76658042  energy(sigma->0) =       -6.75832126


--------------------------------------------------------------------------------------------------------




----------------------------------------- Iteration    2(   9)  ---------------------------------------


    POTLOK:  cpu time    0.88: real time    0.88
    SETDIJ:  cpu time    0.00: real time    0.00
    EDDIAG:  cpu time    0.28: real time    0.28
  RMM-DIIS:  cpu time    0.85: real time    0.86
    ORTHCH:  cpu time    0.07: real time    0.07
       DOS:  cpu time    0.00: real time    0.00
    --------------------------------------------
      LOOP:  cpu time    2.08: real time    2.10

 eigenvalue-minimisations  :    62
 total energy-change (2. order) :-0.7134391E-06  ( 0.0000000E+00)
 number of electron       1.9999994 magnetization 
 augmentation part        0.0414991 magnetization 

 Free energy of the ion-electron system (eV)
  ---------------------------------------------------
  alpha Z        PSCENC =         0.00062366
  Ewald energy   TEWEN  =        15.87668674
  -1/2 Hartree   DENC   =       -32.20878479
  -exchange  EXHF       =         0.00000000
  -V(xc)+E(xc)   XCENC  =         5.29581478
  PAW double counting   =        23.76125734      -23.81019964
  entropy T*S    EENTRO =         0.01101221
  eigenvalues    EBANDS =       -20.64977465
  atomic energy  EATOM  =        24.96779543
  ---------------------------------------------------
  free energy    TOTEN  =        -6.75556893 eV

  energy without entropy =       -6.76658113  energy(sigma->0) =       -6.75832198


--------------------------------------------------------------------------------------------------------




 average (electrostatic) potential at core
  the test charge radii are     0.5201
  (the norm of the test charge is              1.0000)
       1 -41.6179       2 -41.6178
 
 
 
 E-fermi : -10.1983     XC(G=0):  -0.0459     alpha+bet : -0.0035


 k-point   1 :       0.0000    0.0000    0.0000
  band No.  band energies     occupation 
      1     -10.3249      2.00000
      2      -0.0428      0.00000
      3       0.1184      0.00000
      4       0.1460      0.00000
      5       0.2014      0.00000
      6       0.2050      0.00000
      7       0.2188      0.00000
      8       0.2209      0.00000
      9       0.2837      0.00000
     10       0.3924      0.00000
     11       0.4098      0.00000
     12       0.4105      0.00000
     13       0.4518      0.00000
     14       0.4523      0.00000
     15       0.4542      0.00000
     16       0.4600      0.00000
     17       0.4603      0.00000
     18       0.4628      0.00000
     19       0.4636      0.00000
     20       0.4652      0.00000
     21       0.5495      0.00000
     22       0.6569      0.00000
     23       0.6582      0.00000
     24       0.6749      0.00000
     25       0.6937      0.00000
     26       0.6952      0.00000
     27       0.6976      0.00000
     28       0.7016      0.00000
     29       0.7581      0.00000
     30       0.8761      0.00000
     31       0.8800      0.00000
     32       0.9203      0.00000


--------------------------------------------------------------------------------------------------------


 soft charge-density along one line, spin component           1
         0         1         2         3         4         5         6         7         8         9
 total charge-density along one line
 
 pseudopotential strength for first ion, spin component:           1
 -2.344  -4.039   0.000  -0.002   0.000
 -4.039  -6.875   0.000  -0.005   0.000
  0.000   0.000  -0.341   0.000   0.000
 -0.002  -0.005   0.000  -0.335  -0.000
  0.000   0.000   0.000  -0.000  -0.341
 total augmentation occupancy for first ion, spin component:           1
  2.991  -0.446   0.000   0.369  -0.025
 -0.446   0.066   0.000  -0.055   0.004
  0.000   0.000   0.000   0.000   0.000
  0.369  -0.055   0.000   0.046  -0.003
 -0.025   0.004   0.000  -0.003   0.000


------------------------ aborting loop because EDIFF is reached ----------------------------------------


    CHARGE:  cpu time    1.29: real time    1.29
    FORLOC:  cpu time    0.03: real time    0.03
    FORNL :  cpu time    0.28: real time    0.28
    STRESS:  cpu time    0.90: real time    0.90
    FORHAR:  cpu time    0.21: real time    0.21
    MIXING:  cpu time    0.03: real time    0.03

  Number of pair interactions contributing to Grimme's potential:      19
  Estimated vdW energy (eV):  -0.00002

  FORCE on cell =-STRESS in cart. coord.  units (eV):
  Direction    XX          YY          ZZ          XY          YZ          ZX
  --------------------------------------------------------------------------------------
  Alpha Z     0.00062     0.00062     0.00062
  Ewald      -1.00546    -1.09007    17.97223     0.00000    -0.00000    -1.26955
  Hartree     9.99915     9.98925    12.22026    -0.00000    -0.00000    -0.14840
  E(xc)      -5.96919    -5.97017    -5.75080    -0.00000    -0.00000    -0.01462
  Local     -18.81208   -18.75218   -32.24318    -0.00000    -0.00000     0.89816
  n-local    -5.36345    -5.35933    -6.29259     0.00000     0.00000     0.06195
  augment     0.27349     0.27367     0.20429     0.00000     0.00000     0.00462
  Kinetic    20.80960    20.84103    13.76194     0.00000     0.00000     0.47161
  Fock        0.00000     0.00000     0.00000     0.00000     0.00000     0.00000
  -------------------------------------------------------------------------------------
  Total      -0.06732    -0.06718    -0.12719     0.00000     0.00000     0.00377
  in kB      -0.00690    -0.00689    -0.01304     0.00000     0.00000     0.00039
  external pressure =       -0.01 kB  Pullay stress =        0.00 kB


 VOLUME and BASIS-vectors are now :
 -----------------------------------------------------------------------------
  energy-cutoff  :      450.00
  volume of cell :    15625.00
      direct lattice vectors                 reciprocal lattice vectors
    25.000000000  0.000000000  0.000000000     0.040000000  0.000000000  0.000000000
     0.000000000 25.000000000  0.000000000     0.000000000  0.040000000  0.000000000
     0.000000000  0.000000000 25.000000000     0.000000000  0.000000000  0.040000000

  length of vectors
    25.000000000 25.000000000 25.000000000     0.040000000  0.040000000  0.040000000


 FORCES acting on ions
    electron-ion (+dipol)            ewald-force                    non-local-force                 convergence-correction
 -----------------------------------------------------------------------------------------------
   -.136E+01 0.422E-13 0.204E+02   0.169E+01 -.296E-18 -.254E+02   -.334E+00 0.000E+00 0.502E+01   -.891E-05 0.134E-14 0.249E-04
   0.136E+01 0.816E-13 -.204E+02   -.169E+01 0.267E-18 0.254E+02   0.334E+00 0.000E+00 -.502E+01   -.976E-05 0.134E-14 -.246E-04
 -----------------------------------------------------------------------------------------------
   -.803E-05 0.124E-12 0.929E-05   0.000E+00 -.291E-19 0.000E+00   0.555E-16 0.000E+00 0.000E+00   -.187E-04 0.268E-14 0.208E-06
 
 
 POSITION                                       TOTAL-FORCE (eV/Angst)
 -----------------------------------------------------------------------------------
     12.55000     12.50000     12.42474        -0.003661      0.000000      0.054934
     12.50000     12.50000     13.17526         0.003661      0.000000     -0.054934
 -----------------------------------------------------------------------------------
    total drift:                               -0.000027      0.000000      0.000009


--------------------------------------------------------------------------------------------------------



  FREE ENERGIE OF THE ION-ELECTRON SYSTEM (eV)
  ---------------------------------------------------
  free  energy   TOTEN  =        -6.755592 eV

  energy  without entropy=       -6.766604  energy(sigma->0) =       -6.758345
 
 d Force =-0.9151655E-04[-0.183E-03, 0.000E+00]  d Energy =-0.3967051E-04-0.518E-04
 d Force = 0.4229165E-01[ 0.846E-01,-0.154E-20]  d Ewald  = 0.4243235E-01-0.141E-03


--------------------------------------------------------------------------------------------------------


    POTLOK:  cpu time    0.91: real time    0.91


--------------------------------------------------------------------------------------------------------


 stress matrix after NEB project (eV)
     -0.06732      0.00000      0.00377
      0.00000     -0.06718      0.00000
      0.00377      0.00000     -0.12719
  FORCES: max atom, RMS     0.055056    0.055056
  FORCE total and by dimension    0.077860    0.054934
  Stress total and by dimension    0.158904    0.127189
 Finite differences progress:
  Degree of freedom:   1/  6
  Displacement:        1/  2
  Total:               1/ 12
  LATTYP: Found a simple cubic cell.
 ALAT       =    25.0000000000
  
  Lattice vectors:
  
 A1 = (  25.0000000000,   0.0000000000,   0.0000000000)
 A2 = (   0.0000000000,  25.0000000000,   0.0000000000)
 A3 = (   0.0000000000,   0.0000000000,  25.0000000000)
 Subroutine PRICEL returns:
 Original cell was already a primitive cell.
 

Analysis of symmetry for initial positions (statically):

 Routine SETGRP: Setting up the symmetry group for a 
 simple cubic supercell.


 Subroutine GETGRP returns: Found  4 space group operations
 (whereof  2 operations were pure point group operations)
 out of a pool of 48 trial point group operations.


The static configuration has the point symmetry C_1h.
 The point group associated with its full space group is C_2h.

Analysis of symmetry for dynamics (positions and initial velocities):

 Subroutine DYNSYM returns: Found  4 space group operations
 (whereof  2 operations were pure point group operations)
 out of a pool of  4 trial space group operations
 (whereof  2 operations were pure point group operations)
 and found also     1 'primitive' translations


The dynamic configuration has the point symmetry C_1h.
 The point group associated with its full space group is C_2h.
 
 KPOINTS: k-points                                

Automatic generation of k-mesh.
 
 Subroutine IBZKPT returns following result:
 ===========================================
 
 Found      1 irreducible k-points:
 
 Following reciprocal coordinates:
            Coordinates               Weight
  0.000000  0.000000  0.000000      1.000000
 
 Following cartesian coordinates:
            Coordinates               Weight
  0.000000  0.000000  0.000000      1.000000
 
    WAVPRE:  cpu time    0.06: real time    0.06
    FEWALD:  cpu time    0.00: real time    0.00
    ORTHCH:  cpu time    0.16: real time    0.17
     LOOP+:  cpu time   33.77: real time   34.03


----------------------------------------- Iteration    3(   1)  ---------------------------------------


    POTLOK:  cpu time    0.91: real time    0.91
    SETDIJ:  cpu time    0.00: real time    0.00
     EDDAV:  cpu time    1.24: real time    1.26
       DOS:  cpu time    0.00: real time    0.00
    CHARGE:  cpu time    1.41: real time    1.42
    MIXING:  cpu time    0.02: real time    0.02
    --------------------------------------------
      LOOP:  cpu time    3.59: real time    3.62

 eigenvalue-minimisations  :    64
 total energy-change (2. order) : 0.7599585E-04  (-0.3499893E+00)
 number of electron       1.9999994 magnetization 
 augmentation part        0.0412635 magnetization 

 Broyden mixing:
  rms(total) = 0.45428E-01    rms(broyden)= 0.45336E-01
  rms(prec ) = 0.46609E-01
  weight for this iteration     100.00

 Free energy of the ion-electron system (eV)
  ---------------------------------------------------
  alpha Z        PSCENC =         0.00062366
  Ewald energy   TEWEN  =        15.87668674
  -1/2 Hartree   DENC   =       -32.19239866
  -exchange  EXHF       =         0.00000000
  -V(xc)+E(xc)   XCENC  =         5.29453337
  PAW double counting   =        23.76077906      -23.80971990
  entropy T*S    EENTRO =         0.01101221
  eigenvalues    EBANDS =       -20.66480412
  atomic energy  EATOM  =        24.96779543
  ---------------------------------------------------
  free energy    TOTEN  =        -6.75549222 eV

  energy without entropy =       -6.76650442  energy(sigma->0) =       -6.75824527


--------------------------------------------------------------------------------------------------------




----------------------------------------- Iteration    3(   2)  ---------------------------------------


    POTLOK:  cpu time    0.88: real time    0.88
    SETDIJ:  cpu time    0.00: real time    0.00
    EDDIAG:  cpu time    0.28: real time    0.28
  RMM-DIIS:  cpu time    0.88: real time    0.88
    ORTHCH:  cpu time    0.07: real time    0.07
       DOS:  cpu time    0.00: real time    0.00
    CHARGE:  cpu time    1.29: real time    1.29
    MIXING:  cpu time    0.02: real time    0.02
    --------------------------------------------
      LOOP:  cpu time    3.42: real time    3.43

 eigenvalue-minimisations  :    64
 total energy-change (2. order) :-0.1465581E-03  (-0.1411650E-02)
 number of electron       1.9999994 magnetization 
 augmentation part        0.0414847 magnetization 

 Broyden mixing:
  rms(total) = 0.28352E-01    rms(broyden)= 0.28344E-01
  rms(prec ) = 0.29170E-01
  weight for this iteration     100.00

 eigenvalues of (default mixing * dielectric matrix)
  average eigenvalue GAMMA=   2.4883
  2.4883

 Free energy of the ion-electron system (eV)
  ---------------------------------------------------
  alpha Z        PSCENC =         0.00062366
  Ewald energy   TEWEN  =        15.87668674
  -1/2 Hartree   DENC   =       -32.18345527
  -exchange  EXHF       =         0.00000000
  -V(xc)+E(xc)   XCENC  =         5.29292705
  PAW double counting   =        23.79119324      -23.83997642
  entropy T*S    EENTRO =         0.01101221
  eigenvalues    EBANDS =       -20.67244540
  atomic energy  EATOM  =        24.96779543
  ---------------------------------------------------
  free energy    TOTEN  =        -6.75563877 eV

  energy without entropy =       -6.76665098  energy(sigma->0) =       -6.75839183


--------------------------------------------------------------------------------------------------------




----------------------------------------- Iteration    3(   3)  ---------------------------------------


    POTLOK:  cpu time    0.88: real time    0.88
    SETDIJ:  cpu time    0.00: real time    0.00
    EDDIAG:  cpu time    0.28: real time    0.29
  RMM-DIIS:  cpu time    0.87: real time    0.87
    ORTHCH:  cpu time    0.07: real time    0.07
       DOS:  cpu time    0.00: real time    0.00
    CHARGE:  cpu time    1.35: real time    1.35
    MIXING:  cpu time    0.02: real time    0.02
    --------------------------------------------
      LOOP:  cpu time    3.47: real time    3.49

 eigenvalue-minimisations  :    64
 total energy-change (2. order) : 0.2444899E-03  (-0.2264490E-03)
 number of electron       1.9999994 magnetization 
 augmentation part        0.0414979 magnetization 

 Broyden mixing:
  rms(total) = 0.18573E-02    rms(broyden)= 0.18509E-02
  rms(prec ) = 0.20208E-02
  weight for this iteration     100.00

 eigenvalues of (default mixing * dielectric matrix)
  average eigenvalue GAMMA=   1.8211
  2.6188  1.0235

 Free energy of the ion-electron system (eV)
  ---------------------------------------------------
  alpha Z        PSCENC =         0.00062366
  Ewald energy   TEWEN  =        15.87668674
  -1/2 Hartree   DENC   =       -32.20897523
  -exchange  EXHF       =         0.00000000
  -V(xc)+E(xc)   XCENC  =         5.29595385
  PAW double counting   =        23.79142933      -23.84035921
  entropy T*S    EENTRO =         0.01101221
  eigenvalues    EBANDS =       -20.64956106
  atomic energy  EATOM  =        24.96779543
  ---------------------------------------------------
  free energy    TOTEN  =        -6.75539428 eV

  energy without entropy =       -6.76640649  energy(sigma->0) =       -6.75814734


--------------------------------------------------------------------------------------------------------




----------------------------------------- Iteration    3(   4)  ---------------------------------------


    POTLOK:  cpu time    0.88: real time    0.88
    SETDIJ:  cpu time    0.00: real time    0.00
    EDDIAG:  cpu time    0.28: real time    0.29
  RMM-DIIS:  cpu time    0.86: real time    0.86
    ORTHCH:  cpu time    0.07: real time    0.07
       DOS:  cpu time    0.00: real time    0.00
    CHARGE:  cpu time    1.28: real time    1.28
    MIXING:  cpu time    0.02: real time    0.02
    --------------------------------------------
      LOOP:  cpu time    3.40: real time    3.41

 eigenvalue-minimisations  :    64
 total energy-change (2. order) :-0.3418504E-04  (-0.3495401E-05)
 number of electron       1.9999994 magnetization 
 augmentation part        0.0414985 magnetization 

 Broyden mixing:
  rms(total) = 0.81097E-03    rms(broyden)= 0.81026E-03
  rms(prec ) = 0.92977E-03
  weight for this iteration     100.00

 eigenvalues of (default mixing * dielectric matrix)
  average eigenvalue GAMMA=   2.1943
  1.0022  2.5773  3.0032

 Free energy of the ion-electron system (eV)
  ---------------------------------------------------
  alpha Z        PSCENC =         0.00062366
  Ewald energy   TEWEN  =        15.87668674
  -1/2 Hartree   DENC   =       -32.21012449
  -exchange  EXHF       =         0.00000000
  -V(xc)+E(xc)   XCENC  =         5.29608965
  PAW double counting   =        23.77998430      -23.82892360
  entropy T*S    EENTRO =         0.01101221
  eigenvalues    EBANDS =       -20.64857237
  atomic energy  EATOM  =        24.96779543
  ---------------------------------------------------
  free energy    TOTEN  =        -6.75542847 eV

  energy without entropy =       -6.76644068  energy(sigma->0) =       -6.75818152


--------------------------------------------------------------------------------------------------------




----------------------------------------- Iteration    3(   5)  ---------------------------------------


    POTLOK:  cpu time    0.88: real time    0.88
    SETDIJ:  cpu time    0.00: real time    0.00
    EDDIAG:  cpu time    0.28: real time    0.29
  RMM-DIIS:  cpu time    0.87: real time    0.87
    ORTHCH:  cpu time    0.07: real time    0.07
       DOS:  cpu time    0.00: real time    0.00
    CHARGE:  cpu time    1.29: real time    1.29
    MIXING:  cpu time    0.02: real time    0.02
    --------------------------------------------
      LOOP:  cpu time    3.42: real time    3.43

 eigenvalue-minimisations  :    64
 total energy-change (2. order) :-0.6886987E-04  (-0.1927950E-05)
 number of electron       1.9999994 magnetization 
 augmentation part        0.0414992 magnetization 

 Broyden mixing:
  rms(total) = 0.13766E-03    rms(broyden)= 0.13742E-03
  rms(prec ) = 0.19371E-03
  weight for this iteration     100.00

 eigenvalues of (default mixing * dielectric matrix)
  average eigenvalue GAMMA=   1.9929
  2.9367  2.5970  1.0007  1.4371

 Free energy of the ion-electron system (eV)
  ---------------------------------------------------
  alpha Z        PSCENC =         0.00062366
  Ewald energy   TEWEN  =        15.87668674
  -1/2 Hartree   DENC   =       -32.20905999
  -exchange  EXHF       =         0.00000000
  -V(xc)+E(xc)   XCENC  =         5.29589480
  PAW double counting   =        23.75783587      -23.80677724
  entropy T*S    EENTRO =         0.01101221
  eigenvalues    EBANDS =       -20.64950882
  atomic energy  EATOM  =        24.96779543
  ---------------------------------------------------
  free energy    TOTEN  =        -6.75549734 eV

  energy without entropy =       -6.76650955  energy(sigma->0) =       -6.75825039


--------------------------------------------------------------------------------------------------------




----------------------------------------- Iteration    3(   6)  ---------------------------------------


    POTLOK:  cpu time    0.88: real time    0.88
    SETDIJ:  cpu time    0.00: real time    0.00
    EDDIAG:  cpu time    0.28: real time    0.29
  RMM-DIIS:  cpu time    0.87: real time    0.87
    ORTHCH:  cpu time    0.07: real time    0.07
       DOS:  cpu time    0.00: real time    0.00
    CHARGE:  cpu time    1.38: real time    1.38
    MIXING:  cpu time    0.02: real time    0.02
    --------------------------------------------
      LOOP:  cpu time    3.50: real time    3.52

 eigenvalue-minimisations  :    64
 total energy-change (2. order) :-0.2385065E-04  (-0.1344659E-06)
 number of electron       1.9999994 magnetization 
 augmentation part        0.0414992 magnetization 

 Broyden mixing:
  rms(total) = 0.80182E-04    rms(broyden)= 0.80163E-04
  rms(prec ) = 0.12620E-03
  weight for this iteration     100.00

 eigenvalues of (default mixing * dielectric matrix)
  average eigenvalue GAMMA=   2.2298
  3.7968  2.5715  2.8089  1.0027  0.9690

 Free energy of the ion-electron system (eV)
  ---------------------------------------------------
  alpha Z        PSCENC =         0.00062366
  Ewald energy   TEWEN  =        15.87668674
  -1/2 Hartree   DENC   =       -32.20897072
  -exchange  EXHF       =         0.00000000
  -V(xc)+E(xc)   XCENC  =         5.29587017
  PAW double counting   =        23.76015759      -23.80909915
  entropy T*S    EENTRO =         0.01101221
  eigenvalues    EBANDS =       -20.64959712
  atomic energy  EATOM  =        24.96779543
  ---------------------------------------------------
  free energy    TOTEN  =        -6.75552119 eV

  energy without entropy =       -6.76653340  energy(sigma->0) =       -6.75827424


--------------------------------------------------------------------------------------------------------




----------------------------------------- Iteration    3(   7)  ---------------------------------------


    POTLOK:  cpu time    0.88: real time    0.88
    SETDIJ:  cpu time    0.00: real time    0.00
    EDDIAG:  cpu time    0.28: real time    0.29
  RMM-DIIS:  cpu time    0.86: real time    0.87
    ORTHCH:  cpu time    0.07: real time    0.07
       DOS:  cpu time    0.00: real time    0.00
    CHARGE:  cpu time    1.28: real time    1.28
    MIXING:  cpu time    0.03: real time    0.03
    --------------------------------------------
      LOOP:  cpu time    3.40: real time    3.68

 eigenvalue-minimisations  :    64
 total energy-change (2. order) :-0.2652940E-04  (-0.2762814E-06)
 number of electron       1.9999994 magnetization 
 augmentation part        0.0414992 magnetization 

 Broyden mixing:
  rms(total) = 0.33000E-04    rms(broyden)= 0.32998E-04
  rms(prec ) = 0.55638E-04
  weight for this iteration     100.00

 eigenvalues of (default mixing * dielectric matrix)
  average eigenvalue GAMMA=   2.4711
  4.7129  2.8589  2.5687  2.7046  1.0027  0.9786

 Free energy of the ion-electron system (eV)
  ---------------------------------------------------
  alpha Z        PSCENC =         0.00062366
  Ewald energy   TEWEN  =        15.87668674
  -1/2 Hartree   DENC   =       -32.20882279
  -exchange  EXHF       =         0.00000000
  -V(xc)+E(xc)   XCENC  =         5.29583489
  PAW double counting   =        23.76198403      -23.81092597
  entropy T*S    EENTRO =         0.01101221
  eigenvalues    EBANDS =       -20.64973592
  atomic energy  EATOM  =        24.96779543
  ---------------------------------------------------
  free energy    TOTEN  =        -6.75554772 eV

  energy without entropy =       -6.76655993  energy(sigma->0) =       -6.75830077


--------------------------------------------------------------------------------------------------------




----------------------------------------- Iteration    3(   8)  ---------------------------------------


    POTLOK:  cpu time    0.88: real time    0.88
    SETDIJ:  cpu time    0.00: real time    0.00
    EDDIAG:  cpu time    0.28: real time    0.28
  RMM-DIIS:  cpu time    0.87: real time    0.87
    ORTHCH:  cpu time    0.07: real time    0.07
       DOS:  cpu time    0.00: real time    0.00
    CHARGE:  cpu time    1.35: real time    1.35
    MIXING:  cpu time    0.03: real time    0.03
    --------------------------------------------
      LOOP:  cpu time    3.48: real time    3.50

 eigenvalue-minimisations  :    64
 total energy-change (2. order) :-0.1499849E-04  (-0.9676343E-07)
 number of electron       1.9999994 magnetization 
 augmentation part        0.0414992 magnetization 

 Broyden mixing:
  rms(total) = 0.12740E-04    rms(broyden)= 0.12739E-04
  rms(prec ) = 0.23554E-04
  weight for this iteration     100.00

 eigenvalues of (default mixing * dielectric matrix)
  average eigenvalue GAMMA=   2.4399
  5.3390  3.3588  2.5587  2.7259  1.0043  0.9857  1.1070

 Free energy of the ion-electron system (eV)
  ---------------------------------------------------
  alpha Z        PSCENC =         0.00062366
  Ewald energy   TEWEN  =        15.87668674
  -1/2 Hartree   DENC   =       -32.20870738
  -exchange  EXHF       =         0.00000000
  -V(xc)+E(xc)   XCENC  =         5.29580968
  PAW double counting   =        23.76077689      -23.80971830
  entropy T*S    EENTRO =         0.01101221
  eigenvalues    EBANDS =       -20.64984164
  atomic energy  EATOM  =        24.96779543
  ---------------------------------------------------
  free energy    TOTEN  =        -6.75556272 eV

  energy without entropy =       -6.76657492  energy(sigma->0) =       -6.75831577


--------------------------------------------------------------------------------------------------------




----------------------------------------- Iteration    3(   9)  ---------------------------------------


    POTLOK:  cpu time    0.88: real time    0.88
    SETDIJ:  cpu time    0.00: real time    0.00
    EDDIAG:  cpu time    0.28: real time    0.28
  RMM-DIIS:  cpu time    0.87: real time    0.87
    ORTHCH:  cpu time    0.12: real time    0.13
       DOS:  cpu time    0.00: real time    0.00
    CHARGE:  cpu time    1.28: real time    1.28
    MIXING:  cpu time    0.03: real time    0.03
    --------------------------------------------
      LOOP:  cpu time    3.46: real time    3.48

 eigenvalue-minimisations  :    63
 total energy-change (2. order) :-0.3439574E-05  (-0.8416357E-08)
 number of electron       1.9999994 magnetization 
 augmentation part        0.0414992 magnetization 

 Broyden mixing:
  rms(total) = 0.95503E-05    rms(broyden)= 0.95503E-05
  rms(prec ) = 0.16038E-04
  weight for this iteration     100.00

 eigenvalues of (default mixing * dielectric matrix)
  average eigenvalue GAMMA=   2.7665
  6.8070  4.0835  3.0387  2.5504  2.6771  1.0006  0.9875  0.9875

 Free energy of the ion-electron system (eV)
  ---------------------------------------------------
  alpha Z        PSCENC =         0.00062366
  Ewald energy   TEWEN  =        15.87668674
  -1/2 Hartree   DENC   =       -32.20869504
  -exchange  EXHF       =         0.00000000
  -V(xc)+E(xc)   XCENC  =         5.29580566
  PAW double counting   =        23.76075115      -23.80969255
  entropy T*S    EENTRO =         0.01101221
  eigenvalues    EBANDS =       -20.64985341
  atomic energy  EATOM  =        24.96779543
  ---------------------------------------------------
  free energy    TOTEN  =        -6.75556616 eV

  energy without entropy =       -6.76657836  energy(sigma->0) =       -6.75831921


--------------------------------------------------------------------------------------------------------




----------------------------------------- Iteration    3(  10)  ---------------------------------------


    POTLOK:  cpu time    0.88: real time    0.88
    SETDIJ:  cpu time    0.00: real time    0.00
    EDDIAG:  cpu time    0.28: real time    0.28
  RMM-DIIS:  cpu time    0.86: real time    0.87
    ORTHCH:  cpu time    0.07: real time    0.07
       DOS:  cpu time    0.00: real time    0.00
    CHARGE:  cpu time    1.28: real time    1.28
    MIXING:  cpu time    0.03: real time    0.03
    --------------------------------------------
      LOOP:  cpu time    3.41: real time    3.42

 eigenvalue-minimisations  :    63
 total energy-change (2. order) :-0.3580225E-05  (-0.7186603E-08)
 number of electron       1.9999994 magnetization 
 augmentation part        0.0414992 magnetization 

 Broyden mixing:
  rms(total) = 0.37269E-05    rms(broyden)= 0.37269E-05
  rms(prec ) = 0.59782E-05
  weight for this iteration     100.00

 eigenvalues of (default mixing * dielectric matrix)
  average eigenvalue GAMMA=   2.9260
  7.6535  4.1222  3.6405  2.8305  2.5964  2.5116  1.0016  0.9889  0.9889

 Free energy of the ion-electron system (eV)
  ---------------------------------------------------
  alpha Z        PSCENC =         0.00062366
  Ewald energy   TEWEN  =        15.87668674
  -1/2 Hartree   DENC   =       -32.20870441
  -exchange  EXHF       =         0.00000000
  -V(xc)+E(xc)   XCENC  =         5.29580400
  PAW double counting   =        23.76117419      -23.81011589
  entropy T*S    EENTRO =         0.01101221
  eigenvalues    EBANDS =       -20.64984566
  atomic energy  EATOM  =        24.96779543
  ---------------------------------------------------
  free energy    TOTEN  =        -6.75556974 eV

  energy without entropy =       -6.76658194  energy(sigma->0) =       -6.75832279


--------------------------------------------------------------------------------------------------------




----------------------------------------- Iteration    3(  11)  ---------------------------------------


    POTLOK:  cpu time    0.88: real time    0.88
    SETDIJ:  cpu time    0.00: real time    0.00
    EDDIAG:  cpu time    0.28: real time    0.28
  RMM-DIIS:  cpu time    0.86: real time    0.87
    ORTHCH:  cpu time    0.07: real time    0.07
       DOS:  cpu time    0.00: real time    0.00
    CHARGE:  cpu time    1.28: real time    1.28
    MIXING:  cpu time    0.03: real time    0.03
    --------------------------------------------
      LOOP:  cpu time    3.41: real time    3.42

 eigenvalue-minimisations  :    63
 total energy-change (2. order) :-0.1168356E-05  (-0.8887362E-09)
 number of electron       1.9999994 magnetization 
 augmentation part        0.0414992 magnetization 

 Broyden mixing:
  rms(total) = 0.14083E-05    rms(broyden)= 0.14082E-05
  rms(prec ) = 0.24016E-05
  weight for this iteration     100.00

 eigenvalues of (default mixing * dielectric matrix)
  average eigenvalue GAMMA=   2.8932
  8.2876  4.9674  3.5435  2.9208  2.5454  2.6521  1.0004  0.9819  1.0163  1.0163

 Free energy of the ion-electron system (eV)
  ---------------------------------------------------
  alpha Z        PSCENC =         0.00062366
  Ewald energy   TEWEN  =        15.87668674
  -1/2 Hartree   DENC   =       -32.20869514
  -exchange  EXHF       =         0.00000000
  -V(xc)+E(xc)   XCENC  =         5.29580173
  PAW double counting   =        23.76101736      -23.80995889
  entropy T*S    EENTRO =         0.01101221
  eigenvalues    EBANDS =       -20.64985400
  atomic energy  EATOM  =        24.96779543
  ---------------------------------------------------
  free energy    TOTEN  =        -6.75557091 eV

  energy without entropy =       -6.76658311  energy(sigma->0) =       -6.75832396


--------------------------------------------------------------------------------------------------------




----------------------------------------- Iteration    3(  12)  ---------------------------------------


    POTLOK:  cpu time    0.88: real time    0.89
    SETDIJ:  cpu time    0.02: real time    0.02
    EDDIAG:  cpu time    0.28: real time    0.28
  RMM-DIIS:  cpu time    0.86: real time    0.86
    ORTHCH:  cpu time    0.07: real time    0.07
       DOS:  cpu time    0.00: real time    0.00
    --------------------------------------------
      LOOP:  cpu time    2.11: real time    2.12

 eigenvalue-minimisations  :    62
 total energy-change (2. order) :-0.2275130E-06  ( 0.0000000E+00)
 number of electron       1.9999994 magnetization 
 augmentation part        0.0414992 magnetization 

 Free energy of the ion-electron system (eV)
  ---------------------------------------------------
  alpha Z        PSCENC =         0.00062366
  Ewald energy   TEWEN  =        15.87668674
  -1/2 Hartree   DENC   =       -32.20869518
  -exchange  EXHF       =         0.00000000
  -V(xc)+E(xc)   XCENC  =         5.29580156
  PAW double counting   =        23.76098730      -23.80992881
  entropy T*S    EENTRO =         0.01101221
  eigenvalues    EBANDS =       -20.64985403
  atomic energy  EATOM  =        24.96779543
  ---------------------------------------------------
  free energy    TOTEN  =        -6.75557113 eV

  energy without entropy =       -6.76658334  energy(sigma->0) =       -6.75832418


--------------------------------------------------------------------------------------------------------




 average (electrostatic) potential at core
  the test charge radii are     0.5201
  (the norm of the test charge is              1.0000)
       1 -41.6179       2 -41.6179
 
 
 
 E-fermi : -10.1983     XC(G=0):  -0.0403     alpha+bet : -0.0035


 k-point   1 :       0.0000    0.0000    0.0000
  band No.  band energies     occupation 
      1     -10.3249      2.00000
      2      -0.0364      0.00000
      3       0.1255      0.00000
      4       0.1508      0.00000
      5       0.2095      0.00000
      6       0.2104      0.00000
      7       0.2248      0.00000
      8       0.2256      0.00000
      9       0.2868      0.00000
     10       0.3959      0.00000
     11       0.4143      0.00000
     12       0.4147      0.00000
     13       0.4616      0.00000
     14       0.4621      0.00000
     15       0.4636      0.00000
     16       0.4643      0.00000
     17       0.4652      0.00000
     18       0.4668      0.00000
     19       0.4674      0.00000
     20       0.4675      0.00000
     21       0.5533      0.00000
     22       0.6608      0.00000
     23       0.6607      0.00000
     24       0.6779      0.00000
     25       0.7012      0.00000
     26       0.7026      0.00000
     27       0.7038      0.00000
     28       0.7065      0.00000
     29       0.7648      0.00000
     30       0.8815      0.00000
     31       0.8838      0.00000
     32       0.9261      0.00000


--------------------------------------------------------------------------------------------------------


 soft charge-density along one line, spin component           1
         0         1         2         3         4         5         6         7         8         9
 total charge-density along one line
 
 pseudopotential strength for first ion, spin component:           1
 -2.344  -4.039   0.000  -0.002  -0.000
 -4.039  -6.875   0.000  -0.005  -0.000
  0.000   0.000  -0.341   0.000  -0.000
 -0.002  -0.005   0.000  -0.335   0.000
 -0.000  -0.000  -0.000   0.000  -0.341
 total augmentation occupancy for first ion, spin component:           1
  2.991  -0.446   0.000   0.369   0.025
 -0.446   0.066   0.000  -0.055  -0.004
  0.000   0.000   0.000   0.000   0.000
  0.369  -0.055   0.000   0.046   0.003
  0.025  -0.004   0.000   0.003   0.000


------------------------ aborting loop because EDIFF is reached ----------------------------------------


    CHARGE:  cpu time    1.30: real time    1.30
    FORLOC:  cpu time    0.02: real time    0.02
    FORNL :  cpu time    0.28: real time    0.28
    STRESS:  cpu time    0.89: real time    0.89
    FORHAR:  cpu time    0.21: real time    0.22
    MIXING:  cpu time    0.03: real time    0.03

  Number of pair interactions contributing to Grimme's potential:      19
  Estimated vdW energy (eV):  -0.00002

  FORCE on cell =-STRESS in cart. coord.  units (eV):
  Direction    XX          YY          ZZ          XY          YZ          ZX
  --------------------------------------------------------------------------------------
  Alpha Z     0.00062     0.00062     0.00062
  Ewald      -1.00546    -1.09007    17.97223    -0.00000    -0.00000     1.26955
  Hartree     9.99916     9.98926    12.22027     0.00000    -0.00000     0.14840
  E(xc)      -5.96918    -5.97015    -5.75079    -0.00000     0.00000     0.01461
  Local     -18.81209   -18.75219   -32.24321     0.00000    -0.00000    -0.89816
  n-local    -5.36346    -5.35934    -6.29260     0.00000     0.00000    -0.06195
  augment     0.27350     0.27367     0.20430     0.00000    -0.00000    -0.00462
  Kinetic    20.80964    20.84108    13.76197     0.00000     0.00000    -0.47161
  Fock        0.00000     0.00000     0.00000     0.00000     0.00000     0.00000
  -------------------------------------------------------------------------------------
  Total      -0.06727    -0.06712    -0.12717     0.00000     0.00000    -0.00377
  in kB      -0.00690    -0.00688    -0.01304     0.00000     0.00000    -0.00039
  external pressure =       -0.01 kB  Pullay stress =        0.00 kB


 VOLUME and BASIS-vectors are now :
 -----------------------------------------------------------------------------
  energy-cutoff  :      450.00
  volume of cell :    15625.00
      direct lattice vectors                 reciprocal lattice vectors
    25.000000000  0.000000000  0.000000000     0.040000000  0.000000000  0.000000000
     0.000000000 25.000000000  0.000000000     0.000000000  0.040000000  0.000000000
     0.000000000  0.000000000 25.000000000     0.000000000  0.000000000  0.040000000

  length of vectors
    25.000000000 25.000000000 25.000000000     0.040000000  0.040000000  0.040000000


 FORCES acting on ions
    electron-ion (+dipol)            ewald-force                    non-local-force                 convergence-correction
 -----------------------------------------------------------------------------------------------
   0.136E+01 0.926E-13 0.204E+02   -.169E+01 -.319E-18 -.254E+02   0.334E+00 0.000E+00 0.502E+01   0.145E-05 0.127E-17 -.474E-06
   -.136E+01 0.908E-13 -.204E+02   0.169E+01 0.289E-18 0.254E+02   -.334E+00 0.000E+00 -.502E+01   0.266E-05 -.481E-17 0.453E-06
 -----------------------------------------------------------------------------------------------
   0.803E-05 0.183E-12 0.931E-05   0.000E+00 -.291E-19 0.000E+00   0.000E+00 0.000E+00 0.888E-15   0.411E-05 -.354E-17 -.211E-07
 
 
 POSITION                                       TOTAL-FORCE (eV/Angst)
 -----------------------------------------------------------------------------------
     12.45000     12.50000     12.42474         0.003667      0.000000      0.054968
     12.50000     12.50000     13.17526        -0.003667      0.000000     -0.054968
 -----------------------------------------------------------------------------------
    total drift:                                0.000012      0.000000      0.000009


--------------------------------------------------------------------------------------------------------



  FREE ENERGIE OF THE ION-ELECTRON SYSTEM (eV)
  ---------------------------------------------------
  free  energy   TOTEN  =        -6.755594 eV

  energy  without entropy=       -6.766606  energy(sigma->0) =       -6.758347
 
 d Force =-0.3041352E-06[-0.367E-03, 0.366E-03]  d Energy = 0.2207951E-05-0.251E-05
 d Force = 0.5551115E-16[ 0.169E+00,-0.169E+00]  d Ewald  =-0.7105427E-14 0.711E-14


--------------------------------------------------------------------------------------------------------


    POTLOK:  cpu time    0.89: real time    0.89


--------------------------------------------------------------------------------------------------------


 stress matrix after NEB project (eV)
     -0.06727      0.00000     -0.00377
      0.00000     -0.06712      0.00000
     -0.00377      0.00000     -0.12717
  FORCES: max atom, RMS     0.055090    0.055090
  FORCE total and by dimension    0.077909    0.054968
  Stress total and by dimension    0.158840    0.127167
 Finite differences progress:
  Degree of freedom:   1/  6
  Displacement:        2/  2
  Total:               2/ 12
  LATTYP: Found a simple cubic cell.
 ALAT       =    25.0000000000
  
  Lattice vectors:
  
 A1 = (  25.0000000000,   0.0000000000,   0.0000000000)
 A2 = (   0.0000000000,  25.0000000000,   0.0000000000)
 A3 = (   0.0000000000,   0.0000000000,  25.0000000000)
 Subroutine PRICEL returns:
 Original cell was already a primitive cell.
 

Analysis of symmetry for initial positions (statically):

 Routine SETGRP: Setting up the symmetry group for a 
 simple cubic supercell.


 Subroutine GETGRP returns: Found  4 space group operations
 (whereof  2 operations were pure point group operations)
 out of a pool of 48 trial point group operations.


The static configuration has the point symmetry C_1h.
 The point group associated with its full space group is C_2h.

Analysis of symmetry for dynamics (positions and initial velocities):

 Subroutine DYNSYM returns: Found  4 space group operations
 (whereof  2 operations were pure point group operations)
 out of a pool of  4 trial space group operations
 (whereof  2 operations were pure point group operations)
 and found also     1 'primitive' translations


The dynamic configuration has the point symmetry C_1h.
 The point group associated with its full space group is C_2h.
 
 KPOINTS: k-points                                

Automatic generation of k-mesh.
 
 Subroutine IBZKPT returns following result:
 ===========================================
 
 Found      1 irreducible k-points:
 
 Following reciprocal coordinates:
            Coordinates               Weight
  0.000000  0.000000  0.000000      1.000000
 
 Following cartesian coordinates:
            Coordinates               Weight
  0.000000  0.000000  0.000000      1.000000
 
    WAVPRE:  cpu time    0.06: real time    0.06
    FEWALD:  cpu time    0.00: real time    0.00
    ORTHCH:  cpu time    0.16: real time    0.16
     LOOP+:  cpu time   44.07: real time   44.53


----------------------------------------- Iteration    4(   1)  ---------------------------------------


    POTLOK:  cpu time    0.88: real time    0.91
    SETDIJ:  cpu time    0.00: real time    0.00
     EDDAV:  cpu time    1.22: real time    1.24
       DOS:  cpu time    0.00: real time    0.00
    CHARGE:  cpu time    1.44: real time    1.45
    MIXING:  cpu time    0.02: real time    0.02
    --------------------------------------------
      LOOP:  cpu time    3.57: real time    3.62

 eigenvalue-minimisations  :    64
 total energy-change (2. order) :-0.5264840E-04  (-0.1760955E+00)
 number of electron       1.9999994 magnetization 
 augmentation part        0.0413724 magnetization 

 Broyden mixing:
  rms(total) = 0.32308E-01    rms(broyden)= 0.32238E-01
  rms(prec ) = 0.33140E-01
  weight for this iteration     100.00

 Free energy of the ion-electron system (eV)
  ---------------------------------------------------
  alpha Z        PSCENC =         0.00062366
  Ewald energy   TEWEN  =        15.87668674
  -1/2 Hartree   DENC   =       -32.20056509
  -exchange  EXHF       =         0.00000000
  -V(xc)+E(xc)   XCENC  =         5.29516863
  PAW double counting   =        23.76104508      -23.80998667
  entropy T*S    EENTRO =         0.01101221
  eigenvalues    EBANDS =       -20.65740354
  atomic energy  EATOM  =        24.96779543
  ---------------------------------------------------
  free energy    TOTEN  =        -6.75562355 eV

  energy without entropy =       -6.76663576  energy(sigma->0) =       -6.75837661


--------------------------------------------------------------------------------------------------------




----------------------------------------- Iteration    4(   2)  ---------------------------------------


    POTLOK:  cpu time    0.88: real time    0.88
    SETDIJ:  cpu time    0.00: real time    0.00
    EDDIAG:  cpu time    0.30: real time    0.30
  RMM-DIIS:  cpu time    0.87: real time    0.87
    ORTHCH:  cpu time    0.10: real time    0.10
       DOS:  cpu time    0.00: real time    0.00
    CHARGE:  cpu time    1.30: real time    1.30
    MIXING:  cpu time    0.02: real time    0.02
    --------------------------------------------
      LOOP:  cpu time    3.47: real time    3.49

 eigenvalue-minimisations  :    64
 total energy-change (2. order) : 0.5603288E-04  (-0.6360601E-03)
 number of electron       1.9999994 magnetization 
 augmentation part        0.0414910 magnetization 

 Broyden mixing:
  rms(total) = 0.20058E-01    rms(broyden)= 0.20053E-01
  rms(prec ) = 0.20637E-01
  weight for this iteration     100.00

 eigenvalues of (default mixing * dielectric matrix)
  average eigenvalue GAMMA=   2.5413
  2.5413

 Free energy of the ion-electron system (eV)
  ---------------------------------------------------
  alpha Z        PSCENC =         0.00062366
  Ewald energy   TEWEN  =        15.87668674
  -1/2 Hartree   DENC   =       -32.19517650
  -exchange  EXHF       =         0.00000000
  -V(xc)+E(xc)   XCENC  =         5.29426502
  PAW double counting   =        23.77651877      -23.82537513
  entropy T*S    EENTRO =         0.01101221
  eigenvalues    EBANDS =       -20.66191771
  atomic energy  EATOM  =        24.96779543
  ---------------------------------------------------
  free energy    TOTEN  =        -6.75556752 eV

  energy without entropy =       -6.76657973  energy(sigma->0) =       -6.75832057


--------------------------------------------------------------------------------------------------------




----------------------------------------- Iteration    4(   3)  ---------------------------------------


    POTLOK:  cpu time    0.92: real time    0.96
    SETDIJ:  cpu time    0.00: real time    0.00
    EDDIAG:  cpu time    0.28: real time    0.28
  RMM-DIIS:  cpu time    0.87: real time    0.87
    ORTHCH:  cpu time    0.07: real time    0.07
       DOS:  cpu time    0.00: real time    0.00
    CHARGE:  cpu time    1.29: real time    1.29
    MIXING:  cpu time    0.02: real time    0.02
    --------------------------------------------
      LOOP:  cpu time    3.45: real time    3.51

 eigenvalue-minimisations  :    64
 total energy-change (2. order) : 0.1051999E-03  (-0.1178956E-03)
 number of electron       1.9999994 magnetization 
 augmentation part        0.0414984 magnetization 

 Broyden mixing:
  rms(total) = 0.10050E-02    rms(broyden)= 0.99987E-03
  rms(prec ) = 0.11199E-02
  weight for this iteration     100.00

 eigenvalues of (default mixing * dielectric matrix)
  average eigenvalue GAMMA=   1.8214
  2.6141  1.0287

 Free energy of the ion-electron system (eV)
  ---------------------------------------------------
  alpha Z        PSCENC =         0.00062366
  Ewald energy   TEWEN  =        15.87668674
  -1/2 Hartree   DENC   =       -32.20901245
  -exchange  EXHF       =         0.00000000
  -V(xc)+E(xc)   XCENC  =         5.29591059
  PAW double counting   =        23.77752194      -23.82645831
  entropy T*S    EENTRO =         0.01101221
  eigenvalues    EBANDS =       -20.64954212
  atomic energy  EATOM  =        24.96779543
  ---------------------------------------------------
  free energy    TOTEN  =        -6.75546232 eV

  energy without entropy =       -6.76647453  energy(sigma->0) =       -6.75821537


--------------------------------------------------------------------------------------------------------




----------------------------------------- Iteration    4(   4)  ---------------------------------------


    POTLOK:  cpu time    0.88: real time    0.88
    SETDIJ:  cpu time    0.00: real time    0.00
    EDDIAG:  cpu time    0.27: real time    0.28
  RMM-DIIS:  cpu time    0.85: real time    0.86
    ORTHCH:  cpu time    0.07: real time    0.07
       DOS:  cpu time    0.00: real time    0.00
    CHARGE:  cpu time    1.36: real time    1.36
    MIXING:  cpu time    0.02: real time    0.02
    --------------------------------------------
      LOOP:  cpu time    3.47: real time    3.48

 eigenvalue-minimisations  :    64
 total energy-change (2. order) :-0.2747618E-04  (-0.1255194E-05)
 number of electron       1.9999994 magnetization 
 augmentation part        0.0414989 magnetization 

 Broyden mixing:
  rms(total) = 0.55610E-03    rms(broyden)= 0.55567E-03
  rms(prec ) = 0.63977E-03
  weight for this iteration     100.00

 eigenvalues of (default mixing * dielectric matrix)
  average eigenvalue GAMMA=   2.1831
  1.0003  2.9707  2.5783

 Free energy of the ion-electron system (eV)
  ---------------------------------------------------
  alpha Z        PSCENC =         0.00062366
  Ewald energy   TEWEN  =        15.87668674
  -1/2 Hartree   DENC   =       -32.20932118
  -exchange  EXHF       =         0.00000000
  -V(xc)+E(xc)   XCENC  =         5.29593902
  PAW double counting   =        23.77134505      -23.82028476
  entropy T*S    EENTRO =         0.01101221
  eigenvalues    EBANDS =       -20.64928595
  atomic energy  EATOM  =        24.96779543
  ---------------------------------------------------
  free energy    TOTEN  =        -6.75548980 eV

  energy without entropy =       -6.76650200  energy(sigma->0) =       -6.75824285


--------------------------------------------------------------------------------------------------------




----------------------------------------- Iteration    4(   5)  ---------------------------------------


    POTLOK:  cpu time    0.89: real time    0.89
    SETDIJ:  cpu time    0.00: real time    0.00
    EDDIAG:  cpu time    0.28: real time    0.28
  RMM-DIIS:  cpu time    0.88: real time    0.88
    ORTHCH:  cpu time    0.07: real time    0.07
       DOS:  cpu time    0.00: real time    0.00
    CHARGE:  cpu time    1.29: real time    1.30
    MIXING:  cpu time    0.02: real time    0.02
    --------------------------------------------
      LOOP:  cpu time    3.44: real time    3.45

 eigenvalue-minimisations  :    64
 total energy-change (2. order) :-0.3825534E-04  (-0.9499545E-06)
 number of electron       1.9999994 magnetization 
 augmentation part        0.0414992 magnetization 

 Broyden mixing:
  rms(total) = 0.93591E-04    rms(broyden)= 0.93458E-04
  rms(prec ) = 0.13353E-03
  weight for this iteration     100.00

 eigenvalues of (default mixing * dielectric matrix)
  average eigenvalue GAMMA=   2.0374
  2.9408  2.5944  0.9984  1.6159

 Free energy of the ion-electron system (eV)
  ---------------------------------------------------
  alpha Z        PSCENC =         0.00062366
  Ewald energy   TEWEN  =        15.87668674
  -1/2 Hartree   DENC   =       -32.20893884
  -exchange  EXHF       =         0.00000000
  -V(xc)+E(xc)   XCENC  =         5.29586201
  PAW double counting   =        23.75950279      -23.80844459
  entropy T*S    EENTRO =         0.01101221
  eigenvalues    EBANDS =       -20.64962745
  atomic energy  EATOM  =        24.96779543
  ---------------------------------------------------
  free energy    TOTEN  =        -6.75552805 eV

  energy without entropy =       -6.76654026  energy(sigma->0) =       -6.75828110


--------------------------------------------------------------------------------------------------------




----------------------------------------- Iteration    4(   6)  ---------------------------------------


    POTLOK:  cpu time    0.88: real time    0.88
    SETDIJ:  cpu time    0.00: real time    0.00
    EDDIAG:  cpu time    0.28: real time    0.28
  RMM-DIIS:  cpu time    0.86: real time    0.87
    ORTHCH:  cpu time    0.07: real time    0.07
       DOS:  cpu time    0.00: real time    0.00
    CHARGE:  cpu time    1.30: real time    1.30
    MIXING:  cpu time    0.02: real time    0.02
    --------------------------------------------
      LOOP:  cpu time    3.42: real time    3.43

 eigenvalue-minimisations  :    64
 total energy-change (2. order) :-0.1565956E-04  (-0.9222603E-07)
 number of electron       1.9999994 magnetization 
 augmentation part        0.0414992 magnetization 

 Broyden mixing:
  rms(total) = 0.48072E-04    rms(broyden)= 0.48061E-04
  rms(prec ) = 0.78541E-04
  weight for this iteration     100.00

 eigenvalues of (default mixing * dielectric matrix)
  average eigenvalue GAMMA=   2.2323
  3.8116  2.5701  2.8007  1.0025  0.9766

 Free energy of the ion-electron system (eV)
  ---------------------------------------------------
  alpha Z        PSCENC =         0.00062366
  Ewald energy   TEWEN  =        15.87668674
  -1/2 Hartree   DENC   =       -32.20884647
  -exchange  EXHF       =         0.00000000
  -V(xc)+E(xc)   XCENC  =         5.29584008
  PAW double counting   =        23.76076875      -23.80971041
  entropy T*S    EENTRO =         0.01101221
  eigenvalues    EBANDS =       -20.64971370
  atomic energy  EATOM  =        24.96779543
  ---------------------------------------------------
  free energy    TOTEN  =        -6.75554371 eV

  energy without entropy =       -6.76655592  energy(sigma->0) =       -6.75829676


--------------------------------------------------------------------------------------------------------




----------------------------------------- Iteration    4(   7)  ---------------------------------------


    POTLOK:  cpu time    0.88: real time    0.88
    SETDIJ:  cpu time    0.00: real time    0.00
    EDDIAG:  cpu time    0.27: real time    0.28
  RMM-DIIS:  cpu time    0.86: real time    0.86
    ORTHCH:  cpu time    0.07: real time    0.07
       DOS:  cpu time    0.00: real time    0.00
    CHARGE:  cpu time    1.30: real time    1.30
    MIXING:  cpu time    0.03: real time    0.03
    --------------------------------------------
      LOOP:  cpu time    3.41: real time    3.43

 eigenvalue-minimisations  :    64
 total energy-change (2. order) :-0.1331295E-04  (-0.1150989E-06)
 number of electron       1.9999994 magnetization 
 augmentation part        0.0414992 magnetization 

 Broyden mixing:
  rms(total) = 0.22790E-04    rms(broyden)= 0.22789E-04
  rms(prec ) = 0.38489E-04
  weight for this iteration     100.00

 eigenvalues of (default mixing * dielectric matrix)
  average eigenvalue GAMMA=   2.5657
  5.0011  3.1223  2.5609  2.7243  1.0006  0.9853

 Free energy of the ion-electron system (eV)
  ---------------------------------------------------
  alpha Z        PSCENC =         0.00062366
  Ewald energy   TEWEN  =        15.87668674
  -1/2 Hartree   DENC   =       -32.20875279
  -exchange  EXHF       =         0.00000000
  -V(xc)+E(xc)   XCENC  =         5.29581906
  PAW double counting   =        23.76149485      -23.81043647
  entropy T*S    EENTRO =         0.01101221
  eigenvalues    EBANDS =       -20.64979971
  atomic energy  EATOM  =        24.96779543
  ---------------------------------------------------
  free energy    TOTEN  =        -6.75555703 eV

  energy without entropy =       -6.76656923  energy(sigma->0) =       -6.75831008


--------------------------------------------------------------------------------------------------------




----------------------------------------- Iteration    4(   8)  ---------------------------------------


    POTLOK:  cpu time    0.89: real time    0.89
    SETDIJ:  cpu time    0.01: real time    0.01
    EDDIAG:  cpu time    0.28: real time    0.28
  RMM-DIIS:  cpu time    0.88: real time    0.88
    ORTHCH:  cpu time    0.07: real time    0.07
       DOS:  cpu time    0.00: real time    0.00
    CHARGE:  cpu time    1.31: real time    1.32
    MIXING:  cpu time    0.03: real time    0.03
    --------------------------------------------
      LOOP:  cpu time    3.47: real time    3.48

 eigenvalue-minimisations  :    64
 total energy-change (2. order) :-0.9527944E-05  (-0.5964642E-07)
 number of electron       1.9999994 magnetization 
 augmentation part        0.0414992 magnetization 

 Broyden mixing:
  rms(total) = 0.85002E-05    rms(broyden)= 0.85000E-05
  rms(prec ) = 0.14968E-04
  weight for this iteration     100.00

 eigenvalues of (default mixing * dielectric matrix)
  average eigenvalue GAMMA=   2.5134
  5.4276  3.4211  2.7301  2.5603  0.9995  0.9886  1.4665

 Free energy of the ion-electron system (eV)
  ---------------------------------------------------
  alpha Z        PSCENC =         0.00062366
  Ewald energy   TEWEN  =        15.87668674
  -1/2 Hartree   DENC   =       -32.20871132
  -exchange  EXHF       =         0.00000000
  -V(xc)+E(xc)   XCENC  =         5.29580756
  PAW double counting   =        23.76087372      -23.80981528
  entropy T*S    EENTRO =         0.01101221
  eigenvalues    EBANDS =       -20.64983926
  atomic energy  EATOM  =        24.96779543
  ---------------------------------------------------
  free energy    TOTEN  =        -6.75556655 eV

  energy without entropy =       -6.76657876  energy(sigma->0) =       -6.75831961


--------------------------------------------------------------------------------------------------------




----------------------------------------- Iteration    4(   9)  ---------------------------------------


    POTLOK:  cpu time    0.88: real time    0.88
    SETDIJ:  cpu time    0.00: real time    0.00
    EDDIAG:  cpu time    0.28: real time    0.28
  RMM-DIIS:  cpu time    0.86: real time    0.86
    ORTHCH:  cpu time    0.07: real time    0.07
       DOS:  cpu time    0.00: real time    0.00
    CHARGE:  cpu time    1.31: real time    1.31
    MIXING:  cpu time    0.03: real time    0.03
    --------------------------------------------
      LOOP:  cpu time    3.42: real time    3.44

 eigenvalue-minimisations  :    63
 total energy-change (2. order) :-0.2065616E-05  (-0.2761585E-08)
 number of electron       1.9999994 magnetization 
 augmentation part        0.0414992 magnetization 

 Broyden mixing:
  rms(total) = 0.57409E-05    rms(broyden)= 0.57409E-05
  rms(prec ) = 0.98043E-05
  weight for this iteration     100.00

 eigenvalues of (default mixing * dielectric matrix)
  average eigenvalue GAMMA=   2.7726
  6.8643  4.0513  3.0550  2.5528  2.6826  0.9876  0.9876  0.9999

 Free energy of the ion-electron system (eV)
  ---------------------------------------------------
  alpha Z        PSCENC =         0.00062366
  Ewald energy   TEWEN  =        15.87668674
  -1/2 Hartree   DENC   =       -32.20870341
  -exchange  EXHF       =         0.00000000
  -V(xc)+E(xc)   XCENC  =         5.29580490
  PAW double counting   =        23.76093584      -23.80987740
  entropy T*S    EENTRO =         0.01101221
  eigenvalues    EBANDS =       -20.64984658
  atomic energy  EATOM  =        24.96779543
  ---------------------------------------------------
  free energy    TOTEN  =        -6.75556862 eV

  energy without entropy =       -6.76658083  energy(sigma->0) =       -6.75832167


--------------------------------------------------------------------------------------------------------




----------------------------------------- Iteration    4(  10)  ---------------------------------------


    POTLOK:  cpu time    0.88: real time    0.88
    SETDIJ:  cpu time    0.00: real time    0.00
    EDDIAG:  cpu time    0.28: real time    0.28
  RMM-DIIS:  cpu time    0.87: real time    0.87
    ORTHCH:  cpu time    0.07: real time    0.07
       DOS:  cpu time    0.00: real time    0.00
    CHARGE:  cpu time    1.31: real time    1.31
    MIXING:  cpu time    0.05: real time    0.05
    --------------------------------------------
      LOOP:  cpu time    3.45: real time    3.46

 eigenvalue-minimisations  :    63
 total energy-change (2. order) :-0.1806931E-05  (-0.2860705E-08)
 number of electron       1.9999994 magnetization 
 augmentation part        0.0414992 magnetization 

 Broyden mixing:
  rms(total) = 0.25510E-05    rms(broyden)= 0.25509E-05
  rms(prec ) = 0.40849E-05
  weight for this iteration     100.00

 eigenvalues of (default mixing * dielectric matrix)
  average eigenvalue GAMMA=   2.9862
  7.8466  4.5466  3.5067  2.8571  2.6201  2.5291  0.9962  0.9869  0.9869

 Free energy of the ion-electron system (eV)
  ---------------------------------------------------
  alpha Z        PSCENC =         0.00062366
  Ewald energy   TEWEN  =        15.87668674
  -1/2 Hartree   DENC   =       -32.20869170
  -exchange  EXHF       =         0.00000000
  -V(xc)+E(xc)   XCENC  =         5.29580164
  PAW double counting   =        23.76108319      -23.81002475
  entropy T*S    EENTRO =         0.01101221
  eigenvalues    EBANDS =       -20.64985685
  atomic energy  EATOM  =        24.96779543
  ---------------------------------------------------
  free energy    TOTEN  =        -6.75557043 eV

  energy without entropy =       -6.76658263  energy(sigma->0) =       -6.75832348


--------------------------------------------------------------------------------------------------------




----------------------------------------- Iteration    4(  11)  ---------------------------------------


    POTLOK:  cpu time    0.94: real time    0.94
    SETDIJ:  cpu time    0.01: real time    0.01
    EDDIAG:  cpu time    0.28: real time    0.28
  RMM-DIIS:  cpu time    0.86: real time    0.86
    ORTHCH:  cpu time    0.07: real time    0.07
       DOS:  cpu time    0.00: real time    0.00
    --------------------------------------------
      LOOP:  cpu time    2.16: real time    2.17

 eigenvalue-minimisations  :    62
 total energy-change (2. order) :-0.7337711E-06  ( 0.0000000E+00)
 number of electron       1.9999994 magnetization 
 augmentation part        0.0414992 magnetization 

 Free energy of the ion-electron system (eV)
  ---------------------------------------------------
  alpha Z        PSCENC =         0.00062366
  Ewald energy   TEWEN  =        15.87668674
  -1/2 Hartree   DENC   =       -32.20869796
  -exchange  EXHF       =         0.00000000
  -V(xc)+E(xc)   XCENC  =         5.29580197
  PAW double counting   =        23.76102601      -23.80996758
  entropy T*S    EENTRO =         0.01101221
  eigenvalues    EBANDS =       -20.64985162
  atomic energy  EATOM  =        24.96779543
  ---------------------------------------------------
  free energy    TOTEN  =        -6.75557116 eV

  energy without entropy =       -6.76658337  energy(sigma->0) =       -6.75832421


--------------------------------------------------------------------------------------------------------




 average (electrostatic) potential at core
  the test charge radii are     0.5201
  (the norm of the test charge is              1.0000)
       1 -41.6179       2 -41.6179
 
 
 
 E-fermi : -10.1983     XC(G=0):  -0.0402     alpha+bet : -0.0035


 k-point   1 :       0.0000    0.0000    0.0000
  band No.  band energies     occupation 
      1     -10.3249      2.00000
      2      -0.0362      0.00000
      3       0.1257      0.00000
      4       0.1510      0.00000
      5       0.2084      0.00000
      6       0.2126      0.00000
      7       0.2240      0.00000
      8       0.2253      0.00000
      9       0.2869      0.00000
     10       0.3966      0.00000
     11       0.4137      0.00000
     12       0.4156      0.00000
     13       0.4604      0.00000
     14       0.4617      0.00000
     15       0.4630      0.00000
     16       0.4646      0.00000
     17       0.4646      0.00000
     18       0.4673      0.00000
     19       0.4677      0.00000
     20       0.4691      0.00000
     21       0.5534      0.00000
     22       0.6599      0.00000
     23       0.6613      0.00000
     24       0.6769      0.00000
     25       0.7008      0.00000
     26       0.7031      0.00000
     27       0.7050      0.00000
     28       0.7076      0.00000
     29       0.7645      0.00000
     30       0.8823      0.00000
     31       0.8832      0.00000
     32       0.9270      0.00000


--------------------------------------------------------------------------------------------------------


 soft charge-density along one line, spin component           1
         0         1         2         3         4         5         6         7         8         9
 total charge-density along one line
 
 pseudopotential strength for first ion, spin component:           1
 -2.344  -4.039   0.000  -0.002  -0.000
 -4.039  -6.875   0.000  -0.005  -0.000
  0.000   0.000  -0.341  -0.000   0.000
 -0.002  -0.005  -0.000  -0.335  -0.000
 -0.000  -0.000   0.000  -0.000  -0.341
 total augmentation occupancy for first ion, spin component:           1
  2.991  -0.446  -0.025   0.369   0.000
 -0.446   0.066   0.004  -0.055   0.000
 -0.025   0.004   0.000  -0.003   0.000
  0.369  -0.055  -0.003   0.046   0.000
  0.000   0.000   0.000   0.000   0.000


------------------------ aborting loop because EDIFF is reached ----------------------------------------


    CHARGE:  cpu time    1.35: real time    1.37
    FORLOC:  cpu time    0.02: real time    0.02
    FORNL :  cpu time    0.28: real time    0.28
    STRESS:  cpu time    0.89: real time    0.89
    FORHAR:  cpu time    0.22: real time    0.22
    MIXING:  cpu time    0.03: real time    0.03

  Number of pair interactions contributing to Grimme's potential:      19
  Estimated vdW energy (eV):  -0.00002

  FORCE on cell =-STRESS in cart. coord.  units (eV):
  Direction    XX          YY          ZZ          XY          YZ          ZX
  --------------------------------------------------------------------------------------
  Alpha Z     0.00062     0.00062     0.00062
  Ewald      -1.09007    -1.00546    17.97223     0.00000    -1.26955    -0.00000
  Hartree     9.98926     9.99916    12.22027    -0.00000    -0.14840    -0.00000
  E(xc)      -5.97015    -5.96918    -5.75079     0.00000    -0.01461    -0.00000
  Local     -18.75219   -18.81209   -32.24321    -0.00000     0.89816     0.00000
  n-local    -5.35934    -5.36346    -6.29260     0.00000     0.06195    -0.00000
  augment     0.27367     0.27350     0.20430    -0.00000     0.00462     0.00000
  Kinetic    20.84108    20.80964    13.76197     0.00000     0.47161    -0.00000
  Fock        0.00000     0.00000     0.00000     0.00000     0.00000     0.00000
  -------------------------------------------------------------------------------------
  Total      -0.06712    -0.06727    -0.12717     0.00000     0.00377     0.00000
  in kB      -0.00688    -0.00690    -0.01304     0.00000     0.00039     0.00000
  external pressure =       -0.01 kB  Pullay stress =        0.00 kB


 VOLUME and BASIS-vectors are now :
 -----------------------------------------------------------------------------
  energy-cutoff  :      450.00
  volume of cell :    15625.00
      direct lattice vectors                 reciprocal lattice vectors
    25.000000000  0.000000000  0.000000000     0.040000000  0.000000000  0.000000000
     0.000000000 25.000000000  0.000000000     0.000000000  0.040000000  0.000000000
     0.000000000  0.000000000 25.000000000     0.000000000  0.000000000  0.040000000

  length of vectors
    25.000000000 25.000000000 25.000000000     0.040000000  0.040000000  0.040000000


 FORCES acting on ions
    electron-ion (+dipol)            ewald-force                    non-local-force                 convergence-correction
 -----------------------------------------------------------------------------------------------
   0.470E-13 -.136E+01 0.204E+02   -.190E-18 0.169E+01 -.254E+02   0.000E+00 -.334E+00 0.502E+01   -.920E-06 -.808E-06 0.524E-06
   0.476E-13 0.136E+01 -.204E+02   0.846E-19 -.169E+01 0.254E+02   0.000E+00 0.334E+00 -.502E+01   -.112E-05 -.124E-05 -.538E-06
 -----------------------------------------------------------------------------------------------
   0.946E-13 -.803E-05 0.929E-05   -.105E-18 0.000E+00 0.000E+00   0.000E+00 0.555E-16 0.000E+00   -.204E-05 -.205E-05 -.143E-07
 
 
 POSITION                                       TOTAL-FORCE (eV/Angst)
 -----------------------------------------------------------------------------------
     12.50000     12.55000     12.42474         0.000000     -0.003668      0.054968
     12.50000     12.50000     13.17526         0.000000      0.003668     -0.054968
 -----------------------------------------------------------------------------------
    total drift:                               -0.000002     -0.000010      0.000009


--------------------------------------------------------------------------------------------------------



  FREE ENERGIE OF THE ION-ELECTRON SYSTEM (eV)
  ---------------------------------------------------
  free  energy   TOTEN  =        -6.755594 eV

  energy  without entropy=       -6.766606  energy(sigma->0) =       -6.758347
 
 d Force =-0.3541774E-07[-0.183E-03, 0.183E-03]  d Energy = 0.2643376E-07-0.619E-07
 d Force =-0.1387779E-16[ 0.846E-01,-0.846E-01]  d Ewald  = 0.7105427E-14-0.711E-14


--------------------------------------------------------------------------------------------------------


    POTLOK:  cpu time    0.88: real time    0.89


--------------------------------------------------------------------------------------------------------


 stress matrix after NEB project (eV)
     -0.06712      0.00000      0.00000
      0.00000     -0.06727      0.00377
      0.00000      0.00377     -0.12717
  FORCES: max atom, RMS     0.055090    0.055090
  FORCE total and by dimension    0.077909    0.054968
  Stress total and by dimension    0.158841    0.127168
 Finite differences progress:
  Degree of freedom:   2/  6
  Displacement:        1/  2
  Total:               3/ 12
  LATTYP: Found a simple cubic cell.
 ALAT       =    25.0000000000
  
  Lattice vectors:
  
 A1 = (  25.0000000000,   0.0000000000,   0.0000000000)
 A2 = (   0.0000000000,  25.0000000000,   0.0000000000)
 A3 = (   0.0000000000,   0.0000000000,  25.0000000000)
 Subroutine PRICEL returns:
 Original cell was already a primitive cell.
 

Analysis of symmetry for initial positions (statically):

 Routine SETGRP: Setting up the symmetry group for a 
 simple cubic supercell.


 Subroutine GETGRP returns: Found  4 space group operations
 (whereof  2 operations were pure point group operations)
 out of a pool of 48 trial point group operations.


The static configuration has the point symmetry C_1h.
 The point group associated with its full space group is C_2h.

Analysis of symmetry for dynamics (positions and initial velocities):

 Subroutine DYNSYM returns: Found  4 space group operations
 (whereof  2 operations were pure point group operations)
 out of a pool of  4 trial space group operations
 (whereof  2 operations were pure point group operations)
 and found also     1 'primitive' translations


The dynamic configuration has the point symmetry C_1h.
 The point group associated with its full space group is C_2h.
 
 KPOINTS: k-points                                

Automatic generation of k-mesh.
 
 Subroutine IBZKPT returns following result:
 ===========================================
 
 Found      1 irreducible k-points:
 
 Following reciprocal coordinates:
            Coordinates               Weight
  0.000000  0.000000  0.000000      1.000000
 
 Following cartesian coordinates:
            Coordinates               Weight
  0.000000  0.000000  0.000000      1.000000
 
    WAVPRE:  cpu time    0.06: real time    0.06
    FEWALD:  cpu time    0.00: real time    0.00
    ORTHCH:  cpu time    0.15: real time    0.16
     LOOP+:  cpu time   40.79: real time   41.03


----------------------------------------- Iteration    5(   1)  ---------------------------------------


    POTLOK:  cpu time    0.89: real time    0.89
    SETDIJ:  cpu time    0.00: real time    0.00
     EDDAV:  cpu time    1.22: real time    1.25
       DOS:  cpu time    0.00: real time    0.00
    CHARGE:  cpu time    1.50: real time    1.51
    MIXING:  cpu time    0.02: real time    0.02
    --------------------------------------------
      LOOP:  cpu time    3.64: real time    3.68

 eigenvalue-minimisations  :    64
 total energy-change (2. order) :-0.3452449E-05  (-0.3500730E+00)
 number of electron       1.9999994 magnetization 
 augmentation part        0.0413033 magnetization 

 Broyden mixing:
  rms(total) = 0.45432E-01    rms(broyden)= 0.45340E-01
  rms(prec ) = 0.46613E-01
  weight for this iteration     100.00

 Free energy of the ion-electron system (eV)
  ---------------------------------------------------
  alpha Z        PSCENC =         0.00062366
  Ewald energy   TEWEN  =        15.87668674
  -1/2 Hartree   DENC   =       -32.19247545
  -exchange  EXHF       =         0.00000000
  -V(xc)+E(xc)   XCENC  =         5.29454470
  PAW double counting   =        23.76101723      -23.80995880
  entropy T*S    EENTRO =         0.01101221
  eigenvalues    EBANDS =       -20.66481960
  atomic energy  EATOM  =        24.96779543
  ---------------------------------------------------
  free energy    TOTEN  =        -6.75557388 eV

  energy without entropy =       -6.76658609  energy(sigma->0) =       -6.75832693


--------------------------------------------------------------------------------------------------------




----------------------------------------- Iteration    5(   2)  ---------------------------------------


    POTLOK:  cpu time    0.91: real time    0.91
    SETDIJ:  cpu time    0.10: real time    0.10
    EDDIAG:  cpu time    0.28: real time    0.29
  RMM-DIIS:  cpu time    0.86: real time    0.87
    ORTHCH:  cpu time    0.07: real time    0.07
       DOS:  cpu time    0.00: real time    0.00
    CHARGE:  cpu time    1.30: real time    1.30
    MIXING:  cpu time    0.02: real time    0.02
    --------------------------------------------
      LOOP:  cpu time    3.55: real time    3.57

 eigenvalue-minimisations  :    64
 total energy-change (2. order) :-0.6383573E-04  (-0.1328102E-02)
 number of electron       1.9999994 magnetization 
 augmentation part        0.0414856 magnetization 

 Broyden mixing:
  rms(total) = 0.28318E-01    rms(broyden)= 0.28311E-01
  rms(prec ) = 0.29136E-01
  weight for this iteration     100.00

 eigenvalues of (default mixing * dielectric matrix)
  average eigenvalue GAMMA=   2.5323
  2.5323

 Free energy of the ion-electron system (eV)
  ---------------------------------------------------
  alpha Z        PSCENC =         0.00062366
  Ewald energy   TEWEN  =        15.87668674
  -1/2 Hartree   DENC   =       -32.18760354
  -exchange  EXHF       =         0.00000000
  -V(xc)+E(xc)   XCENC  =         5.29354485
  PAW double counting   =        23.79468306      -23.84349691
  entropy T*S    EENTRO =         0.01101221
  eigenvalues    EBANDS =       -20.66888321
  atomic energy  EATOM  =        24.96779543
  ---------------------------------------------------
  free energy    TOTEN  =        -6.75563771 eV

  energy without entropy =       -6.76664992  energy(sigma->0) =       -6.75839077


--------------------------------------------------------------------------------------------------------




----------------------------------------- Iteration    5(   3)  ---------------------------------------


    POTLOK:  cpu time    0.88: real time    0.88
    SETDIJ:  cpu time    0.00: real time    0.00
    EDDIAG:  cpu time    0.28: real time    0.28
  RMM-DIIS:  cpu time    0.87: real time    0.87
    ORTHCH:  cpu time    0.07: real time    0.07
       DOS:  cpu time    0.00: real time    0.00
    CHARGE:  cpu time    1.32: real time    1.32
    MIXING:  cpu time    0.02: real time    0.02
    --------------------------------------------
      LOOP:  cpu time    3.44: real time    3.46

 eigenvalue-minimisations  :    64
 total energy-change (2. order) : 0.2532169E-03  (-0.2364873E-03)
 number of electron       1.9999994 magnetization 
 augmentation part        0.0414975 magnetization 

 Broyden mixing:
  rms(total) = 0.15236E-02    rms(broyden)= 0.15160E-02
  rms(prec ) = 0.16857E-02
  weight for this iteration     100.00

 eigenvalues of (default mixing * dielectric matrix)
  average eigenvalue GAMMA=   1.8236
  2.6186  1.0285

 Free energy of the ion-electron system (eV)
  ---------------------------------------------------
  alpha Z        PSCENC =         0.00062366
  Ewald energy   TEWEN  =        15.87668674
  -1/2 Hartree   DENC   =       -32.20992855
  -exchange  EXHF       =         0.00000000
  -V(xc)+E(xc)   XCENC  =         5.29609317
  PAW double counting   =        23.79003339      -23.83896633
  entropy T*S    EENTRO =         0.01101221
  eigenvalues    EBANDS =       -20.64873421
  atomic energy  EATOM  =        24.96779543
  ---------------------------------------------------
  free energy    TOTEN  =        -6.75538450 eV

  energy without entropy =       -6.76639670  energy(sigma->0) =       -6.75813755


--------------------------------------------------------------------------------------------------------




----------------------------------------- Iteration    5(   4)  ---------------------------------------


    POTLOK:  cpu time    0.88: real time    0.89
    SETDIJ:  cpu time    0.00: real time    0.00
    EDDIAG:  cpu time    0.28: real time    0.29
  RMM-DIIS:  cpu time    0.86: real time    0.86
    ORTHCH:  cpu time    0.07: real time    0.07
       DOS:  cpu time    0.00: real time    0.00
    CHARGE:  cpu time    1.36: real time    1.36
    MIXING:  cpu time    0.02: real time    0.02
    --------------------------------------------
      LOOP:  cpu time    3.48: real time    3.50

 eigenvalue-minimisations  :    64
 total energy-change (2. order) :-0.4407165E-04  (-0.2787316E-05)
 number of electron       1.9999994 magnetization 
 augmentation part        0.0414984 magnetization 

 Broyden mixing:
  rms(total) = 0.80902E-03    rms(broyden)= 0.80832E-03
  rms(prec ) = 0.92785E-03
  weight for this iteration     100.00

 eigenvalues of (default mixing * dielectric matrix)
  average eigenvalue GAMMA=   2.1931
  1.0005  3.0022  2.5767

 Free energy of the ion-electron system (eV)
  ---------------------------------------------------
  alpha Z        PSCENC =         0.00062366
  Ewald energy   TEWEN  =        15.87668674
  -1/2 Hartree   DENC   =       -32.21026845
  -exchange  EXHF       =         0.00000000
  -V(xc)+E(xc)   XCENC  =         5.29610974
  PAW double counting   =        23.77892147      -23.82785982
  entropy T*S    EENTRO =         0.01101221
  eigenvalues    EBANDS =       -20.64844954
  atomic energy  EATOM  =        24.96779543
  ---------------------------------------------------
  free energy    TOTEN  =        -6.75542857 eV

  energy without entropy =       -6.76644078  energy(sigma->0) =       -6.75818162


--------------------------------------------------------------------------------------------------------




----------------------------------------- Iteration    5(   5)  ---------------------------------------


    POTLOK:  cpu time    0.90: real time    0.90
    SETDIJ:  cpu time    0.01: real time    0.01
    EDDIAG:  cpu time    0.28: real time    0.29
  RMM-DIIS:  cpu time    0.86: real time    0.88
    ORTHCH:  cpu time    0.07: real time    0.08
       DOS:  cpu time    0.00: real time    0.00
    CHARGE:  cpu time    1.30: real time    1.30
    MIXING:  cpu time    0.02: real time    0.02
    --------------------------------------------
      LOOP:  cpu time    3.45: real time    3.48

 eigenvalue-minimisations  :    64
 total energy-change (2. order) :-0.6851294E-04  (-0.1906328E-05)
 number of electron       1.9999994 magnetization 
 augmentation part        0.0414993 magnetization 

 Broyden mixing:
  rms(total) = 0.13764E-03    rms(broyden)= 0.13739E-03
  rms(prec ) = 0.19389E-03
  weight for this iteration     100.00

 eigenvalues of (default mixing * dielectric matrix)
  average eigenvalue GAMMA=   1.9876
  2.9406  2.5968  0.9991  1.4140

 Free energy of the ion-electron system (eV)
  ---------------------------------------------------
  alpha Z        PSCENC =         0.00062366
  Ewald energy   TEWEN  =        15.87668674
  -1/2 Hartree   DENC   =       -32.20904646
  -exchange  EXHF       =         0.00000000
  -V(xc)+E(xc)   XCENC  =         5.29589112
  PAW double counting   =        23.75798438      -23.80692560
  entropy T*S    EENTRO =         0.01101221
  eigenvalues    EBANDS =       -20.64951855
  atomic energy  EATOM  =        24.96779543
  ---------------------------------------------------
  free energy    TOTEN  =        -6.75549708 eV

  energy without entropy =       -6.76650929  energy(sigma->0) =       -6.75825013


--------------------------------------------------------------------------------------------------------




----------------------------------------- Iteration    5(   6)  ---------------------------------------


    POTLOK:  cpu time    0.88: real time    0.88
    SETDIJ:  cpu time    0.00: real time    0.00
    EDDIAG:  cpu time    0.30: real time    0.31
  RMM-DIIS:  cpu time    0.86: real time    0.86
    ORTHCH:  cpu time    0.07: real time    0.08
       DOS:  cpu time    0.00: real time    0.00
    CHARGE:  cpu time    1.29: real time    1.29
    MIXING:  cpu time    0.02: real time    0.02
    --------------------------------------------
      LOOP:  cpu time    3.44: real time    3.45

 eigenvalue-minimisations  :    64
 total energy-change (2. order) :-0.2419582E-04  (-0.1373095E-06)
 number of electron       1.9999994 magnetization 
 augmentation part        0.0414992 magnetization 

 Broyden mixing:
  rms(total) = 0.79470E-04    rms(broyden)= 0.79450E-04
  rms(prec ) = 0.12554E-03
  weight for this iteration     100.00

 eigenvalues of (default mixing * dielectric matrix)
  average eigenvalue GAMMA=   2.2291
  3.7953  2.5712  2.8084  1.0005  0.9701

 Free energy of the ion-electron system (eV)
  ---------------------------------------------------
  alpha Z        PSCENC =         0.00062366
  Ewald energy   TEWEN  =        15.87668674
  -1/2 Hartree   DENC   =       -32.20897895
  -exchange  EXHF       =         0.00000000
  -V(xc)+E(xc)   XCENC  =         5.29587026
  PAW double counting   =        23.76025857      -23.80920012
  entropy T*S    EENTRO =         0.01101221
  eigenvalues    EBANDS =       -20.64958906
  atomic energy  EATOM  =        24.96779543
  ---------------------------------------------------
  free energy    TOTEN  =        -6.75552128 eV

  energy without entropy =       -6.76653348  energy(sigma->0) =       -6.75827433


--------------------------------------------------------------------------------------------------------




----------------------------------------- Iteration    5(   7)  ---------------------------------------


    POTLOK:  cpu time    0.88: real time    0.88
    SETDIJ:  cpu time    0.00: real time    0.00
    EDDIAG:  cpu time    0.28: real time    0.28
  RMM-DIIS:  cpu time    0.87: real time    0.87
    ORTHCH:  cpu time    0.07: real time    0.07
       DOS:  cpu time    0.00: real time    0.00
    CHARGE:  cpu time    1.37: real time    1.37
    MIXING:  cpu time    0.05: real time    0.05
    --------------------------------------------
      LOOP:  cpu time    3.52: real time    3.54

 eigenvalue-minimisations  :    64
 total energy-change (2. order) :-0.2625906E-04  (-0.2717295E-06)
 number of electron       1.9999994 magnetization 
 augmentation part        0.0414992 magnetization 

 Broyden mixing:
  rms(total) = 0.33165E-04    rms(broyden)= 0.33163E-04
  rms(prec ) = 0.55990E-04
  weight for this iteration     100.00

 eigenvalues of (default mixing * dielectric matrix)
  average eigenvalue GAMMA=   2.4865
  4.7651  2.8753  2.5668  2.7319  1.0015  0.9787

 Free energy of the ion-electron system (eV)
  ---------------------------------------------------
  alpha Z        PSCENC =         0.00062366
  Ewald energy   TEWEN  =        15.87668674
  -1/2 Hartree   DENC   =       -32.20884211
  -exchange  EXHF       =         0.00000000
  -V(xc)+E(xc)   XCENC  =         5.29583764
  PAW double counting   =        23.76195993      -23.81090196
  entropy T*S    EENTRO =         0.01101221
  eigenvalues    EBANDS =       -20.64971906
  atomic energy  EATOM  =        24.96779543
  ---------------------------------------------------
  free energy    TOTEN  =        -6.75554754 eV

  energy without entropy =       -6.76655974  energy(sigma->0) =       -6.75830059


--------------------------------------------------------------------------------------------------------




----------------------------------------- Iteration    5(   8)  ---------------------------------------


    POTLOK:  cpu time    0.88: real time    0.88
    SETDIJ:  cpu time    0.00: real time    0.00
    EDDIAG:  cpu time    0.28: real time    0.28
  RMM-DIIS:  cpu time    0.86: real time    0.88
    ORTHCH:  cpu time    0.07: real time    0.07
       DOS:  cpu time    0.00: real time    0.00
    CHARGE:  cpu time    1.30: real time    1.30
    MIXING:  cpu time    0.03: real time    0.03
    --------------------------------------------
      LOOP:  cpu time    3.43: real time    3.46

 eigenvalue-minimisations  :    64
 total energy-change (2. order) :-0.1533087E-04  (-0.1021015E-06)
 number of electron       1.9999994 magnetization 
 augmentation part        0.0414992 magnetization 

 Broyden mixing:
  rms(total) = 0.12853E-04    rms(broyden)= 0.12853E-04
  rms(prec ) = 0.23339E-04
  weight for this iteration     100.00

 eigenvalues of (default mixing * dielectric matrix)
  average eigenvalue GAMMA=   2.4364
  5.3295  3.3516  2.5577  2.7233  1.0066  0.9837  1.1026

 Free energy of the ion-electron system (eV)
  ---------------------------------------------------
  alpha Z        PSCENC =         0.00062366
  Ewald energy   TEWEN  =        15.87668674
  -1/2 Hartree   DENC   =       -32.20869198
  -exchange  EXHF       =         0.00000000
  -V(xc)+E(xc)   XCENC  =         5.29580735
  PAW double counting   =        23.76071832      -23.80965963
  entropy T*S    EENTRO =         0.01101221
  eigenvalues    EBANDS =       -20.64985496
  atomic energy  EATOM  =        24.96779543
  ---------------------------------------------------
  free energy    TOTEN  =        -6.75556287 eV

  energy without entropy =       -6.76657507  energy(sigma->0) =       -6.75831592


--------------------------------------------------------------------------------------------------------




----------------------------------------- Iteration    5(   9)  ---------------------------------------


    POTLOK:  cpu time    0.88: real time    0.88
    SETDIJ:  cpu time    0.00: real time    0.00
    EDDIAG:  cpu time    0.28: real time    0.28
  RMM-DIIS:  cpu time    0.86: real time    0.86
    ORTHCH:  cpu time    0.07: real time    0.07
       DOS:  cpu time    0.00: real time    0.00
    CHARGE:  cpu time    1.30: real time    1.30
    MIXING:  cpu time    0.03: real time    0.03
    --------------------------------------------
      LOOP:  cpu time    3.42: real time    3.43

 eigenvalue-minimisations  :    63
 total energy-change (2. order) :-0.3269614E-05  (-0.7133568E-08)
 number of electron       1.9999994 magnetization 
 augmentation part        0.0414992 magnetization 

 Broyden mixing:
  rms(total) = 0.95845E-05    rms(broyden)= 0.95844E-05
  rms(prec ) = 0.16112E-04
  weight for this iteration     100.00

 eigenvalues of (default mixing * dielectric matrix)
  average eigenvalue GAMMA=   2.7608
  6.8019  4.0726  3.0236  2.5482  2.6730  0.9972  0.9850  0.9850

 Free energy of the ion-electron system (eV)
  ---------------------------------------------------
  alpha Z        PSCENC =         0.00062366
  Ewald energy   TEWEN  =        15.87668674
  -1/2 Hartree   DENC   =       -32.20868666
  -exchange  EXHF       =         0.00000000
  -V(xc)+E(xc)   XCENC  =         5.29580445
  PAW double counting   =        23.76076393      -23.80970528
  entropy T*S    EENTRO =         0.01101221
  eigenvalues    EBANDS =       -20.64986060
  atomic energy  EATOM  =        24.96779543
  ---------------------------------------------------
  free energy    TOTEN  =        -6.75556614 eV

  energy without entropy =       -6.76657834  energy(sigma->0) =       -6.75831919


--------------------------------------------------------------------------------------------------------




----------------------------------------- Iteration    5(  10)  ---------------------------------------


    POTLOK:  cpu time    0.88: real time    0.95
    SETDIJ:  cpu time    0.00: real time    0.00
    EDDIAG:  cpu time    0.28: real time    0.28
  RMM-DIIS:  cpu time    0.87: real time    0.87
    ORTHCH:  cpu time    0.09: real time    0.10
       DOS:  cpu time    0.00: real time    0.00
    CHARGE:  cpu time    1.36: real time    1.37
    MIXING:  cpu time    0.03: real time    0.03
    --------------------------------------------
      LOOP:  cpu time    3.52: real time    3.60

 eigenvalue-minimisations  :    63
 total energy-change (2. order) :-0.3570049E-05  (-0.7005873E-08)
 number of electron       1.9999994 magnetization 
 augmentation part        0.0414992 magnetization 

 Broyden mixing:
  rms(total) = 0.38793E-05    rms(broyden)= 0.38793E-05
  rms(prec ) = 0.61361E-05
  weight for this iteration     100.00

 eigenvalues of (default mixing * dielectric matrix)
  average eigenvalue GAMMA=   2.9222
  7.6609  4.2052  3.5634  2.8155  2.5899  2.4897  1.0004  0.9872  0.9872

 Free energy of the ion-electron system (eV)
  ---------------------------------------------------
  alpha Z        PSCENC =         0.00062366
  Ewald energy   TEWEN  =        15.87668674
  -1/2 Hartree   DENC   =       -32.20871278
  -exchange  EXHF       =         0.00000000
  -V(xc)+E(xc)   XCENC  =         5.29580525
  PAW double counting   =        23.76118389      -23.81012567
  entropy T*S    EENTRO =         0.01101221
  eigenvalues    EBANDS =       -20.64983843
  atomic energy  EATOM  =        24.96779543
  ---------------------------------------------------
  free energy    TOTEN  =        -6.75556971 eV

  energy without entropy =       -6.76658191  energy(sigma->0) =       -6.75832276


--------------------------------------------------------------------------------------------------------




----------------------------------------- Iteration    5(  11)  ---------------------------------------


    POTLOK:  cpu time    0.88: real time    0.88
    SETDIJ:  cpu time    0.00: real time    0.00
    EDDIAG:  cpu time    0.28: real time    0.29
  RMM-DIIS:  cpu time    0.86: real time    0.86
    ORTHCH:  cpu time    0.07: real time    0.07
       DOS:  cpu time    0.00: real time    0.00
    CHARGE:  cpu time    1.31: real time    1.31
    MIXING:  cpu time    0.03: real time    0.03
    --------------------------------------------
      LOOP:  cpu time    3.44: real time    3.45

 eigenvalue-minimisations  :    63
 total energy-change (2. order) :-0.1190917E-05  (-0.9276704E-09)
 number of electron       1.9999994 magnetization 
 augmentation part        0.0414992 magnetization 

 Broyden mixing:
  rms(total) = 0.14512E-05    rms(broyden)= 0.14512E-05
  rms(prec ) = 0.24294E-05
  weight for this iteration     100.00

 eigenvalues of (default mixing * dielectric matrix)
  average eigenvalue GAMMA=   2.8934
  8.2956  4.9628  3.5373  2.9091  2.6488  2.5431  0.9839  0.9953  1.0292  1.0292

 Free energy of the ion-electron system (eV)
  ---------------------------------------------------
  alpha Z        PSCENC =         0.00062366
  Ewald energy   TEWEN  =        15.87668674
  -1/2 Hartree   DENC   =       -32.20869341
  -exchange  EXHF       =         0.00000000
  -V(xc)+E(xc)   XCENC  =         5.29580148
  PAW double counting   =        23.76101114      -23.80995265
  entropy T*S    EENTRO =         0.01101221
  eigenvalues    EBANDS =       -20.64985550
  atomic energy  EATOM  =        24.96779543
  ---------------------------------------------------
  free energy    TOTEN  =        -6.75557090 eV

  energy without entropy =       -6.76658311  energy(sigma->0) =       -6.75832395


--------------------------------------------------------------------------------------------------------




----------------------------------------- Iteration    5(  12)  ---------------------------------------


    POTLOK:  cpu time    0.89: real time    0.91
    SETDIJ:  cpu time    0.00: real time    0.00
    EDDIAG:  cpu time    0.28: real time    0.29
  RMM-DIIS:  cpu time    0.86: real time    0.86
    ORTHCH:  cpu time    0.07: real time    0.07
       DOS:  cpu time    0.00: real time    0.00
    --------------------------------------------
      LOOP:  cpu time    2.11: real time    2.13

 eigenvalue-minimisations  :    62
 total energy-change (2. order) :-0.2330713E-06  ( 0.0000000E+00)
 number of electron       1.9999994 magnetization 
 augmentation part        0.0414992 magnetization 

 Free energy of the ion-electron system (eV)
  ---------------------------------------------------
  alpha Z        PSCENC =         0.00062366
  Ewald energy   TEWEN  =        15.87668674
  -1/2 Hartree   DENC   =       -32.20869239
  -exchange  EXHF       =         0.00000000
  -V(xc)+E(xc)   XCENC  =         5.29580116
  PAW double counting   =        23.76098132      -23.80992281
  entropy T*S    EENTRO =         0.01101221
  eigenvalues    EBANDS =       -20.64985644
  atomic energy  EATOM  =        24.96779543
  ---------------------------------------------------
  free energy    TOTEN  =        -6.75557113 eV

  energy without entropy =       -6.76658334  energy(sigma->0) =       -6.75832418


--------------------------------------------------------------------------------------------------------




 average (electrostatic) potential at core
  the test charge radii are     0.5201
  (the norm of the test charge is              1.0000)
       1 -41.6179       2 -41.6179
 
 
 
 E-fermi : -10.1983     XC(G=0):  -0.0403     alpha+bet : -0.0035


 k-point   1 :       0.0000    0.0000    0.0000
  band No.  band energies     occupation 
      1     -10.3249      2.00000
      2      -0.0364      0.00000
      3       0.1255      0.00000
      4       0.1507      0.00000
      5       0.2095      0.00000
      6       0.2104      0.00000
      7       0.2248      0.00000
      8       0.2256      0.00000
      9       0.2868      0.00000
     10       0.3958      0.00000
     11       0.4143      0.00000
     12       0.4147      0.00000
     13       0.4616      0.00000
     14       0.4620      0.00000
     15       0.4635      0.00000
     16       0.4643      0.00000
     17       0.4652      0.00000
     18       0.4668      0.00000
     19       0.4673      0.00000
     20       0.4675      0.00000
     21       0.5533      0.00000
     22       0.6607      0.00000
     23       0.6608      0.00000
     24       0.6779      0.00000
     25       0.7012      0.00000
     26       0.7026      0.00000
     27       0.7038      0.00000
     28       0.7064      0.00000
     29       0.7648      0.00000
     30       0.8815      0.00000
     31       0.8838      0.00000
     32       0.9261      0.00000


--------------------------------------------------------------------------------------------------------


 soft charge-density along one line, spin component           1
         0         1         2         3         4         5         6         7         8         9
 total charge-density along one line
 
 pseudopotential strength for first ion, spin component:           1
 -2.344  -4.039  -0.000  -0.002  -0.000
 -4.039  -6.875  -0.000  -0.005  -0.000
 -0.000  -0.000  -0.341   0.000  -0.000
 -0.002  -0.005   0.000  -0.335   0.000
 -0.000  -0.000  -0.000   0.000  -0.341
 total augmentation occupancy for first ion, spin component:           1
  2.991  -0.446   0.025   0.369   0.000
 -0.446   0.066  -0.004  -0.055   0.000
  0.025  -0.004   0.000   0.003   0.000
  0.369  -0.055   0.003   0.046   0.000
  0.000   0.000   0.000   0.000   0.000


------------------------ aborting loop because EDIFF is reached ----------------------------------------


    CHARGE:  cpu time    1.30: real time    1.30
    FORLOC:  cpu time    0.02: real time    0.02
    FORNL :  cpu time    0.28: real time    0.28
    STRESS:  cpu time    0.90: real time    0.90
    FORHAR:  cpu time    0.21: real time    0.21
    MIXING:  cpu time    0.03: real time    0.03

  Number of pair interactions contributing to Grimme's potential:      19
  Estimated vdW energy (eV):  -0.00002

  FORCE on cell =-STRESS in cart. coord.  units (eV):
  Direction    XX          YY          ZZ          XY          YZ          ZX
  --------------------------------------------------------------------------------------
  Alpha Z     0.00062     0.00062     0.00062
  Ewald      -1.09007    -1.00546    17.97223     0.00000     1.26955    -0.00000
  Hartree     9.98926     9.99916    12.22027     0.00000     0.14840    -0.00000
  E(xc)      -5.97015    -5.96917    -5.75079     0.00000     0.01461     0.00000
  Local     -18.75219   -18.81209   -32.24321     0.00000    -0.89816     0.00000
  n-local    -5.35934    -5.36346    -6.29260    -0.00000    -0.06195    -0.00000
  augment     0.27367     0.27350     0.20429    -0.00000    -0.00462     0.00000
  Kinetic    20.84108    20.80964    13.76197    -0.00000    -0.47161     0.00000
  Fock        0.00000     0.00000     0.00000     0.00000     0.00000     0.00000
  -------------------------------------------------------------------------------------
  Total      -0.06712    -0.06727    -0.12717     0.00000    -0.00377     0.00000
  in kB      -0.00688    -0.00690    -0.01304     0.00000    -0.00039     0.00000
  external pressure =       -0.01 kB  Pullay stress =        0.00 kB


 VOLUME and BASIS-vectors are now :
 -----------------------------------------------------------------------------
  energy-cutoff  :      450.00
  volume of cell :    15625.00
      direct lattice vectors                 reciprocal lattice vectors
    25.000000000  0.000000000  0.000000000     0.040000000  0.000000000  0.000000000
     0.000000000 25.000000000  0.000000000     0.000000000  0.040000000  0.000000000
     0.000000000  0.000000000 25.000000000     0.000000000  0.000000000  0.040000000

  length of vectors
    25.000000000 25.000000000 25.000000000     0.040000000  0.040000000  0.040000000


 FORCES acting on ions
    electron-ion (+dipol)            ewald-force                    non-local-force                 convergence-correction
 -----------------------------------------------------------------------------------------------
   0.470E-13 0.136E+01 0.204E+02   -.649E-18 -.169E+01 -.254E+02   0.000E+00 0.334E+00 0.502E+01   -.554E-08 0.126E-05 -.126E-05
   0.478E-13 -.136E+01 -.204E+02   0.544E-18 0.169E+01 0.254E+02   0.000E+00 -.334E+00 -.502E+01   -.753E-08 0.259E-05 0.124E-05
 -----------------------------------------------------------------------------------------------
   0.947E-13 0.803E-05 0.931E-05   -.105E-18 0.000E+00 0.000E+00   0.000E+00 -.555E-16 0.000E+00   -.131E-07 0.384E-05 -.212E-07
 
 
 POSITION                                       TOTAL-FORCE (eV/Angst)
 -----------------------------------------------------------------------------------
     12.50000     12.45000     12.42474         0.000000      0.003667      0.054968
     12.50000     12.50000     13.17526         0.000000     -0.003667     -0.054968
 -----------------------------------------------------------------------------------
    total drift:                               -0.000000      0.000012      0.000009


--------------------------------------------------------------------------------------------------------



  FREE ENERGIE OF THE ION-ELECTRON SYSTEM (eV)
  ---------------------------------------------------
  free  energy   TOTEN  =        -6.755594 eV

  energy  without entropy=       -6.766606  energy(sigma->0) =       -6.758347
 
 d Force = 0.6697568E-07[-0.367E-03, 0.367E-03]  d Energy =-0.2854465E-07 0.955E-07
 d Force = 0.0000000E+00[ 0.169E+00,-0.169E+00]  d Ewald  =-0.7105427E-14 0.711E-14


--------------------------------------------------------------------------------------------------------


    POTLOK:  cpu time    0.92: real time    0.92


--------------------------------------------------------------------------------------------------------


 stress matrix after NEB project (eV)
     -0.06712      0.00000      0.00000
      0.00000     -0.06727     -0.00377
      0.00000     -0.00377     -0.12717
  FORCES: max atom, RMS     0.055090    0.055090
  FORCE total and by dimension    0.077909    0.054968
  Stress total and by dimension    0.158838    0.127167
 Finite differences progress:
  Degree of freedom:   2/  6
  Displacement:        2/  2
  Total:               4/ 12
  LATTYP: Found a simple cubic cell.
 ALAT       =    25.0000000000
  
  Lattice vectors:
  
 A1 = (  25.0000000000,   0.0000000000,   0.0000000000)
 A2 = (   0.0000000000,  25.0000000000,   0.0000000000)
 A3 = (   0.0000000000,   0.0000000000,  25.0000000000)
 Subroutine PRICEL returns:
 Original cell was already a primitive cell.
 

Analysis of symmetry for initial positions (statically):

 Routine SETGRP: Setting up the symmetry group for a 
 simple cubic supercell.


 Subroutine GETGRP returns: Found 16 space group operations
 (whereof  8 operations were pure point group operations)
 out of a pool of 48 trial point group operations.


The static configuration has the point symmetry C_4v.
 The point group associated with its full space group is D_4h.

Analysis of symmetry for dynamics (positions and initial velocities):

 Subroutine DYNSYM returns: Found 16 space group operations
 (whereof  8 operations were pure point group operations)
 out of a pool of 16 trial space group operations
 (whereof  8 operations were pure point group operations)
 and found also     1 'primitive' translations


The dynamic configuration has the point symmetry C_4v.
 The point group associated with its full space group is D_4h.
 
 KPOINTS: k-points                                

Automatic generation of k-mesh.
 
 Subroutine IBZKPT returns following result:
 ===========================================
 
 Found      1 irreducible k-points:
 
 Following reciprocal coordinates:
            Coordinates               Weight
  0.000000  0.000000  0.000000      1.000000
 
 Following cartesian coordinates:
            Coordinates               Weight
  0.000000  0.000000  0.000000      1.000000
 
    WAVPRE:  cpu time    0.06: real time    0.06
    FEWALD:  cpu time    0.00: real time    0.00
    ORTHCH:  cpu time    0.15: real time    0.16
     LOOP+:  cpu time   44.48: real time   44.79


----------------------------------------- Iteration    6(   1)  ---------------------------------------


    POTLOK:  cpu time    0.89: real time    0.89
    SETDIJ:  cpu time    0.00: real time    0.00
     EDDAV:  cpu time    1.23: real time    1.25
       DOS:  cpu time    0.00: real time    0.00
    CHARGE:  cpu time    1.46: real time    1.47
    MIXING:  cpu time    0.02: real time    0.02
    --------------------------------------------
      LOOP:  cpu time    3.61: real time    3.64

 eigenvalue-minimisations  :    64
 total energy-change (2. order) : 0.4287483E-01  (-0.2019008E+00)
 number of electron       1.9999991 magnetization 
 augmentation part        0.0448048 magnetization 

 Broyden mixing:
  rms(total) = 0.54346E-01    rms(broyden)= 0.54275E-01
  rms(prec ) = 0.56083E-01
  weight for this iteration     100.00

 Free energy of the ion-electron system (eV)
  ---------------------------------------------------
  alpha Z        PSCENC =         0.00062366
  Ewald energy   TEWEN  =        17.28843940
  -1/2 Hartree   DENC   =       -32.63357183
  -exchange  EXHF       =         0.00000000
  -V(xc)+E(xc)   XCENC  =         5.34884479
  PAW double counting   =        23.76104899      -23.80999059
  entropy T*S    EENTRO =         0.01101221
  eigenvalues    EBANDS =       -21.64689813
  atomic energy  EATOM  =        24.96779543
  ---------------------------------------------------
  free energy    TOTEN  =        -6.71269607 eV

  energy without entropy =       -6.72370828  energy(sigma->0) =       -6.71544912


--------------------------------------------------------------------------------------------------------




----------------------------------------- Iteration    6(   2)  ---------------------------------------


    POTLOK:  cpu time    0.87: real time    0.87
    SETDIJ:  cpu time    0.00: real time    0.00
    EDDIAG:  cpu time    0.28: real time    0.28
  RMM-DIIS:  cpu time    0.86: real time    0.86
    ORTHCH:  cpu time    0.07: real time    0.07
       DOS:  cpu time    0.00: real time    0.00
    CHARGE:  cpu time    1.33: real time    1.33
    MIXING:  cpu time    0.02: real time    0.02
    --------------------------------------------
      LOOP:  cpu time    3.43: real time    3.44

 eigenvalue-minimisations  :    64
 total energy-change (2. order) : 0.3382937E-02  (-0.1060963E-02)
 number of electron       1.9999991 magnetization 
 augmentation part        0.0448065 magnetization 

 Broyden mixing:
  rms(total) = 0.33140E-01    rms(broyden)= 0.33134E-01
  rms(prec ) = 0.34224E-01
  weight for this iteration     100.00

 eigenvalues of (default mixing * dielectric matrix)
  average eigenvalue GAMMA=   2.5451
  2.5451

 Free energy of the ion-electron system (eV)
  ---------------------------------------------------
  alpha Z        PSCENC =         0.00062366
  Ewald energy   TEWEN  =        17.28843940
  -1/2 Hartree   DENC   =       -32.86616250
  -exchange  EXHF       =         0.00000000
  -V(xc)+E(xc)   XCENC  =         5.38153555
  PAW double counting   =        25.31579731      -25.36805077
  entropy T*S    EENTRO =         0.01101221
  eigenvalues    EBANDS =       -21.44030343
  atomic energy  EATOM  =        24.96779543
  ---------------------------------------------------
  free energy    TOTEN  =        -6.70931313 eV

  energy without entropy =       -6.72032534  energy(sigma->0) =       -6.71206619


--------------------------------------------------------------------------------------------------------




----------------------------------------- Iteration    6(   3)  ---------------------------------------


    POTLOK:  cpu time    0.86: real time    0.87
    SETDIJ:  cpu time    0.00: real time    0.00
    EDDIAG:  cpu time    0.28: real time    0.28
  RMM-DIIS:  cpu time    0.86: real time    0.86
    ORTHCH:  cpu time    0.07: real time    0.07
       DOS:  cpu time    0.00: real time    0.00
    CHARGE:  cpu time    1.40: real time    1.41
    MIXING:  cpu time    0.02: real time    0.02
    --------------------------------------------
      LOOP:  cpu time    3.50: real time    3.52

 eigenvalue-minimisations  :    64
 total energy-change (2. order) : 0.1829609E-02  (-0.6639901E-03)
 number of electron       1.9999991 magnetization 
 augmentation part        0.0445083 magnetization 

 Broyden mixing:
  rms(total) = 0.52374E-02    rms(broyden)= 0.52362E-02
  rms(prec ) = 0.54552E-02
  weight for this iteration     100.00

 eigenvalues of (default mixing * dielectric matrix)
  average eigenvalue GAMMA=   1.5316
  2.3927  0.6706

 Free energy of the ion-electron system (eV)
  ---------------------------------------------------
  alpha Z        PSCENC =         0.00062366
  Ewald energy   TEWEN  =        17.28843940
  -1/2 Hartree   DENC   =       -33.22710445
  -exchange  EXHF       =         0.00000000
  -V(xc)+E(xc)   XCENC  =         5.43180865
  PAW double counting   =        27.67041518      -27.72790319
  entropy T*S    EENTRO =         0.01101221
  eigenvalues    EBANDS =       -21.12257043
  atomic energy  EATOM  =        24.96779543
  ---------------------------------------------------
  free energy    TOTEN  =        -6.70748353 eV

  energy without entropy =       -6.71849573  energy(sigma->0) =       -6.71023658


--------------------------------------------------------------------------------------------------------




----------------------------------------- Iteration    6(   4)  ---------------------------------------


    POTLOK:  cpu time    0.87: real time    0.87
    SETDIJ:  cpu time    0.00: real time    0.00
    EDDIAG:  cpu time    0.28: real time    0.30
  RMM-DIIS:  cpu time    0.86: real time    0.86
    ORTHCH:  cpu time    0.07: real time    0.07
       DOS:  cpu time    0.00: real time    0.00
    CHARGE:  cpu time    1.33: real time    1.33
    MIXING:  cpu time    0.02: real time    0.02
    --------------------------------------------
      LOOP:  cpu time    3.44: real time    3.46

 eigenvalue-minimisations  :    64
 total energy-change (2. order) :-0.1034594E-04  (-0.4551284E-05)
 number of electron       1.9999991 magnetization 
 augmentation part        0.0445201 magnetization 

 Broyden mixing:
  rms(total) = 0.29832E-02    rms(broyden)= 0.29831E-02
  rms(prec ) = 0.31347E-02
  weight for this iteration     100.00

 eigenvalues of (default mixing * dielectric matrix)
  average eigenvalue GAMMA=   2.1209
  0.9822  2.5739  2.8066

 Free energy of the ion-electron system (eV)
  ---------------------------------------------------
  alpha Z        PSCENC =         0.00062366
  Ewald energy   TEWEN  =        17.28843940
  -1/2 Hartree   DENC   =       -33.19542086
  -exchange  EXHF       =         0.00000000
  -V(xc)+E(xc)   XCENC  =         5.42715608
  PAW double counting   =        27.50114525      -27.55819729
  entropy T*S    EENTRO =         0.01101221
  eigenvalues    EBANDS =       -21.15004775
  atomic energy  EATOM  =        24.96779543
  ---------------------------------------------------
  free energy    TOTEN  =        -6.70749387 eV

  energy without entropy =       -6.71850608  energy(sigma->0) =       -6.71024692


--------------------------------------------------------------------------------------------------------




----------------------------------------- Iteration    6(   5)  ---------------------------------------


    POTLOK:  cpu time    0.87: real time    0.87
    SETDIJ:  cpu time    0.00: real time    0.00
    EDDIAG:  cpu time    0.27: real time    0.28
  RMM-DIIS:  cpu time    0.88: real time    0.88
    ORTHCH:  cpu time    0.07: real time    0.07
       DOS:  cpu time    0.00: real time    0.00
    CHARGE:  cpu time    1.32: real time    1.34
    MIXING:  cpu time    0.06: real time    0.06
    --------------------------------------------
      LOOP:  cpu time    3.49: real time    3.51

 eigenvalue-minimisations  :    64
 total energy-change (2. order) :-0.5377131E-04  (-0.1183697E-04)
 number of electron       1.9999991 magnetization 
 augmentation part        0.0445600 magnetization 

 Broyden mixing:
  rms(total) = 0.14182E-02    rms(broyden)= 0.14180E-02
  rms(prec ) = 0.14822E-02
  weight for this iteration     100.00

 eigenvalues of (default mixing * dielectric matrix)
  average eigenvalue GAMMA=   1.6662
  2.2850  2.6862  0.9418  0.7519

 Free energy of the ion-electron system (eV)
  ---------------------------------------------------
  alpha Z        PSCENC =         0.00062366
  Ewald energy   TEWEN  =        17.28843940
  -1/2 Hartree   DENC   =       -33.15640794
  -exchange  EXHF       =         0.00000000
  -V(xc)+E(xc)   XCENC  =         5.42089284
  PAW double counting   =        27.39646105      -27.45308194
  entropy T*S    EENTRO =         0.01101221
  eigenvalues    EBANDS =       -21.18328235
  atomic energy  EATOM  =        24.96779543
  ---------------------------------------------------
  free energy    TOTEN  =        -6.70754764 eV

  energy without entropy =       -6.71855985  energy(sigma->0) =       -6.71030069


--------------------------------------------------------------------------------------------------------




----------------------------------------- Iteration    6(   6)  ---------------------------------------


    POTLOK:  cpu time    0.88: real time    0.88
    SETDIJ:  cpu time    0.00: real time    0.00
    EDDIAG:  cpu time    0.28: real time    0.28
  RMM-DIIS:  cpu time    0.86: real time    0.86
    ORTHCH:  cpu time    0.07: real time    0.07
       DOS:  cpu time    0.00: real time    0.00
    CHARGE:  cpu time    1.38: real time    1.38
    MIXING:  cpu time    0.02: real time    0.02
    --------------------------------------------
      LOOP:  cpu time    3.49: real time    3.51

 eigenvalue-minimisations  :    64
 total energy-change (2. order) :-0.3694531E-05  (-0.5057722E-06)
 number of electron       1.9999991 magnetization 
 augmentation part        0.0445523 magnetization 

 Broyden mixing:
  rms(total) = 0.51778E-03    rms(broyden)= 0.51778E-03
  rms(prec ) = 0.56187E-03
  weight for this iteration     100.00

 eigenvalues of (default mixing * dielectric matrix)
  average eigenvalue GAMMA=   2.0311
  3.3882  2.6025  2.0864  1.0672  1.0110

 Free energy of the ion-electron system (eV)
  ---------------------------------------------------
  alpha Z        PSCENC =         0.00062366
  Ewald energy   TEWEN  =        17.28843940
  -1/2 Hartree   DENC   =       -33.16779611
  -exchange  EXHF       =         0.00000000
  -V(xc)+E(xc)   XCENC  =         5.42253998
  PAW double counting   =        27.43738622      -27.49412935
  entropy T*S    EENTRO =         0.01101221
  eigenvalues    EBANDS =       -21.17342279
  atomic energy  EATOM  =        24.96779543
  ---------------------------------------------------
  free energy    TOTEN  =        -6.70755134 eV

  energy without entropy =       -6.71856354  energy(sigma->0) =       -6.71030439


--------------------------------------------------------------------------------------------------------




----------------------------------------- Iteration    6(   7)  ---------------------------------------


    POTLOK:  cpu time    0.87: real time    0.87
    SETDIJ:  cpu time    0.00: real time    0.00
    EDDIAG:  cpu time    0.28: real time    0.28
  RMM-DIIS:  cpu time    0.88: real time    0.88
    ORTHCH:  cpu time    0.07: real time    0.07
       DOS:  cpu time    0.00: real time    0.00
    CHARGE:  cpu time    1.33: real time    1.33
    MIXING:  cpu time    0.03: real time    0.03
    --------------------------------------------
      LOOP:  cpu time    3.46: real time    3.47

 eigenvalue-minimisations  :    64
 total energy-change (2. order) :-0.3485614E-04  (-0.8268702E-06)
 number of electron       1.9999991 magnetization 
 augmentation part        0.0445431 magnetization 

 Broyden mixing:
  rms(total) = 0.21491E-03    rms(broyden)= 0.21484E-03
  rms(prec ) = 0.23322E-03
  weight for this iteration     100.00

 eigenvalues of (default mixing * dielectric matrix)
  average eigenvalue GAMMA=   1.9493
  3.4107  2.6502  1.9303  0.9905  1.3571  1.3571

 Free energy of the ion-electron system (eV)
  ---------------------------------------------------
  alpha Z        PSCENC =         0.00062366
  Ewald energy   TEWEN  =        17.28843940
  -1/2 Hartree   DENC   =       -33.18064470
  -exchange  EXHF       =         0.00000000
  -V(xc)+E(xc)   XCENC  =         5.42413338
  PAW double counting   =        27.45357006      -27.51037816
  entropy T*S    EENTRO =         0.01101221
  eigenvalues    EBANDS =       -21.16213748
  atomic energy  EATOM  =        24.96779543
  ---------------------------------------------------
  free energy    TOTEN  =        -6.70758619 eV

  energy without entropy =       -6.71859840  energy(sigma->0) =       -6.71033925


--------------------------------------------------------------------------------------------------------




----------------------------------------- Iteration    6(   8)  ---------------------------------------


    POTLOK:  cpu time    0.87: real time    0.87
    SETDIJ:  cpu time    0.00: real time    0.00
    EDDIAG:  cpu time    0.27: real time    0.28
  RMM-DIIS:  cpu time    0.86: real time    0.86
    ORTHCH:  cpu time    0.07: real time    0.07
       DOS:  cpu time    0.00: real time    0.00
    CHARGE:  cpu time    1.32: real time    1.33
    MIXING:  cpu time    0.03: real time    0.03
    --------------------------------------------
      LOOP:  cpu time    3.43: real time    3.44

 eigenvalue-minimisations  :    64
 total energy-change (2. order) :-0.9049777E-05  (-0.2736502E-07)
 number of electron       1.9999991 magnetization 
 augmentation part        0.0445436 magnetization 

 Broyden mixing:
  rms(total) = 0.90035E-04    rms(broyden)= 0.90030E-04
  rms(prec ) = 0.10713E-03
  weight for this iteration     100.00

 eigenvalues of (default mixing * dielectric matrix)
  average eigenvalue GAMMA=   2.1654
  4.5750  3.0122  2.5919  1.7997  1.2220  0.9939  0.9632

 Free energy of the ion-electron system (eV)
  ---------------------------------------------------
  alpha Z        PSCENC =         0.00062366
  Ewald energy   TEWEN  =        17.28843940
  -1/2 Hartree   DENC   =       -33.17960813
  -exchange  EXHF       =         0.00000000
  -V(xc)+E(xc)   XCENC  =         5.42391808
  PAW double counting   =        27.44902274      -27.50581564
  entropy T*S    EENTRO =         0.01101221
  eigenvalues    EBANDS =       -21.16298300
  atomic energy  EATOM  =        24.96779543
  ---------------------------------------------------
  free energy    TOTEN  =        -6.70759524 eV

  energy without entropy =       -6.71860745  energy(sigma->0) =       -6.71034829


--------------------------------------------------------------------------------------------------------




----------------------------------------- Iteration    6(   9)  ---------------------------------------


    POTLOK:  cpu time    0.89: real time    0.89
    SETDIJ:  cpu time    0.00: real time    0.00
    EDDIAG:  cpu time    0.29: real time    0.30
  RMM-DIIS:  cpu time    0.86: real time    0.86
    ORTHCH:  cpu time    0.07: real time    0.07
       DOS:  cpu time    0.00: real time    0.00
    CHARGE:  cpu time    1.33: real time    1.33
    MIXING:  cpu time    0.03: real time    0.03
    --------------------------------------------
      LOOP:  cpu time    3.48: real time    3.49

 eigenvalue-minimisations  :    64
 total energy-change (2. order) :-0.1620252E-04  (-0.8573380E-07)
 number of electron       1.9999991 magnetization 
 augmentation part        0.0445445 magnetization 

 Broyden mixing:
  rms(total) = 0.44059E-04    rms(broyden)= 0.44058E-04
  rms(prec ) = 0.50946E-04
  weight for this iteration     100.00

 eigenvalues of (default mixing * dielectric matrix)
  average eigenvalue GAMMA=   2.3197
  5.5148  3.0218  2.6180  2.4127  1.6943  1.3004  0.9979  0.9979

 Free energy of the ion-electron system (eV)
  ---------------------------------------------------
  alpha Z        PSCENC =         0.00062366
  Ewald energy   TEWEN  =        17.28843940
  -1/2 Hartree   DENC   =       -33.17925544
  -exchange  EXHF       =         0.00000000
  -V(xc)+E(xc)   XCENC  =         5.42373683
  PAW double counting   =        27.44824265      -27.50502784
  entropy T*S    EENTRO =         0.01101221
  eigenvalues    EBANDS =       -21.16317835
  atomic energy  EATOM  =        24.96779543
  ---------------------------------------------------
  free energy    TOTEN  =        -6.70761145 eV

  energy without entropy =       -6.71862365  energy(sigma->0) =       -6.71036450


--------------------------------------------------------------------------------------------------------




----------------------------------------- Iteration    6(  10)  ---------------------------------------


    POTLOK:  cpu time    0.88: real time    0.89
    SETDIJ:  cpu time    0.00: real time    0.00
    EDDIAG:  cpu time    0.28: real time    0.28
  RMM-DIIS:  cpu time    0.85: real time    0.86
    ORTHCH:  cpu time    0.07: real time    0.07
       DOS:  cpu time    0.00: real time    0.00
    CHARGE:  cpu time    1.33: real time    1.33
    MIXING:  cpu time    0.03: real time    0.03
    --------------------------------------------
      LOOP:  cpu time    3.45: real time    3.46

 eigenvalue-minimisations  :    63
 total energy-change (2. order) :-0.7243963E-05  (-0.1424077E-07)
 number of electron       1.9999991 magnetization 
 augmentation part        0.0445440 magnetization 

 Broyden mixing:
  rms(total) = 0.18341E-04    rms(broyden)= 0.18339E-04
  rms(prec ) = 0.22525E-04
  weight for this iteration     100.00

 eigenvalues of (default mixing * dielectric matrix)
  average eigenvalue GAMMA=   2.4371
  6.6233  3.8267  2.8367  2.5756  1.7572  1.2141  1.0032  1.0032  1.0940

 Free energy of the ion-electron system (eV)
  ---------------------------------------------------
  alpha Z        PSCENC =         0.00062366
  Ewald energy   TEWEN  =        17.28843940
  -1/2 Hartree   DENC   =       -33.18030609
  -exchange  EXHF       =         0.00000000
  -V(xc)+E(xc)   XCENC  =         5.42384774
  PAW double counting   =        27.44849601      -27.50528473
  entropy T*S    EENTRO =         0.01101221
  eigenvalues    EBANDS =       -21.16224232
  atomic energy  EATOM  =        24.96779543
  ---------------------------------------------------
  free energy    TOTEN  =        -6.70761869 eV

  energy without entropy =       -6.71863090  energy(sigma->0) =       -6.71037174


--------------------------------------------------------------------------------------------------------




----------------------------------------- Iteration    6(  11)  ---------------------------------------


    POTLOK:  cpu time    0.88: real time    0.88
    SETDIJ:  cpu time    0.00: real time    0.00
    EDDIAG:  cpu time    0.28: real time    0.28
  RMM-DIIS:  cpu time    0.85: real time    0.86
    ORTHCH:  cpu time    0.07: real time    0.07
       DOS:  cpu time    0.00: real time    0.00
    CHARGE:  cpu time    1.35: real time    1.35
    MIXING:  cpu time    0.03: real time    0.03
    --------------------------------------------
      LOOP:  cpu time    3.46: real time    3.47

 eigenvalue-minimisations  :    63
 total energy-change (2. order) :-0.3535252E-05  (-0.5275187E-08)
 number of electron       1.9999991 magnetization 
 augmentation part        0.0445439 magnetization 

 Broyden mixing:
  rms(total) = 0.10814E-04    rms(broyden)= 0.10813E-04
  rms(prec ) = 0.12890E-04
  weight for this iteration     100.00

 eigenvalues of (default mixing * dielectric matrix)
  average eigenvalue GAMMA=   2.7037
  7.8790  4.6472  3.2189  2.7302  2.5571  1.7068  1.2957  1.0000  1.0000  1.0020

 Free energy of the ion-electron system (eV)
  ---------------------------------------------------
  alpha Z        PSCENC =         0.00062366
  Ewald energy   TEWEN  =        17.28843940
  -1/2 Hartree   DENC   =       -33.18022274
  -exchange  EXHF       =         0.00000000
  -V(xc)+E(xc)   XCENC  =         5.42381886
  PAW double counting   =        27.44745498      -27.50424135
  entropy T*S    EENTRO =         0.01101221
  eigenvalues    EBANDS =       -21.16230268
  atomic energy  EATOM  =        24.96779543
  ---------------------------------------------------
  free energy    TOTEN  =        -6.70762222 eV

  energy without entropy =       -6.71863443  energy(sigma->0) =       -6.71037528


--------------------------------------------------------------------------------------------------------




----------------------------------------- Iteration    6(  12)  ---------------------------------------


    POTLOK:  cpu time    0.90: real time    0.90
    SETDIJ:  cpu time    0.00: real time    0.00
    EDDIAG:  cpu time    0.32: real time    0.33
  RMM-DIIS:  cpu time    0.86: real time    0.86
    ORTHCH:  cpu time    0.07: real time    0.07
       DOS:  cpu time    0.00: real time    0.00
    CHARGE:  cpu time    1.40: real time    1.42
    MIXING:  cpu time    0.03: real time    0.03
    --------------------------------------------
      LOOP:  cpu time    3.59: real time    3.62

 eigenvalue-minimisations  :    63
 total energy-change (2. order) :-0.2271153E-05  (-0.2484256E-08)
 number of electron       1.9999991 magnetization 
 augmentation part        0.0445440 magnetization 

 Broyden mixing:
  rms(total) = 0.37652E-05    rms(broyden)= 0.37651E-05
  rms(prec ) = 0.45747E-05
  weight for this iteration     100.00

 eigenvalues of (default mixing * dielectric matrix)
  average eigenvalue GAMMA=   2.6422
  8.2013  4.8480  3.3329  2.7640  2.5625  1.6596  1.4051  1.3015  0.9957  0.9957
  0.9974

 Free energy of the ion-electron system (eV)
  ---------------------------------------------------
  alpha Z        PSCENC =         0.00062366
  Ewald energy   TEWEN  =        17.28843940
  -1/2 Hartree   DENC   =       -33.18006372
  -exchange  EXHF       =         0.00000000
  -V(xc)+E(xc)   XCENC  =         5.42378549
  PAW double counting   =        27.44769335      -27.50447955
  entropy T*S    EENTRO =         0.01101221
  eigenvalues    EBANDS =       -21.16243075
  atomic energy  EATOM  =        24.96779543
  ---------------------------------------------------
  free energy    TOTEN  =        -6.70762450 eV

  energy without entropy =       -6.71863670  energy(sigma->0) =       -6.71037755


--------------------------------------------------------------------------------------------------------




----------------------------------------- Iteration    6(  13)  ---------------------------------------


    POTLOK:  cpu time    0.88: real time    0.88
    SETDIJ:  cpu time    0.00: real time    0.00
    EDDIAG:  cpu time    0.28: real time    0.28
  RMM-DIIS:  cpu time    0.85: real time    0.85
    ORTHCH:  cpu time    0.07: real time    0.07
       DOS:  cpu time    0.00: real time    0.00
    --------------------------------------------
      LOOP:  cpu time    2.08: real time    2.09

 eigenvalue-minimisations  :    62
 total energy-change (2. order) :-0.4161354E-06  ( 0.0000000E+00)
 number of electron       1.9999991 magnetization 
 augmentation part        0.0445440 magnetization 

 Free energy of the ion-electron system (eV)
  ---------------------------------------------------
  alpha Z        PSCENC =         0.00062366
  Ewald energy   TEWEN  =        17.28843940
  -1/2 Hartree   DENC   =       -33.18010298
  -exchange  EXHF       =         0.00000000
  -V(xc)+E(xc)   XCENC  =         5.42378892
  PAW double counting   =        27.44780898      -27.50459550
  entropy T*S    EENTRO =         0.01101221
  eigenvalues    EBANDS =       -21.16239503
  atomic energy  EATOM  =        24.96779543
  ---------------------------------------------------
  free energy    TOTEN  =        -6.70762491 eV

  energy without entropy =       -6.71863712  energy(sigma->0) =       -6.71037796


--------------------------------------------------------------------------------------------------------




 average (electrostatic) potential at core
  the test charge radii are     0.5201
  (the norm of the test charge is              1.0000)
       1 -41.9996       2 -41.9999
 
 
 
 E-fermi : -10.4546     XC(G=0):  -0.0412     alpha+bet : -0.0035


 k-point   1 :       0.0000    0.0000    0.0000
  band No.  band energies     occupation 
      1     -10.5812      2.00000
      2      -0.0366      0.00000
      3       0.1548      0.00000
      4       0.1743      0.00000
      5       0.2090      0.00000
      6       0.2089      0.00000
      7       0.2227      0.00000
      8       0.2233      0.00000
      9       0.3286      0.00000
     10       0.3914      0.00000
     11       0.4209      0.00000
     12       0.4214      0.00000
     13       0.4581      0.00000
     14       0.4593      0.00000
     15       0.4601      0.00000
     16       0.4619      0.00000
     17       0.4628      0.00000
     18       0.4652      0.00000
     19       0.4657      0.00000
     20       0.4661      0.00000
     21       0.5775      0.00000
     22       0.6649      0.00000
     23       0.6649      0.00000
     24       0.6706      0.00000
     25       0.6976      0.00000
     26       0.7018      0.00000
     27       0.7040      0.00000
     28       0.7042      0.00000
     29       0.7860      0.00000
     30       0.8822      0.00000
     31       0.8824      0.00000
     32       0.9193      0.00000


--------------------------------------------------------------------------------------------------------


 soft charge-density along one line, spin component           1
         0         1         2         3         4         5         6         7         8         9
 total charge-density along one line
 
 pseudopotential strength for first ion, spin component:           1
 -2.347  -4.045   0.000  -0.002  -0.000
 -4.045  -6.887   0.000  -0.007  -0.000
  0.000   0.000  -0.339   0.000   0.000
 -0.002  -0.007   0.000  -0.331   0.000
 -0.000  -0.000   0.000   0.000  -0.339
 total augmentation occupancy for first ion, spin component:           1
  3.067  -0.429  -0.000   0.432   0.000
 -0.429   0.060  -0.000  -0.061   0.000
 -0.000  -0.000   0.000   0.000   0.000
  0.432  -0.061   0.000   0.061   0.000
  0.000   0.000   0.000   0.000   0.000


------------------------ aborting loop because EDIFF is reached ----------------------------------------


    CHARGE:  cpu time    1.33: real time    1.34
    FORLOC:  cpu time    0.02: real time    0.02
    FORNL :  cpu time    0.28: real time    0.28
    STRESS:  cpu time    0.89: real time    0.89
    FORHAR:  cpu time    0.22: real time    0.22
    MIXING:  cpu time    0.03: real time    0.03

  Number of pair interactions contributing to Grimme's potential:      19
  Estimated vdW energy (eV):  -0.00002

  FORCE on cell =-STRESS in cart. coord.  units (eV):
  Direction    XX          YY          ZZ          XY          YZ          ZX
  --------------------------------------------------------------------------------------
  Alpha Z     0.00062     0.00062     0.00062
  Ewald      -1.08999    -1.08999    19.46840    -0.00000    -0.00000    -0.00000
  Hartree    10.36266    10.36266    12.45481    -0.00000    -0.00000    -0.00000
  E(xc)      -6.11575    -6.11575    -5.90082    -0.00000     0.00000    -0.00000
  Local     -19.41202   -19.41202   -32.70787     0.00000    -0.00000     0.00000
  n-local    -5.68738    -5.68738    -6.80811    -0.00000    -0.00000     0.00000
  augment     0.29765     0.29765     0.20117     0.00000     0.00000     0.00000
  Kinetic    21.57422    21.57422    14.62759     0.00000    -0.00000     0.00000
  Fock        0.00000     0.00000     0.00000     0.00000     0.00000     0.00000
  -------------------------------------------------------------------------------------
  Total      -0.06999    -0.06999     1.33581     0.00000     0.00000     0.00000
  in kB      -0.00718    -0.00718     0.13697     0.00000     0.00000     0.00000
  external pressure =        0.04 kB  Pullay stress =        0.00 kB


 VOLUME and BASIS-vectors are now :
 -----------------------------------------------------------------------------
  energy-cutoff  :      450.00
  volume of cell :    15625.00
      direct lattice vectors                 reciprocal lattice vectors
    25.000000000  0.000000000  0.000000000     0.040000000  0.000000000  0.000000000
     0.000000000 25.000000000  0.000000000     0.000000000  0.040000000  0.000000000
     0.000000000  0.000000000 25.000000000     0.000000000  0.000000000  0.040000000

  length of vectors
    25.000000000 25.000000000 25.000000000     0.040000000  0.040000000  0.040000000


 FORCES acting on ions
    electron-ion (+dipol)            ewald-force                    non-local-force                 convergence-correction
 -----------------------------------------------------------------------------------------------
   0.501E-13 0.968E-13 0.215E+02   -.144E-18 -.156E-18 -.293E+02   0.000E+00 -.827E-24 0.580E+01   -.354E-11 -.620E-06 -.528E-05
   0.512E-13 0.893E-13 -.215E+02   0.386E-19 0.127E-18 0.293E+02   0.000E+00 -.384E-23 -.580E+01   -.452E-11 -.116E-05 0.368E-05
 -----------------------------------------------------------------------------------------------
   0.101E-12 0.186E-12 -.149E-04   -.105E-18 -.291E-19 0.000E+00   0.000E+00 -.467E-23 0.000E+00   -.806E-11 -.178E-05 -.160E-05
 
 
 POSITION                                       TOTAL-FORCE (eV/Angst)
 -----------------------------------------------------------------------------------
     12.50000     12.50000     12.47474         0.000000     -0.000000     -2.031157
     12.50000     12.50000     13.17526         0.000000      0.000000      2.031157
 -----------------------------------------------------------------------------------
    total drift:                               -0.000000     -0.000002     -0.000017


--------------------------------------------------------------------------------------------------------



  FREE ENERGIE OF THE ION-ELECTRON SYSTEM (eV)
  ---------------------------------------------------
  free  energy   TOTEN  =        -6.707646 eV

  energy  without entropy=       -6.718658  energy(sigma->0) =       -6.710399
 
 d Force =-0.4931307E-01[-0.102E+00, 0.293E-02]  d Energy =-0.4794816E-01-0.136E-02
 d Force =-0.1410636E+01[-0.147E+01,-0.135E+01]  d Ewald  =-0.1411753E+01 0.112E-02


--------------------------------------------------------------------------------------------------------


    POTLOK:  cpu time    0.94: real time    0.94


--------------------------------------------------------------------------------------------------------


 stress matrix after NEB project (eV)
     -0.06999      0.00000      0.00000
      0.00000     -0.06999      0.00000
      0.00000      0.00000      1.33581
  FORCES: max atom, RMS     2.031157    2.031157
  FORCE total and by dimension    2.872490    2.031157
  Stress total and by dimension    1.339473    1.335811
 Finite differences progress:
  Degree of freedom:   3/  6
  Displacement:        1/  2
  Total:               5/ 12
  LATTYP: Found a simple cubic cell.
 ALAT       =    25.0000000000
  
  Lattice vectors:
  
 A1 = (  25.0000000000,   0.0000000000,   0.0000000000)
 A2 = (   0.0000000000,  25.0000000000,   0.0000000000)
 A3 = (   0.0000000000,   0.0000000000,  25.0000000000)
 Subroutine PRICEL returns:
 Original cell was already a primitive cell.
 

Analysis of symmetry for initial positions (statically):

 Routine SETGRP: Setting up the symmetry group for a 
 simple cubic supercell.


 Subroutine GETGRP returns: Found 16 space group operations
 (whereof  8 operations were pure point group operations)
 out of a pool of 48 trial point group operations.


The static configuration has the point symmetry C_4v.
 The point group associated with its full space group is D_4h.

Analysis of symmetry for dynamics (positions and initial velocities):

 Subroutine DYNSYM returns: Found 16 space group operations
 (whereof  8 operations were pure point group operations)
 out of a pool of 16 trial space group operations
 (whereof  8 operations were pure point group operations)
 and found also     1 'primitive' translations


The dynamic configuration has the point symmetry C_4v.
 The point group associated with its full space group is D_4h.
 
 KPOINTS: k-points                                

Automatic generation of k-mesh.
 
 Subroutine IBZKPT returns following result:
 ===========================================
 
 Found      1 irreducible k-points:
 
 Following reciprocal coordinates:
            Coordinates               Weight
  0.000000  0.000000  0.000000      1.000000
 
 Following cartesian coordinates:
            Coordinates               Weight
  0.000000  0.000000  0.000000      1.000000
 
    WAVPRE:  cpu time    0.06: real time    0.06
    FEWALD:  cpu time    0.00: real time    0.00
    ORTHCH:  cpu time    0.16: real time    0.16
     LOOP+:  cpu time   47.98: real time   48.22


----------------------------------------- Iteration    7(   1)  ---------------------------------------


    POTLOK:  cpu time    0.91: real time    0.91
    SETDIJ:  cpu time    0.00: real time    0.00
     EDDAV:  cpu time    1.27: real time    1.30
       DOS:  cpu time    0.00: real time    0.00
    CHARGE:  cpu time    1.47: real time    1.48
    MIXING:  cpu time    0.02: real time    0.02
    --------------------------------------------
      LOOP:  cpu time    3.68: real time    3.72

 eigenvalue-minimisations  :    64
 total energy-change (2. order) :-0.2857697E-01  (-0.4160959E+00)
 number of electron       1.9999993 magnetization 
 augmentation part        0.0382834 magnetization 

 Broyden mixing:
  rms(total) = 0.94178E-01    rms(broyden)= 0.94091E-01
  rms(prec ) = 0.97413E-01
  weight for this iteration     100.00

 Free energy of the ion-electron system (eV)
  ---------------------------------------------------
  alpha Z        PSCENC =         0.00062366
  Ewald energy   TEWEN  =        14.72088092
  -1/2 Hartree   DENC   =       -32.30529089
  -exchange  EXHF       =         0.00000000
  -V(xc)+E(xc)   XCENC  =         5.31751322
  PAW double counting   =        27.44765483      -27.50444115
  entropy T*S    EENTRO =         0.01101221
  eigenvalues    EBANDS =       -19.39194969
  atomic energy  EATOM  =        24.96779543
  ---------------------------------------------------
  free energy    TOTEN  =        -6.73620146 eV

  energy without entropy =       -6.74721367  energy(sigma->0) =       -6.73895451


--------------------------------------------------------------------------------------------------------




----------------------------------------- Iteration    7(   2)  ---------------------------------------


    POTLOK:  cpu time    0.89: real time    0.89
    SETDIJ:  cpu time    0.00: real time    0.00
    EDDIAG:  cpu time    0.28: real time    0.28
  RMM-DIIS:  cpu time    0.86: real time    0.86
    ORTHCH:  cpu time    0.07: real time    0.07
       DOS:  cpu time    0.00: real time    0.00
    CHARGE:  cpu time    1.39: real time    1.39
    MIXING:  cpu time    0.02: real time    0.02
    --------------------------------------------
      LOOP:  cpu time    3.52: real time    3.54

 eigenvalue-minimisations  :    64
 total energy-change (2. order) : 0.1332041E-01  (-0.2505493E-02)
 number of electron       1.9999993 magnetization 
 augmentation part        0.0387101 magnetization 

 Broyden mixing:
  rms(total) = 0.51566E-01    rms(broyden)= 0.51561E-01
  rms(prec ) = 0.53376E-01
  weight for this iteration     100.00

 eigenvalues of (default mixing * dielectric matrix)
  average eigenvalue GAMMA=   2.1715
  2.1715

 Free energy of the ion-electron system (eV)
  ---------------------------------------------------
  alpha Z        PSCENC =         0.00062366
  Ewald energy   TEWEN  =        14.72088092
  -1/2 Hartree   DENC   =       -31.86128945
  -exchange  EXHF       =         0.00000000
  -V(xc)+E(xc)   XCENC  =         5.25425870
  PAW double counting   =        24.50155556      -24.55194719
  entropy T*S    EENTRO =         0.01101221
  eigenvalues    EBANDS =       -19.76577089
  atomic energy  EATOM  =        24.96779543
  ---------------------------------------------------
  free energy    TOTEN  =        -6.72288105 eV

  energy without entropy =       -6.73389326  energy(sigma->0) =       -6.72563410


--------------------------------------------------------------------------------------------------------




----------------------------------------- Iteration    7(   3)  ---------------------------------------


    POTLOK:  cpu time    0.89: real time    0.90
    SETDIJ:  cpu time    0.00: real time    0.00
    EDDIAG:  cpu time    0.28: real time    0.28
  RMM-DIIS:  cpu time    0.86: real time    0.86
    ORTHCH:  cpu time    0.07: real time    0.08
       DOS:  cpu time    0.00: real time    0.00
    CHARGE:  cpu time    1.35: real time    1.35
    MIXING:  cpu time    0.02: real time    0.02
    --------------------------------------------
      LOOP:  cpu time    3.48: real time    3.50

 eigenvalue-minimisations  :    64
 total energy-change (2. order) : 0.6002321E-02  (-0.1547157E-02)
 number of electron       1.9999993 magnetization 
 augmentation part        0.0391189 magnetization 

 Broyden mixing:
  rms(total) = 0.59614E-02    rms(broyden)= 0.59584E-02
  rms(prec ) = 0.62412E-02
  weight for this iteration     100.00

 eigenvalues of (default mixing * dielectric matrix)
  average eigenvalue GAMMA=   2.1145
  2.4703  1.7588

 Free energy of the ion-electron system (eV)
  ---------------------------------------------------
  alpha Z        PSCENC =         0.00062366
  Ewald energy   TEWEN  =        14.72088092
  -1/2 Hartree   DENC   =       -31.36466979
  -exchange  EXHF       =         0.00000000
  -V(xc)+E(xc)   XCENC  =         5.18346362
  PAW double counting   =        21.04965032      -21.09301621
  entropy T*S    EENTRO =         0.01101221
  eigenvalues    EBANDS =       -20.19261888
  atomic energy  EATOM  =        24.96779543
  ---------------------------------------------------
  free energy    TOTEN  =        -6.71687873 eV

  energy without entropy =       -6.72789094  energy(sigma->0) =       -6.71963178


--------------------------------------------------------------------------------------------------------




----------------------------------------- Iteration    7(   4)  ---------------------------------------


    POTLOK:  cpu time    0.91: real time    0.91
    SETDIJ:  cpu time    0.00: real time    0.00
    EDDIAG:  cpu time    0.28: real time    0.28
  RMM-DIIS:  cpu time    0.87: real time    0.87
    ORTHCH:  cpu time    0.07: real time    0.07
       DOS:  cpu time    0.00: real time    0.00
    CHARGE:  cpu time    1.33: real time    1.36
    MIXING:  cpu time    0.02: real time    0.02
    --------------------------------------------
      LOOP:  cpu time    3.48: real time    3.52

 eigenvalue-minimisations  :    64
 total energy-change (2. order) :-0.9344353E-04  (-0.7704587E-04)
 number of electron       1.9999993 magnetization 
 augmentation part        0.0391432 magnetization 

 Broyden mixing:
  rms(total) = 0.19422E-02    rms(broyden)= 0.19416E-02
  rms(prec ) = 0.20827E-02
  weight for this iteration     100.00

 eigenvalues of (default mixing * dielectric matrix)
  average eigenvalue GAMMA=   2.0134
  1.0460  2.7180  2.2763

 Free energy of the ion-electron system (eV)
  ---------------------------------------------------
  alpha Z        PSCENC =         0.00062366
  Ewald energy   TEWEN  =        14.72088092
  -1/2 Hartree   DENC   =       -31.35384943
  -exchange  EXHF       =         0.00000000
  -V(xc)+E(xc)   XCENC  =         5.18256524
  PAW double counting   =        20.74011347      -20.78313617
  entropy T*S    EENTRO =         0.01101221
  eigenvalues    EBANDS =       -20.20297751
  atomic energy  EATOM  =        24.96779543
  ---------------------------------------------------
  free energy    TOTEN  =        -6.71697217 eV

  energy without entropy =       -6.72798438  energy(sigma->0) =       -6.71972523


--------------------------------------------------------------------------------------------------------




----------------------------------------- Iteration    7(   5)  ---------------------------------------


    POTLOK:  cpu time    0.91: real time    0.91
    SETDIJ:  cpu time    0.00: real time    0.00
    EDDIAG:  cpu time    0.28: real time    0.28
  RMM-DIIS:  cpu time    0.86: real time    0.86
    ORTHCH:  cpu time    0.07: real time    0.07
       DOS:  cpu time    0.00: real time    0.00
    CHARGE:  cpu time    1.32: real time    1.33
    MIXING:  cpu time    0.02: real time    0.02
    --------------------------------------------
      LOOP:  cpu time    3.47: real time    3.48

 eigenvalue-minimisations  :    64
 total energy-change (2. order) :-0.4411194E-04  (-0.1074585E-04)
 number of electron       1.9999993 magnetization 
 augmentation part        0.0391315 magnetization 

 Broyden mixing:
  rms(total) = 0.38350E-03    rms(broyden)= 0.38345E-03
  rms(prec ) = 0.49557E-03
  weight for this iteration     100.00

 eigenvalues of (default mixing * dielectric matrix)
  average eigenvalue GAMMA=   2.2643
  1.0116  2.9541  2.5458  2.5458

 Free energy of the ion-electron system (eV)
  ---------------------------------------------------
  alpha Z        PSCENC =         0.00062366
  Ewald energy   TEWEN  =        14.72088092
  -1/2 Hartree   DENC   =       -31.36933899
  -exchange  EXHF       =         0.00000000
  -V(xc)+E(xc)   XCENC  =         5.18519764
  PAW double counting   =        20.76985346      -20.81304864
  entropy T*S    EENTRO =         0.01101221
  eigenvalues    EBANDS =       -20.18999197
  atomic energy  EATOM  =        24.96779543
  ---------------------------------------------------
  free energy    TOTEN  =        -6.71701629 eV

  energy without entropy =       -6.72802849  energy(sigma->0) =       -6.71976934


--------------------------------------------------------------------------------------------------------




----------------------------------------- Iteration    7(   6)  ---------------------------------------


    POTLOK:  cpu time    0.89: real time    0.89
    SETDIJ:  cpu time    0.00: real time    0.00
    EDDIAG:  cpu time    0.28: real time    0.30
  RMM-DIIS:  cpu time    0.84: real time    0.87
    ORTHCH:  cpu time    0.07: real time    0.07
       DOS:  cpu time    0.00: real time    0.00
    CHARGE:  cpu time    1.36: real time    1.36
    MIXING:  cpu time    0.03: real time    0.03
    --------------------------------------------
      LOOP:  cpu time    3.47: real time    3.53

 eigenvalue-minimisations  :    64
 total energy-change (2. order) :-0.3303217E-04  (-0.1931748E-05)
 number of electron       1.9999993 magnetization 
 augmentation part        0.0391364 magnetization 

 Broyden mixing:
  rms(total) = 0.29977E-03    rms(broyden)= 0.29976E-03
  rms(prec ) = 0.34251E-03
  weight for this iteration     100.00

 eigenvalues of (default mixing * dielectric matrix)
  average eigenvalue GAMMA=   2.0800
  3.4860  2.6393  2.1605  1.0117  1.1027

 Free energy of the ion-electron system (eV)
  ---------------------------------------------------
  alpha Z        PSCENC =         0.00062366
  Ewald energy   TEWEN  =        14.72088092
  -1/2 Hartree   DENC   =       -31.35616465
  -exchange  EXHF       =         0.00000000
  -V(xc)+E(xc)   XCENC  =         5.18369259
  PAW double counting   =        20.75559699      -20.79874234
  entropy T*S    EENTRO =         0.01101221
  eigenvalues    EBANDS =       -20.20174413
  atomic energy  EATOM  =        24.96779543
  ---------------------------------------------------
  free energy    TOTEN  =        -6.71704932 eV

  energy without entropy =       -6.72806153  energy(sigma->0) =       -6.71980237


--------------------------------------------------------------------------------------------------------




----------------------------------------- Iteration    7(   7)  ---------------------------------------


    POTLOK:  cpu time    0.94: real time    0.95
    SETDIJ:  cpu time    0.00: real time    0.00
    EDDIAG:  cpu time    0.28: real time    0.28
  RMM-DIIS:  cpu time    0.86: real time    0.86
    ORTHCH:  cpu time    0.09: real time    0.10
       DOS:  cpu time    0.00: real time    0.00
    CHARGE:  cpu time    1.33: real time    1.34
    MIXING:  cpu time    0.03: real time    0.03
    --------------------------------------------
      LOOP:  cpu time    3.53: real time    3.56

 eigenvalue-minimisations  :    64
 total energy-change (2. order) :-0.5600324E-05  (-0.1753276E-06)
 number of electron       1.9999993 magnetization 
 augmentation part        0.0391356 magnetization 

 Broyden mixing:
  rms(total) = 0.78278E-04    rms(broyden)= 0.78277E-04
  rms(prec ) = 0.13140E-03
  weight for this iteration     100.00

 eigenvalues of (default mixing * dielectric matrix)
  average eigenvalue GAMMA=   2.4425
  4.7421  3.0028  2.6346  2.2569  1.0094  1.0094

 Free energy of the ion-electron system (eV)
  ---------------------------------------------------
  alpha Z        PSCENC =         0.00062366
  Ewald energy   TEWEN  =        14.72088092
  -1/2 Hartree   DENC   =       -31.35738906
  -exchange  EXHF       =         0.00000000
  -V(xc)+E(xc)   XCENC  =         5.18401722
  PAW double counting   =        20.76973704      -20.81292099
  entropy T*S    EENTRO =         0.01101221
  eigenvalues    EBANDS =       -20.20081133
  atomic energy  EATOM  =        24.96779543
  ---------------------------------------------------
  free energy    TOTEN  =        -6.71705492 eV

  energy without entropy =       -6.72806713  energy(sigma->0) =       -6.71980797


--------------------------------------------------------------------------------------------------------




----------------------------------------- Iteration    7(   8)  ---------------------------------------


    POTLOK:  cpu time    0.89: real time    0.89
    SETDIJ:  cpu time    0.00: real time    0.00
    EDDIAG:  cpu time    0.28: real time    0.29
  RMM-DIIS:  cpu time    0.87: real time    0.87
    ORTHCH:  cpu time    0.07: real time    0.07
       DOS:  cpu time    0.00: real time    0.00
    CHARGE:  cpu time    1.33: real time    1.33
    MIXING:  cpu time    0.03: real time    0.03
    --------------------------------------------
      LOOP:  cpu time    3.47: real time    3.49

 eigenvalue-minimisations  :    64
 total energy-change (2. order) :-0.1324076E-04  (-0.1703486E-06)
 number of electron       1.9999993 magnetization 
 augmentation part        0.0391359 magnetization 

 Broyden mixing:
  rms(total) = 0.79506E-04    rms(broyden)= 0.79506E-04
  rms(prec ) = 0.92143E-04
  weight for this iteration     100.00

 eigenvalues of (default mixing * dielectric matrix)
  average eigenvalue GAMMA=   2.3639
  5.1408  3.1497  2.6223  2.0688  1.5798  0.9929  0.9929

 Free energy of the ion-electron system (eV)
  ---------------------------------------------------
  alpha Z        PSCENC =         0.00062366
  Ewald energy   TEWEN  =        14.72088092
  -1/2 Hartree   DENC   =       -31.35523908
  -exchange  EXHF       =         0.00000000
  -V(xc)+E(xc)   XCENC  =         5.18393225
  PAW double counting   =        20.77152081      -20.81471101
  entropy T*S    EENTRO =         0.01101221
  eigenvalues    EBANDS =       -20.20288334
  atomic energy  EATOM  =        24.96779543
  ---------------------------------------------------
  free energy    TOTEN  =        -6.71706816 eV

  energy without entropy =       -6.72808037  energy(sigma->0) =       -6.71982121


--------------------------------------------------------------------------------------------------------




----------------------------------------- Iteration    7(   9)  ---------------------------------------


    POTLOK:  cpu time    0.89: real time    0.89
    SETDIJ:  cpu time    0.00: real time    0.00
    EDDIAG:  cpu time    0.34: real time    0.35
  RMM-DIIS:  cpu time    0.85: real time    0.86
    ORTHCH:  cpu time    0.07: real time    0.07
       DOS:  cpu time    0.00: real time    0.00
    CHARGE:  cpu time    1.47: real time    1.47
    MIXING:  cpu time    0.03: real time    0.03
    --------------------------------------------
      LOOP:  cpu time    3.65: real time    3.67

 eigenvalue-minimisations  :    64
 total energy-change (2. order) :-0.4768326E-05  (-0.2066976E-07)
 number of electron       1.9999993 magnetization 
 augmentation part        0.0391372 magnetization 

 Broyden mixing:
  rms(total) = 0.71434E-04    rms(broyden)= 0.71430E-04
  rms(prec ) = 0.79834E-04
  weight for this iteration     100.00

 eigenvalues of (default mixing * dielectric matrix)
  average eigenvalue GAMMA=   2.6548
  6.7050  3.8759  2.8948  2.2127  2.5888  0.9871  0.9871  0.9871

 Free energy of the ion-electron system (eV)
  ---------------------------------------------------
  alpha Z        PSCENC =         0.00062366
  Ewald energy   TEWEN  =        14.72088092
  -1/2 Hartree   DENC   =       -31.35324707
  -exchange  EXHF       =         0.00000000
  -V(xc)+E(xc)   XCENC  =         5.18368935
  PAW double counting   =        20.76645090      -20.80962562
  entropy T*S    EENTRO =         0.01101221
  eigenvalues    EBANDS =       -20.20465270
  atomic energy  EATOM  =        24.96779543
  ---------------------------------------------------
  free energy    TOTEN  =        -6.71707293 eV

  energy without entropy =       -6.72808513  energy(sigma->0) =       -6.71982598


--------------------------------------------------------------------------------------------------------




----------------------------------------- Iteration    7(  10)  ---------------------------------------


    POTLOK:  cpu time    0.88: real time    0.89
    SETDIJ:  cpu time    0.00: real time    0.00
    EDDIAG:  cpu time    0.28: real time    0.28
  RMM-DIIS:  cpu time    0.87: real time    0.87
    ORTHCH:  cpu time    0.07: real time    0.07
       DOS:  cpu time    0.00: real time    0.00
    CHARGE:  cpu time    1.32: real time    1.33
    MIXING:  cpu time    0.03: real time    0.03
    --------------------------------------------
      LOOP:  cpu time    3.45: real time    3.47

 eigenvalue-minimisations  :    64
 total energy-change (2. order) :-0.6278376E-05  (-0.2234253E-07)
 number of electron       1.9999993 magnetization 
 augmentation part        0.0391368 magnetization 

 Broyden mixing:
  rms(total) = 0.91912E-05    rms(broyden)= 0.91912E-05
  rms(prec ) = 0.14798E-04
  weight for this iteration     100.00

 eigenvalues of (default mixing * dielectric matrix)
  average eigenvalue GAMMA=   2.7287
  7.1517  4.3545  2.8770  2.7216  2.2354  2.2354  0.9914  0.9914  1.0002

 Free energy of the ion-electron system (eV)
  ---------------------------------------------------
  alpha Z        PSCENC =         0.00062366
  Ewald energy   TEWEN  =        14.72088092
  -1/2 Hartree   DENC   =       -31.35383287
  -exchange  EXHF       =         0.00000000
  -V(xc)+E(xc)   XCENC  =         5.18382314
  PAW double counting   =        20.76939268      -20.81257578
  entropy T*S    EENTRO =         0.01101221
  eigenvalues    EBANDS =       -20.20419860
  atomic energy  EATOM  =        24.96779543
  ---------------------------------------------------
  free energy    TOTEN  =        -6.71707921 eV

  energy without entropy =       -6.72809141  energy(sigma->0) =       -6.71983226


--------------------------------------------------------------------------------------------------------




----------------------------------------- Iteration    7(  11)  ---------------------------------------


    POTLOK:  cpu time    0.89: real time    0.89
    SETDIJ:  cpu time    0.00: real time    0.00
    EDDIAG:  cpu time    0.29: real time    0.29
  RMM-DIIS:  cpu time    0.85: real time    0.85
    ORTHCH:  cpu time    0.07: real time    0.07
       DOS:  cpu time    0.00: real time    0.00
    CHARGE:  cpu time    1.33: real time    1.33
    MIXING:  cpu time    0.03: real time    0.03
    --------------------------------------------
      LOOP:  cpu time    3.46: real time    3.48

 eigenvalue-minimisations  :    63
 total energy-change (2. order) :-0.2671447E-05  (-0.1759808E-08)
 number of electron       1.9999993 magnetization 
 augmentation part        0.0391368 magnetization 

 Broyden mixing:
  rms(total) = 0.63676E-05    rms(broyden)= 0.63675E-05
  rms(prec ) = 0.91599E-05
  weight for this iteration     100.00

 eigenvalues of (default mixing * dielectric matrix)
  average eigenvalue GAMMA=   2.8102
  8.2451  4.8736  3.4228  2.2004  2.7947  2.5951  1.0011  1.0011  0.9840  0.9840

 Free energy of the ion-electron system (eV)
  ---------------------------------------------------
  alpha Z        PSCENC =         0.00062366
  Ewald energy   TEWEN  =        14.72088092
  -1/2 Hartree   DENC   =       -31.35385325
  -exchange  EXHF       =         0.00000000
  -V(xc)+E(xc)   XCENC  =         5.18383278
  PAW double counting   =        20.76966674      -20.81285050
  entropy T*S    EENTRO =         0.01101221
  eigenvalues    EBANDS =       -20.20418986
  atomic energy  EATOM  =        24.96779543
  ---------------------------------------------------
  free energy    TOTEN  =        -6.71708188 eV

  energy without entropy =       -6.72809408  energy(sigma->0) =       -6.71983493


--------------------------------------------------------------------------------------------------------




----------------------------------------- Iteration    7(  12)  ---------------------------------------


    POTLOK:  cpu time    0.89: real time    0.89
    SETDIJ:  cpu time    0.00: real time    0.00
    EDDIAG:  cpu time    0.28: real time    0.29
  RMM-DIIS:  cpu time    0.85: real time    0.86
    ORTHCH:  cpu time    0.07: real time    0.08
       DOS:  cpu time    0.00: real time    0.00
    CHARGE:  cpu time    1.35: real time    1.35
    MIXING:  cpu time    0.03: real time    0.03
    --------------------------------------------
      LOOP:  cpu time    3.48: real time    3.50

 eigenvalue-minimisations  :    63
 total energy-change (2. order) :-0.1555916E-05  (-0.1247258E-08)
 number of electron       1.9999993 magnetization 
 augmentation part        0.0391368 magnetization 

 Broyden mixing:
  rms(total) = 0.28797E-05    rms(broyden)= 0.28797E-05
  rms(prec ) = 0.40360E-05
  weight for this iteration     100.00

 eigenvalues of (default mixing * dielectric matrix)
  average eigenvalue GAMMA=   3.0131
  9.0784  5.5786  3.8086  3.2196  2.1983  2.5669  2.7153  0.9944  0.9944  0.9948
  0.9948

 Free energy of the ion-electron system (eV)
  ---------------------------------------------------
  alpha Z        PSCENC =         0.00062366
  Ewald energy   TEWEN  =        14.72088092
  -1/2 Hartree   DENC   =       -31.35375425
  -exchange  EXHF       =         0.00000000
  -V(xc)+E(xc)   XCENC  =         5.18382444
  PAW double counting   =        20.76940882      -20.81259205
  entropy T*S    EENTRO =         0.01101221
  eigenvalues    EBANDS =       -20.20428260
  atomic energy  EATOM  =        24.96779543
  ---------------------------------------------------
  free energy    TOTEN  =        -6.71708343 eV

  energy without entropy =       -6.72809564  energy(sigma->0) =       -6.71983649


--------------------------------------------------------------------------------------------------------




----------------------------------------- Iteration    7(  13)  ---------------------------------------


    POTLOK:  cpu time    0.90: real time    0.90
    SETDIJ:  cpu time    0.00: real time    0.00
    EDDIAG:  cpu time    0.28: real time    0.28
  RMM-DIIS:  cpu time    0.86: real time    0.87
    ORTHCH:  cpu time    0.07: real time    0.08
       DOS:  cpu time    0.00: real time    0.00
    --------------------------------------------
      LOOP:  cpu time    2.12: real time    2.13

 eigenvalue-minimisations  :    62
 total energy-change (2. order) :-0.8509011E-06  ( 0.0000000E+00)
 number of electron       1.9999993 magnetization 
 augmentation part        0.0391368 magnetization 

 Free energy of the ion-electron system (eV)
  ---------------------------------------------------
  alpha Z        PSCENC =         0.00062366
  Ewald energy   TEWEN  =        14.72088092
  -1/2 Hartree   DENC   =       -31.35371216
  -exchange  EXHF       =         0.00000000
  -V(xc)+E(xc)   XCENC  =         5.18382022
  PAW double counting   =        20.76941867      -20.81260180
  entropy T*S    EENTRO =         0.01101221
  eigenvalues    EBANDS =       -20.20432142
  atomic energy  EATOM  =        24.96779543
  ---------------------------------------------------
  free energy    TOTEN  =        -6.71708428 eV

  energy without entropy =       -6.72809649  energy(sigma->0) =       -6.71983734


--------------------------------------------------------------------------------------------------------




 average (electrostatic) potential at core
  the test charge radii are     0.5201
  (the norm of the test charge is              1.0000)
       1 -41.3682       2 -41.3683
 
 
 
 E-fermi :  -9.9756     XC(G=0):  -0.0419     alpha+bet : -0.0035


 k-point   1 :       0.0000    0.0000    0.0000
  band No.  band energies     occupation 
      1     -10.1022      2.00000
      2      -0.0382      0.00000
      3       0.0317      0.00000
      4       0.1457      0.00000
      5       0.2088      0.00000
      6       0.2087      0.00000
      7       0.2240      0.00000
      8       0.2248      0.00000
      9       0.2597      0.00000
     10       0.3977      0.00000
     11       0.4054      0.00000
     12       0.4053      0.00000
     13       0.4624      0.00000
     14       0.4644      0.00000
     15       0.4643      0.00000
     16       0.4650      0.00000
     17       0.4659      0.00000
     18       0.4665      0.00000
     19       0.4666      0.00000
     20       0.4666      0.00000
     21       0.5289      0.00000
     22       0.6556      0.00000
     23       0.6555      0.00000
     24       0.6792      0.00000
     25       0.6992      0.00000
     26       0.6991      0.00000
     27       0.7028      0.00000
     28       0.7113      0.00000
     29       0.7463      0.00000
     30       0.8813      0.00000
     31       0.8812      0.00000
     32       0.9315      0.00000


--------------------------------------------------------------------------------------------------------


 soft charge-density along one line, spin component           1
         0         1         2         3         4         5         6         7         8         9
 total charge-density along one line
 
 pseudopotential strength for first ion, spin component:           1
 -2.342  -4.036  -0.000  -0.002  -0.000
 -4.036  -6.867  -0.000  -0.004   0.000
 -0.000  -0.000  -0.343   0.000   0.000
 -0.002  -0.004   0.000  -0.339   0.000
 -0.000   0.000   0.000   0.000  -0.343
 total augmentation occupancy for first ion, spin component:           1
  2.875  -0.439   0.000   0.321   0.000
 -0.439   0.067   0.000  -0.049   0.000
 -0.000   0.000   0.000   0.000   0.000
  0.321  -0.049   0.000   0.036   0.000
  0.000   0.000   0.000   0.000   0.000


------------------------ aborting loop because EDIFF is reached ----------------------------------------


    CHARGE:  cpu time    1.34: real time    1.34
    FORLOC:  cpu time    0.02: real time    0.02
    FORNL :  cpu time    0.29: real time    0.29
    STRESS:  cpu time    0.92: real time    0.93
    FORHAR:  cpu time    0.21: real time    0.21
    MIXING:  cpu time    0.03: real time    0.03

  Number of pair interactions contributing to Grimme's potential:      19
  Estimated vdW energy (eV):  -0.00003

  FORCE on cell =-STRESS in cart. coord.  units (eV):
  Direction    XX          YY          ZZ          XY          YZ          ZX
  --------------------------------------------------------------------------------------
  Alpha Z     0.00062     0.00062     0.00062
  Ewald      -1.09014    -1.09014    16.90114    -0.00000    -0.00000    -0.00000
  Hartree     9.66001     9.66001    12.03369    -0.00000    -0.00000    -0.00000
  E(xc)      -5.84338    -5.84338    -5.61854    -0.00000     0.00000     0.00000
  Local     -18.17047   -18.17047   -31.89292     0.00000     0.00000     0.00000
  n-local    -5.08838    -5.08838    -5.87865     0.00000    -0.00000     0.00000
  augment     0.25602     0.25602     0.20554     0.00000     0.00000    -0.00000
  Kinetic    20.21105    20.21105    13.00009     0.00000    -0.00000     0.00000
  Fock        0.00000     0.00000     0.00000     0.00000     0.00000     0.00000
  -------------------------------------------------------------------------------------
  Total      -0.06467    -0.06467    -1.24898     0.00000     0.00000    -0.00000
  in kB      -0.00663    -0.00663    -0.12807     0.00000     0.00000    -0.00000
  external pressure =       -0.05 kB  Pullay stress =        0.00 kB


 VOLUME and BASIS-vectors are now :
 -----------------------------------------------------------------------------
  energy-cutoff  :      450.00
  volume of cell :    15625.00
      direct lattice vectors                 reciprocal lattice vectors
    25.000000000  0.000000000  0.000000000     0.040000000  0.000000000  0.000000000
     0.000000000 25.000000000  0.000000000     0.000000000  0.040000000  0.000000000
     0.000000000  0.000000000 25.000000000     0.000000000  0.000000000  0.040000000

  length of vectors
    25.000000000 25.000000000 25.000000000     0.040000000  0.040000000  0.040000000


 FORCES acting on ions
    electron-ion (+dipol)            ewald-force                    non-local-force                 convergence-correction
 -----------------------------------------------------------------------------------------------
   0.448E-13 0.641E-13 0.195E+02   0.382E-19 0.669E-19 -.225E+02   0.000E+00 -.452E-25 0.441E+01   -.429E-14 -.871E-09 0.186E-05
   0.448E-13 0.741E-13 -.195E+02   -.143E-18 -.961E-19 0.225E+02   0.000E+00 0.129E-25 -.441E+01   -.609E-14 -.124E-08 0.197E-05
 -----------------------------------------------------------------------------------------------
   0.896E-13 0.138E-12 -.366E-05   -.105E-18 -.291E-19 0.000E+00   0.000E+00 -.323E-25 0.888E-15   -.104E-13 -.211E-08 0.382E-05
 
 
 POSITION                                       TOTAL-FORCE (eV/Angst)
 -----------------------------------------------------------------------------------
     12.50000     12.50000     12.37474         0.000000      0.000000      1.463469
     12.50000     12.50000     13.17526         0.000000     -0.000000     -1.463469
 -----------------------------------------------------------------------------------
    total drift:                                0.000000     -0.000000      0.000000


--------------------------------------------------------------------------------------------------------



  FREE ENERGIE OF THE ION-ELECTRON SYSTEM (eV)
  ---------------------------------------------------
  free  energy   TOTEN  =        -6.717110 eV

  energy  without entropy=       -6.728122  energy(sigma->0) =       -6.719863
 
 d Force = 0.2838440E-01[-0.146E+00, 0.203E+00]  d Energy = 0.9463931E-02 0.189E-01
 d Force = 0.2590451E+01[ 0.225E+01, 0.293E+01]  d Ewald  = 0.2567558E+01 0.229E-01


--------------------------------------------------------------------------------------------------------


    POTLOK:  cpu time    0.89: real time    0.89


--------------------------------------------------------------------------------------------------------


 stress matrix after NEB project (eV)
     -0.06467      0.00000     -0.00000
      0.00000     -0.06467      0.00000
      0.00000      0.00000     -1.24898
  FORCES: max atom, RMS     1.463469    1.463469
  FORCE total and by dimension    2.069658    1.463469
  Stress total and by dimension    1.252325    1.248981
 Finite differences progress:
  Degree of freedom:   3/  6
  Displacement:        2/  2
  Total:               6/ 12
  LATTYP: Found a simple cubic cell.
 ALAT       =    25.0000000000
  
  Lattice vectors:
  
 A1 = (  25.0000000000,   0.0000000000,   0.0000000000)
 A2 = (   0.0000000000,  25.0000000000,   0.0000000000)
 A3 = (   0.0000000000,   0.0000000000,  25.0000000000)
 Subroutine PRICEL returns:
 Original cell was already a primitive cell.
 

Analysis of symmetry for initial positions (statically):

 Routine SETGRP: Setting up the symmetry group for a 
 simple cubic supercell.


 Subroutine GETGRP returns: Found  4 space group operations
 (whereof  2 operations were pure point group operations)
 out of a pool of 48 trial point group operations.


The static configuration has the point symmetry C_1h.
 The point group associated with its full space group is C_2h.

Analysis of symmetry for dynamics (positions and initial velocities):

 Subroutine DYNSYM returns: Found  4 space group operations
 (whereof  2 operations were pure point group operations)
 out of a pool of  4 trial space group operations
 (whereof  2 operations were pure point group operations)
 and found also     1 'primitive' translations


The dynamic configuration has the point symmetry C_1h.
 The point group associated with its full space group is C_2h.
 
 KPOINTS: k-points                                

Automatic generation of k-mesh.
 
 Subroutine IBZKPT returns following result:
 ===========================================
 
 Found      1 irreducible k-points:
 
 Following reciprocal coordinates:
            Coordinates               Weight
  0.000000  0.000000  0.000000      1.000000
 
 Following cartesian coordinates:
            Coordinates               Weight
  0.000000  0.000000  0.000000      1.000000
 
    WAVPRE:  cpu time    0.06: real time    0.06
    FEWALD:  cpu time    0.00: real time    0.00
    ORTHCH:  cpu time    0.15: real time    0.16
     LOOP+:  cpu time   48.36: real time   48.67


----------------------------------------- Iteration    8(   1)  ---------------------------------------


    POTLOK:  cpu time    0.89: real time    0.90
    SETDIJ:  cpu time    0.00: real time    0.00
     EDDAV:  cpu time    1.23: real time    1.26
       DOS:  cpu time    0.00: real time    0.00
    CHARGE:  cpu time    1.48: real time    1.48
    MIXING:  cpu time    0.02: real time    0.02
    --------------------------------------------
      LOOP:  cpu time    3.63: real time    3.67

 eigenvalue-minimisations  :    64
 total energy-change (2. order) :-0.4215732E-01  (-0.1840730E+00)
 number of electron       1.9999997 magnetization 
 augmentation part        0.0417240 magnetization 

 Broyden mixing:
  rms(total) = 0.46804E-01    rms(broyden)= 0.46755E-01
  rms(prec ) = 0.48386E-01
  weight for this iteration     100.00

 Free energy of the ion-electron system (eV)
  ---------------------------------------------------
  alpha Z        PSCENC =         0.00062366
  Ewald energy   TEWEN  =        15.87668674
  -1/2 Hartree   DENC   =       -31.75088153
  -exchange  EXHF       =         0.00000000
  -V(xc)+E(xc)   XCENC  =         5.23284707
  PAW double counting   =        20.76939718      -20.81258028
  entropy T*S    EENTRO =         0.01101221
  eigenvalues    EBANDS =       -21.05414123
  atomic energy  EATOM  =        24.96779543
  ---------------------------------------------------
  free energy    TOTEN  =        -6.75924076 eV

  energy without entropy =       -6.77025297  energy(sigma->0) =       -6.76199381


--------------------------------------------------------------------------------------------------------




----------------------------------------- Iteration    8(   2)  ---------------------------------------


    POTLOK:  cpu time    0.87: real time    0.87
    SETDIJ:  cpu time    0.00: real time    0.00
    EDDIAG:  cpu time    0.29: real time    0.31
  RMM-DIIS:  cpu time    0.85: real time    0.86
    ORTHCH:  cpu time    0.07: real time    0.07
       DOS:  cpu time    0.00: real time    0.00
    CHARGE:  cpu time    1.29: real time    1.29
    MIXING:  cpu time    0.02: real time    0.02
    --------------------------------------------
      LOOP:  cpu time    3.40: real time    3.43

 eigenvalue-minimisations  :    64
 total energy-change (2. order) : 0.2372613E-02  (-0.1017725E-02)
 number of electron       1.9999997 magnetization 
 augmentation part        0.0417043 magnetization 

 Broyden mixing:
  rms(total) = 0.28146E-01    rms(broyden)= 0.28142E-01
  rms(prec ) = 0.29113E-01
  weight for this iteration     100.00

 eigenvalues of (default mixing * dielectric matrix)
  average eigenvalue GAMMA=   2.4820
  2.4820

 Free energy of the ion-electron system (eV)
  ---------------------------------------------------
  alpha Z        PSCENC =         0.00062366
  Ewald energy   TEWEN  =        15.87668674
  -1/2 Hartree   DENC   =       -31.94763455
  -exchange  EXHF       =         0.00000000
  -V(xc)+E(xc)   XCENC  =         5.26053658
  PAW double counting   =        22.03690472      -22.08254523
  entropy T*S    EENTRO =         0.01101221
  eigenvalues    EBANDS =       -20.88024769
  atomic energy  EATOM  =        24.96779543
  ---------------------------------------------------
  free energy    TOTEN  =        -6.75686814 eV

  energy without entropy =       -6.76788035  energy(sigma->0) =       -6.75962120


--------------------------------------------------------------------------------------------------------




----------------------------------------- Iteration    8(   3)  ---------------------------------------


    POTLOK:  cpu time    0.87: real time    0.87
    SETDIJ:  cpu time    0.00: real time    0.00
    EDDIAG:  cpu time    0.28: real time    0.28
  RMM-DIIS:  cpu time    0.86: real time    0.86
    ORTHCH:  cpu time    0.07: real time    0.07
       DOS:  cpu time    0.00: real time    0.00
    CHARGE:  cpu time    1.28: real time    1.29
    MIXING:  cpu time    0.02: real time    0.02
    --------------------------------------------
      LOOP:  cpu time    3.39: real time    3.40

 eigenvalue-minimisations  :    64
 total energy-change (2. order) : 0.1439400E-02  (-0.4629821E-03)
 number of electron       1.9999997 magnetization 
 augmentation part        0.0414809 magnetization 

 Broyden mixing:
  rms(total) = 0.36597E-02    rms(broyden)= 0.36587E-02
  rms(prec ) = 0.38371E-02
  weight for this iteration     100.00

 eigenvalues of (default mixing * dielectric matrix)
  average eigenvalue GAMMA=   1.5933
  2.3481  0.8386

 Free energy of the ion-electron system (eV)
  ---------------------------------------------------
  alpha Z        PSCENC =         0.00062366
  Ewald energy   TEWEN  =        15.87668674
  -1/2 Hartree   DENC   =       -32.23662570
  -exchange  EXHF       =         0.00000000
  -V(xc)+E(xc)   XCENC  =         5.30091727
  PAW double counting   =        23.87904568      -23.92839555
  entropy T*S    EENTRO =         0.01101221
  eigenvalues    EBANDS =       -20.62648849
  atomic energy  EATOM  =        24.96779543
  ---------------------------------------------------
  free energy    TOTEN  =        -6.75542874 eV

  energy without entropy =       -6.76644095  energy(sigma->0) =       -6.75818180


--------------------------------------------------------------------------------------------------------




----------------------------------------- Iteration    8(   4)  ---------------------------------------


    POTLOK:  cpu time    0.92: real time    0.92
    SETDIJ:  cpu time    0.00: real time    0.00
    EDDIAG:  cpu time    0.28: real time    0.28
  RMM-DIIS:  cpu time    0.86: real time    0.86
    ORTHCH:  cpu time    0.09: real time    0.09
       DOS:  cpu time    0.00: real time    0.00
    CHARGE:  cpu time    1.33: real time    1.33
    MIXING:  cpu time    0.02: real time    0.02
    --------------------------------------------
      LOOP:  cpu time    3.50: real time    3.51

 eigenvalue-minimisations  :    64
 total energy-change (2. order) :-0.1594030E-04  (-0.4026335E-05)
 number of electron       1.9999997 magnetization 
 augmentation part        0.0414878 magnetization 

 Broyden mixing:
  rms(total) = 0.21277E-02    rms(broyden)= 0.21277E-02
  rms(prec ) = 0.22553E-02
  weight for this iteration     100.00

 eigenvalues of (default mixing * dielectric matrix)
  average eigenvalue GAMMA=   2.0847
  0.9890  2.7770  2.4881

 Free energy of the ion-electron system (eV)
  ---------------------------------------------------
  alpha Z        PSCENC =         0.00062366
  Ewald energy   TEWEN  =        15.87668674
  -1/2 Hartree   DENC   =       -32.21357847
  -exchange  EXHF       =         0.00000000
  -V(xc)+E(xc)   XCENC  =         5.29747314
  PAW double counting   =        23.76855233      -23.81761873
  entropy T*S    EENTRO =         0.01101221
  eigenvalues    EBANDS =       -20.64639099
  atomic energy  EATOM  =        24.96779543
  ---------------------------------------------------
  free energy    TOTEN  =        -6.75544469 eV

  energy without entropy =       -6.76645689  energy(sigma->0) =       -6.75819774


--------------------------------------------------------------------------------------------------------




----------------------------------------- Iteration    8(   5)  ---------------------------------------


    POTLOK:  cpu time    0.87: real time    0.87
    SETDIJ:  cpu time    0.00: real time    0.00
    EDDIAG:  cpu time    0.27: real time    0.28
  RMM-DIIS:  cpu time    0.87: real time    0.87
    ORTHCH:  cpu time    0.07: real time    0.07
       DOS:  cpu time    0.00: real time    0.00
    CHARGE:  cpu time    1.29: real time    1.29
    MIXING:  cpu time    0.02: real time    0.02
    --------------------------------------------
      LOOP:  cpu time    3.40: real time    3.42

 eigenvalue-minimisations  :    64
 total energy-change (2. order) :-0.4078772E-04  (-0.6645925E-05)
 number of electron       1.9999997 magnetization 
 augmentation part        0.0415079 magnetization 

 Broyden mixing:
  rms(total) = 0.77468E-03    rms(broyden)= 0.77456E-03
  rms(prec ) = 0.82087E-03
  weight for this iteration     100.00

 eigenvalues of (default mixing * dielectric matrix)
  average eigenvalue GAMMA=   1.6789
  2.7030  2.2529  0.9430  0.8169

 Free energy of the ion-electron system (eV)
  ---------------------------------------------------
  alpha Z        PSCENC =         0.00062366
  Ewald energy   TEWEN  =        15.87668674
  -1/2 Hartree   DENC   =       -32.19374847
  -exchange  EXHF       =         0.00000000
  -V(xc)+E(xc)   XCENC  =         5.29411702
  PAW double counting   =        23.73816161      -23.78702317
  entropy T*S    EENTRO =         0.01101221
  eigenvalues    EBANDS =       -20.66311049
  atomic energy  EATOM  =        24.96779543
  ---------------------------------------------------
  free energy    TOTEN  =        -6.75548547 eV

  energy without entropy =       -6.76649768  energy(sigma->0) =       -6.75823852


--------------------------------------------------------------------------------------------------------




----------------------------------------- Iteration    8(   6)  ---------------------------------------


    POTLOK:  cpu time    0.87: real time    0.87
    SETDIJ:  cpu time    0.00: real time    0.00
    EDDIAG:  cpu time    0.28: real time    0.29
  RMM-DIIS:  cpu time    0.86: real time    0.86
    ORTHCH:  cpu time    0.07: real time    0.07
       DOS:  cpu time    0.00: real time    0.00
    CHARGE:  cpu time    1.28: real time    1.29
    MIXING:  cpu time    0.02: real time    0.02
    --------------------------------------------
      LOOP:  cpu time    3.39: real time    3.41

 eigenvalue-minimisations  :    64
 total energy-change (2. order) :-0.6647305E-05  (-0.2588024E-06)
 number of electron       1.9999997 magnetization 
 augmentation part        0.0415038 magnetization 

 Broyden mixing:
  rms(total) = 0.27292E-03    rms(broyden)= 0.27292E-03
  rms(prec ) = 0.32088E-03
  weight for this iteration     100.00

 eigenvalues of (default mixing * dielectric matrix)
  average eigenvalue GAMMA=   2.0745
  3.5380  2.6211  2.1989  1.0072  1.0072

 Free energy of the ion-electron system (eV)
  ---------------------------------------------------
  alpha Z        PSCENC =         0.00062366
  Ewald energy   TEWEN  =        15.87668674
  -1/2 Hartree   DENC   =       -32.20052368
  -exchange  EXHF       =         0.00000000
  -V(xc)+E(xc)   XCENC  =         5.29508148
  PAW double counting   =        23.76031819      -23.80924421
  entropy T*S    EENTRO =         0.01101221
  eigenvalues    EBANDS =       -20.65724193
  atomic energy  EATOM  =        24.96779543
  ---------------------------------------------------
  free energy    TOTEN  =        -6.75549212 eV

  energy without entropy =       -6.76650433  energy(sigma->0) =       -6.75824517


--------------------------------------------------------------------------------------------------------




----------------------------------------- Iteration    8(   7)  ---------------------------------------


    POTLOK:  cpu time    0.88: real time    0.88
    SETDIJ:  cpu time    0.00: real time    0.00
    EDDIAG:  cpu time    0.28: real time    0.28
  RMM-DIIS:  cpu time    0.87: real time    0.88
    ORTHCH:  cpu time    0.07: real time    0.07
       DOS:  cpu time    0.00: real time    0.00
    CHARGE:  cpu time    1.28: real time    1.28
    MIXING:  cpu time    0.02: real time    0.03
    --------------------------------------------
      LOOP:  cpu time    3.40: real time    3.42

 eigenvalue-minimisations  :    64
 total energy-change (2. order) :-0.3458975E-04  (-0.5680110E-06)
 number of electron       1.9999997 magnetization 
 augmentation part        0.0414986 magnetization 

 Broyden mixing:
  rms(total) = 0.16361E-03    rms(broyden)= 0.16359E-03
  rms(prec ) = 0.18013E-03
  weight for this iteration     100.00

 eigenvalues of (default mixing * dielectric matrix)
  average eigenvalue GAMMA=   1.9581
  3.3607  2.6660  1.9081  1.6665  0.9924  1.1550

 Free energy of the ion-electron system (eV)
  ---------------------------------------------------
  alpha Z        PSCENC =         0.00062366
  Ewald energy   TEWEN  =        15.87668674
  -1/2 Hartree   DENC   =       -32.20900245
  -exchange  EXHF       =         0.00000000
  -V(xc)+E(xc)   XCENC  =         5.29606006
  PAW double counting   =        23.76621615      -23.81517332
  entropy T*S    EENTRO =         0.01101221
  eigenvalues    EBANDS =       -20.64974518
  atomic energy  EATOM  =        24.96779543
  ---------------------------------------------------
  free energy    TOTEN  =        -6.75552671 eV

  energy without entropy =       -6.76653892  energy(sigma->0) =       -6.75827976


--------------------------------------------------------------------------------------------------------




----------------------------------------- Iteration    8(   8)  ---------------------------------------


    POTLOK:  cpu time    0.87: real time    0.88
    SETDIJ:  cpu time    0.00: real time    0.00
    EDDIAG:  cpu time    0.28: real time    0.28
  RMM-DIIS:  cpu time    0.86: real time    0.86
    ORTHCH:  cpu time    0.07: real time    0.07
       DOS:  cpu time    0.00: real time    0.00
    CHARGE:  cpu time    1.32: real time    1.33
    MIXING:  cpu time    0.03: real time    0.03
    --------------------------------------------
      LOOP:  cpu time    3.43: real time    3.45

 eigenvalue-minimisations  :    64
 total energy-change (2. order) :-0.8679133E-05  (-0.2100017E-07)
 number of electron       1.9999997 magnetization 
 augmentation part        0.0414992 magnetization 

 Broyden mixing:
  rms(total) = 0.41514E-04    rms(broyden)= 0.41513E-04
  rms(prec ) = 0.63741E-04
  weight for this iteration     100.00

 eigenvalues of (default mixing * dielectric matrix)
  average eigenvalue GAMMA=   2.2091
  4.7186  3.0577  2.6071  1.9781  1.1302  1.0017  0.9701

 Free energy of the ion-electron system (eV)
  ---------------------------------------------------
  alpha Z        PSCENC =         0.00062366
  Ewald energy   TEWEN  =        15.87668674
  -1/2 Hartree   DENC   =       -32.20768069
  -exchange  EXHF       =         0.00000000
  -V(xc)+E(xc)   XCENC  =         5.29582322
  PAW double counting   =        23.76203108      -23.81097392
  entropy T*S    EENTRO =         0.01101221
  eigenvalues    EBANDS =       -20.65085311
  atomic energy  EATOM  =        24.96779543
  ---------------------------------------------------
  free energy    TOTEN  =        -6.75553539 eV

  energy without entropy =       -6.76654760  energy(sigma->0) =       -6.75828844


--------------------------------------------------------------------------------------------------------




----------------------------------------- Iteration    8(   9)  ---------------------------------------


    POTLOK:  cpu time    0.88: real time    0.88
    SETDIJ:  cpu time    0.00: real time    0.00
    EDDIAG:  cpu time    0.28: real time    0.28
  RMM-DIIS:  cpu time    0.87: real time    0.87
    ORTHCH:  cpu time    0.07: real time    0.07
       DOS:  cpu time    0.00: real time    0.00
    CHARGE:  cpu time    1.29: real time    1.29
    MIXING:  cpu time    0.03: real time    0.03
    --------------------------------------------
      LOOP:  cpu time    3.41: real time    3.61

 eigenvalue-minimisations  :    64
 total energy-change (2. order) :-0.1473797E-04  (-0.8476763E-07)
 number of electron       1.9999997 magnetization 
 augmentation part        0.0414995 magnetization 

 Broyden mixing:
  rms(total) = 0.32609E-04    rms(broyden)= 0.32609E-04
  rms(prec ) = 0.39330E-04
  weight for this iteration     100.00

 eigenvalues of (default mixing * dielectric matrix)
  average eigenvalue GAMMA=   2.3961
  5.6712  3.1033  2.6140  2.6140  2.0240  1.1606  0.9909  0.9909

 Free energy of the ion-electron system (eV)
  ---------------------------------------------------
  alpha Z        PSCENC =         0.00062366
  Ewald energy   TEWEN  =        15.87668674
  -1/2 Hartree   DENC   =       -32.20808337
  -exchange  EXHF       =         0.00000000
  -V(xc)+E(xc)   XCENC  =         5.29577253
  PAW double counting   =        23.76255990      -23.81150015
  entropy T*S    EENTRO =         0.01101221
  eigenvalues    EBANDS =       -20.65041708
  atomic energy  EATOM  =        24.96779543
  ---------------------------------------------------
  free energy    TOTEN  =        -6.75555013 eV

  energy without entropy =       -6.76656233  energy(sigma->0) =       -6.75830318


--------------------------------------------------------------------------------------------------------




----------------------------------------- Iteration    8(  10)  ---------------------------------------


    POTLOK:  cpu time    0.90: real time    0.90
    SETDIJ:  cpu time    0.00: real time    0.00
    EDDIAG:  cpu time    0.27: real time    0.28
  RMM-DIIS:  cpu time    0.85: real time    0.85
    ORTHCH:  cpu time    0.07: real time    0.07
       DOS:  cpu time    0.00: real time    0.00
    CHARGE:  cpu time    1.28: real time    1.28
    MIXING:  cpu time    0.03: real time    0.03
    --------------------------------------------
      LOOP:  cpu time    3.40: real time    3.42

 eigenvalue-minimisations  :    63
 total energy-change (2. order) :-0.6765755E-05  (-0.1202998E-07)
 number of electron       1.9999997 magnetization 
 augmentation part        0.0414990 magnetization 

 Broyden mixing:
  rms(total) = 0.25078E-04    rms(broyden)= 0.25077E-04
  rms(prec ) = 0.27913E-04
  weight for this iteration     100.00

 eigenvalues of (default mixing * dielectric matrix)
  average eigenvalue GAMMA=   2.4336
  6.5714  3.7963  2.8571  2.5808  1.9393  1.1257  1.0646  0.9835  0.9835

 Free energy of the ion-electron system (eV)
  ---------------------------------------------------
  alpha Z        PSCENC =         0.00062366
  Ewald energy   TEWEN  =        15.87668674
  -1/2 Hartree   DENC   =       -32.20897818
  -exchange  EXHF       =         0.00000000
  -V(xc)+E(xc)   XCENC  =         5.29586517
  PAW double counting   =        23.76279518      -23.81173893
  entropy T*S    EENTRO =         0.01101221
  eigenvalues    EBANDS =       -20.64961816
  atomic energy  EATOM  =        24.96779543
  ---------------------------------------------------
  free energy    TOTEN  =        -6.75555689 eV

  energy without entropy =       -6.76656910  energy(sigma->0) =       -6.75830994


--------------------------------------------------------------------------------------------------------




----------------------------------------- Iteration    8(  11)  ---------------------------------------


    POTLOK:  cpu time    0.88: real time    0.90
    SETDIJ:  cpu time    0.00: real time    0.00
    EDDIAG:  cpu time    0.27: real time    0.28
  RMM-DIIS:  cpu time    0.86: real time    0.86
    ORTHCH:  cpu time    0.07: real time    0.07
       DOS:  cpu time    0.00: real time    0.00
    CHARGE:  cpu time    1.29: real time    1.29
    MIXING:  cpu time    0.03: real time    0.03
    --------------------------------------------
      LOOP:  cpu time    3.40: real time    3.44

 eigenvalue-minimisations  :    63
 total energy-change (2. order) :-0.2368690E-05  (-0.4104869E-08)
 number of electron       1.9999997 magnetization 
 augmentation part        0.0414990 magnetization 

 Broyden mixing:
  rms(total) = 0.77826E-05    rms(broyden)= 0.77824E-05
  rms(prec ) = 0.98792E-05
  weight for this iteration     100.00

 eigenvalues of (default mixing * dielectric matrix)
  average eigenvalue GAMMA=   2.6855
  7.8609  4.5502  3.1159  2.7227  2.5336  1.8981  1.1942  0.9894  0.9894  1.0006

 Free energy of the ion-electron system (eV)
  ---------------------------------------------------
  alpha Z        PSCENC =         0.00062366
  Ewald energy   TEWEN  =        15.87668674
  -1/2 Hartree   DENC   =       -32.20873702
  -exchange  EXHF       =         0.00000000
  -V(xc)+E(xc)   XCENC  =         5.29581885
  PAW double counting   =        23.76182741      -23.81076851
  entropy T*S    EENTRO =         0.01101221
  eigenvalues    EBANDS =       -20.64981802
  atomic energy  EATOM  =        24.96779543
  ---------------------------------------------------
  free energy    TOTEN  =        -6.75555926 eV

  energy without entropy =       -6.76657147  energy(sigma->0) =       -6.75831231


--------------------------------------------------------------------------------------------------------




----------------------------------------- Iteration    8(  12)  ---------------------------------------


    POTLOK:  cpu time    0.88: real time    0.88
    SETDIJ:  cpu time    0.00: real time    0.00
    EDDIAG:  cpu time    0.27: real time    0.28
  RMM-DIIS:  cpu time    0.86: real time    0.86
    ORTHCH:  cpu time    0.07: real time    0.07
       DOS:  cpu time    0.00: real time    0.00
    CHARGE:  cpu time    1.35: real time    1.36
    MIXING:  cpu time    0.03: real time    0.03
    --------------------------------------------
      LOOP:  cpu time    3.47: real time    3.48

 eigenvalue-minimisations  :    63
 total energy-change (2. order) :-0.1965541E-05  (-0.1995570E-08)
 number of electron       1.9999997 magnetization 
 augmentation part        0.0414991 magnetization 

 Broyden mixing:
  rms(total) = 0.32013E-05    rms(broyden)= 0.32013E-05
  rms(prec ) = 0.39087E-05
  weight for this iteration     100.00

 eigenvalues of (default mixing * dielectric matrix)
  average eigenvalue GAMMA=   2.6668
  8.2405  4.9262  3.3231  2.7693  2.5798  1.9103  1.3735  1.2259  0.9927  0.9927
  1.0003

 Free energy of the ion-electron system (eV)
  ---------------------------------------------------
  alpha Z        PSCENC =         0.00062366
  Ewald energy   TEWEN  =        15.87668674
  -1/2 Hartree   DENC   =       -32.20863846
  -exchange  EXHF       =         0.00000000
  -V(xc)+E(xc)   XCENC  =         5.29579577
  PAW double counting   =        23.76209876      -23.81103976
  entropy T*S    EENTRO =         0.01101221
  eigenvalues    EBANDS =       -20.64989557
  atomic energy  EATOM  =        24.96779543
  ---------------------------------------------------
  free energy    TOTEN  =        -6.75556123 eV

  energy without entropy =       -6.76657343  energy(sigma->0) =       -6.75831428


--------------------------------------------------------------------------------------------------------




----------------------------------------- Iteration    8(  13)  ---------------------------------------


    POTLOK:  cpu time    0.88: real time    0.88
    SETDIJ:  cpu time    0.00: real time    0.00
    EDDIAG:  cpu time    0.29: real time    0.30
  RMM-DIIS:  cpu time    0.85: real time    0.85
    ORTHCH:  cpu time    0.07: real time    0.07
       DOS:  cpu time    0.00: real time    0.00
    --------------------------------------------
      LOOP:  cpu time    2.10: real time    2.11

 eigenvalue-minimisations  :    62
 total energy-change (2. order) :-0.3302276E-06  ( 0.0000000E+00)
 number of electron       1.9999997 magnetization 
 augmentation part        0.0414991 magnetization 

 Free energy of the ion-electron system (eV)
  ---------------------------------------------------
  alpha Z        PSCENC =         0.00062366
  Ewald energy   TEWEN  =        15.87668674
  -1/2 Hartree   DENC   =       -32.20866038
  -exchange  EXHF       =         0.00000000
  -V(xc)+E(xc)   XCENC  =         5.29579748
  PAW double counting   =        23.76213655      -23.81107768
  entropy T*S    EENTRO =         0.01101221
  eigenvalues    EBANDS =       -20.64987556
  atomic energy  EATOM  =        24.96779543
  ---------------------------------------------------
  free energy    TOTEN  =        -6.75556156 eV

  energy without entropy =       -6.76657376  energy(sigma->0) =       -6.75831461


--------------------------------------------------------------------------------------------------------




 average (electrostatic) potential at core
  the test charge radii are     0.5201
  (the norm of the test charge is              1.0000)
       1 -41.6177       2 -41.6185
 
 
 
 E-fermi : -10.1983     XC(G=0):  -0.0413     alpha+bet : -0.0035


 k-point   1 :       0.0000    0.0000    0.0000
  band No.  band energies     occupation 
      1     -10.3249      2.00000
      2      -0.0366      0.00000
      3       0.1273      0.00000
      4       0.1530      0.00000
      5       0.2085      0.00000
      6       0.2089      0.00000
      7       0.2233      0.00000
      8       0.2239      0.00000
      9       0.2866      0.00000
     10       0.3912      0.00000
     11       0.4172      0.00000
     12       0.4184      0.00000
     13       0.4588      0.00000
     14       0.4599      0.00000
     15       0.4605      0.00000
     16       0.4630      0.00000
     17       0.4638      0.00000
     18       0.4653      0.00000
     19       0.4663      0.00000
     20       0.4670      0.00000
     21       0.5503      0.00000
     22       0.6613      0.00000
     23       0.6623      0.00000
     24       0.6714      0.00000
     25       0.6983      0.00000
     26       0.7016      0.00000
     27       0.7051      0.00000
     28       0.7051      0.00000
     29       0.7672      0.00000
     30       0.8773      0.00000
     31       0.8773      0.00000
     32       0.9206      0.00000


--------------------------------------------------------------------------------------------------------


 soft charge-density along one line, spin component           1
         0         1         2         3         4         5         6         7         8         9
 total charge-density along one line
 
 pseudopotential strength for first ion, spin component:           1
 -2.344  -4.039  -0.000  -0.002  -0.000
 -4.039  -6.875  -0.000  -0.005  -0.000
 -0.000  -0.000  -0.341  -0.000  -0.000
 -0.002  -0.005  -0.000  -0.335   0.000
 -0.000  -0.000  -0.000   0.000  -0.341
 total augmentation occupancy for first ion, spin component:           1
  2.991  -0.446   0.000   0.369   0.025
 -0.446   0.066   0.000  -0.055  -0.004
  0.000   0.000   0.000   0.000   0.000
  0.369  -0.055   0.000   0.046   0.003
  0.025  -0.004   0.000   0.003   0.000


------------------------ aborting loop because EDIFF is reached ----------------------------------------


    CHARGE:  cpu time    1.28: real time    1.28
    FORLOC:  cpu time    0.02: real time    0.02
    FORNL :  cpu time    0.28: real time    0.28
    STRESS:  cpu time    0.90: real time    0.90
    FORHAR:  cpu time    0.22: real time    0.22
    MIXING:  cpu time    0.03: real time    0.03

  Number of pair interactions contributing to Grimme's potential:      19
  Estimated vdW energy (eV):  -0.00002

  FORCE on cell =-STRESS in cart. coord.  units (eV):
  Direction    XX          YY          ZZ          XY          YZ          ZX
  --------------------------------------------------------------------------------------
  Alpha Z     0.00062     0.00062     0.00062
  Ewald      -1.00546    -1.09007    17.97223    -0.00000    -0.00000     1.26955
  Hartree     9.99916     9.98926    12.22027     0.00000    -0.00000     0.14841
  E(xc)      -5.96917    -5.97014    -5.75078     0.00000    -0.00000     0.01461
  Local     -18.81209   -18.75219   -32.24321    -0.00000     0.00000    -0.89816
  n-local    -5.36379    -5.35947    -6.29371    -0.00000    -0.00000    -0.06226
  augment     0.27345     0.27361     0.20425    -0.00000    -0.00000    -0.00464
  Kinetic    20.80965    20.84108    13.76196     0.00000     0.00000    -0.47162
  Fock        0.00000     0.00000     0.00000     0.00000     0.00000     0.00000
  -------------------------------------------------------------------------------------
  Total      -0.06763    -0.06729    -0.12832     0.00000     0.00000    -0.00411
  in kB      -0.00694    -0.00690    -0.01316     0.00000     0.00000    -0.00042
  external pressure =       -0.01 kB  Pullay stress =        0.00 kB


 VOLUME and BASIS-vectors are now :
 -----------------------------------------------------------------------------
  energy-cutoff  :      450.00
  volume of cell :    15625.00
      direct lattice vectors                 reciprocal lattice vectors
    25.000000000  0.000000000  0.000000000     0.040000000  0.000000000  0.000000000
     0.000000000 25.000000000  0.000000000     0.000000000  0.040000000  0.000000000
     0.000000000  0.000000000 25.000000000     0.000000000  0.000000000  0.040000000

  length of vectors
    25.000000000 25.000000000 25.000000000     0.040000000  0.040000000  0.040000000


 FORCES acting on ions
    electron-ion (+dipol)            ewald-force                    non-local-force                 convergence-correction
 -----------------------------------------------------------------------------------------------
   0.136E+01 0.426E-13 0.204E+02   -.169E+01 -.318E-18 -.254E+02   0.335E+00 0.000E+00 0.502E+01   -.145E-05 -.858E-12 -.576E-05
   -.136E+01 0.341E-13 -.204E+02   0.169E+01 0.289E-18 0.254E+02   -.335E+00 0.000E+00 -.502E+01   -.184E-06 -.109E-11 0.417E-05
 -----------------------------------------------------------------------------------------------
   0.259E-05 0.767E-13 0.241E-04   0.000E+00 -.291E-19 0.000E+00   0.000E+00 0.000E+00 0.000E+00   -.164E-05 -.195E-11 -.159E-05
 
 
 POSITION                                       TOTAL-FORCE (eV/Angst)
 -----------------------------------------------------------------------------------
     12.50000     12.50000     12.42474         0.003879      0.000000      0.055390
     12.55000     12.50000     13.17526        -0.003879      0.000000     -0.055390
 -----------------------------------------------------------------------------------
    total drift:                                0.000001     -0.000000      0.000022


--------------------------------------------------------------------------------------------------------



  FREE ENERGIE OF THE ION-ELECTRON SYSTEM (eV)
  ---------------------------------------------------
  free  energy   TOTEN  =        -6.755584 eV

  energy  without entropy=       -6.766597  energy(sigma->0) =       -6.758337
 
 d Force = 0.3787450E-01[ 0.258E-02, 0.732E-01]  d Energy = 0.3847465E-01-0.600E-03
 d Force =-0.1154208E+01[-0.119E+01,-0.112E+01]  d Ewald  =-0.1155806E+01 0.160E-02


--------------------------------------------------------------------------------------------------------


    POTLOK:  cpu time    0.88: real time    0.88


--------------------------------------------------------------------------------------------------------


 stress matrix after NEB project (eV)
     -0.06763      0.00000     -0.00411
      0.00000     -0.06729      0.00000
     -0.00411      0.00000     -0.12832
  FORCES: max atom, RMS     0.055525    0.055525
  FORCE total and by dimension    0.078524    0.055390
  Stress total and by dimension    0.160012    0.128324
 Finite differences progress:
  Degree of freedom:   4/  6
  Displacement:        1/  2
  Total:               7/ 12
  LATTYP: Found a simple cubic cell.
 ALAT       =    25.0000000000
  
  Lattice vectors:
  
 A1 = (  25.0000000000,   0.0000000000,   0.0000000000)
 A2 = (   0.0000000000,  25.0000000000,   0.0000000000)
 A3 = (   0.0000000000,   0.0000000000,  25.0000000000)
 Subroutine PRICEL returns:
 Original cell was already a primitive cell.
 

Analysis of symmetry for initial positions (statically):

 Routine SETGRP: Setting up the symmetry group for a 
 simple cubic supercell.


 Subroutine GETGRP returns: Found  4 space group operations
 (whereof  2 operations were pure point group operations)
 out of a pool of 48 trial point group operations.


The static configuration has the point symmetry C_1h.
 The point group associated with its full space group is C_2h.

Analysis of symmetry for dynamics (positions and initial velocities):

 Subroutine DYNSYM returns: Found  4 space group operations
 (whereof  2 operations were pure point group operations)
 out of a pool of  4 trial space group operations
 (whereof  2 operations were pure point group operations)
 and found also     1 'primitive' translations


The dynamic configuration has the point symmetry C_1h.
 The point group associated with its full space group is C_2h.
 
 KPOINTS: k-points                                

Automatic generation of k-mesh.
 
 Subroutine IBZKPT returns following result:
 ===========================================
 
 Found      1 irreducible k-points:
 
 Following reciprocal coordinates:
            Coordinates               Weight
  0.000000  0.000000  0.000000      1.000000
 
 Following cartesian coordinates:
            Coordinates               Weight
  0.000000  0.000000  0.000000      1.000000
 
    WAVPRE:  cpu time    0.06: real time    0.06
    FEWALD:  cpu time    0.00: real time    0.00
    ORTHCH:  cpu time    0.15: real time    0.16
     LOOP+:  cpu time   47.30: real time   47.75


----------------------------------------- Iteration    9(   1)  ---------------------------------------


    POTLOK:  cpu time    0.89: real time    0.89
    SETDIJ:  cpu time    0.00: real time    0.00
     EDDAV:  cpu time    1.22: real time    1.26
       DOS:  cpu time    0.00: real time    0.00
    CHARGE:  cpu time    1.41: real time    1.42
    MIXING:  cpu time    0.02: real time    0.02
    --------------------------------------------
      LOOP:  cpu time    3.55: real time    3.59

 eigenvalue-minimisations  :    64
 total energy-change (2. order) : 0.1233670E-03  (-0.3499457E+00)
 number of electron       1.9999997 magnetization 
 augmentation part        0.0412462 magnetization 

 Broyden mixing:
  rms(total) = 0.45412E-01    rms(broyden)= 0.45320E-01
  rms(prec ) = 0.46593E-01
  weight for this iteration     100.00

 Free energy of the ion-electron system (eV)
  ---------------------------------------------------
  alpha Z        PSCENC =         0.00062366
  Ewald energy   TEWEN  =        15.87668674
  -1/2 Hartree   DENC   =       -32.19247280
  -exchange  EXHF       =         0.00000000
  -V(xc)+E(xc)   XCENC  =         5.29454413
  PAW double counting   =        23.76203381      -23.81097491
  entropy T*S    EENTRO =         0.01101221
  eigenvalues    EBANDS =       -20.66468612
  atomic energy  EATOM  =        24.96779543
  ---------------------------------------------------
  free energy    TOTEN  =        -6.75543786 eV

  energy without entropy =       -6.76645007  energy(sigma->0) =       -6.75819091


--------------------------------------------------------------------------------------------------------




----------------------------------------- Iteration    9(   2)  ---------------------------------------


    POTLOK:  cpu time    0.89: real time    0.89
    SETDIJ:  cpu time    0.00: real time    0.00
    EDDIAG:  cpu time    0.28: real time    0.28
  RMM-DIIS:  cpu time    0.86: real time    0.86
    ORTHCH:  cpu time    0.07: real time    0.07
       DOS:  cpu time    0.00: real time    0.00
    CHARGE:  cpu time    1.29: real time    1.29
    MIXING:  cpu time    0.02: real time    0.02
    --------------------------------------------
      LOOP:  cpu time    3.42: real time    3.43

 eigenvalue-minimisations  :    64
 total energy-change (2. order) :-0.1894619E-03  (-0.1462440E-02)
 number of electron       1.9999997 magnetization 
 augmentation part        0.0414848 magnetization 

 Broyden mixing:
  rms(total) = 0.28373E-01    rms(broyden)= 0.28365E-01
  rms(prec ) = 0.29192E-01
  weight for this iteration     100.00

 eigenvalues of (default mixing * dielectric matrix)
  average eigenvalue GAMMA=   2.4687
  2.4687

 Free energy of the ion-electron system (eV)
  ---------------------------------------------------
  alpha Z        PSCENC =         0.00062366
  Ewald energy   TEWEN  =        15.87668674
  -1/2 Hartree   DENC   =       -32.18248315
  -exchange  EXHF       =         0.00000000
  -V(xc)+E(xc)   XCENC  =         5.29278393
  PAW double counting   =        23.79446166      -23.84323343
  entropy T*S    EENTRO =         0.01101221
  eigenvalues    EBANDS =       -20.67327436
  atomic energy  EATOM  =        24.96779543
  ---------------------------------------------------
  free energy    TOTEN  =        -6.75562732 eV

  energy without entropy =       -6.76663953  energy(sigma->0) =       -6.75838037


--------------------------------------------------------------------------------------------------------




----------------------------------------- Iteration    9(   3)  ---------------------------------------


    POTLOK:  cpu time    0.88: real time    0.88
    SETDIJ:  cpu time    0.00: real time    0.00
    EDDIAG:  cpu time    0.27: real time    0.28
  RMM-DIIS:  cpu time    0.87: real time    0.87
    ORTHCH:  cpu time    0.07: real time    0.07
       DOS:  cpu time    0.00: real time    0.00
    CHARGE:  cpu time    1.31: real time    1.31
    MIXING:  cpu time    0.02: real time    0.02
    --------------------------------------------
      LOOP:  cpu time    3.42: real time    3.44

 eigenvalue-minimisations  :    64
 total energy-change (2. order) : 0.2396534E-03  (-0.2219002E-03)
 number of electron       1.9999997 magnetization 
 augmentation part        0.0414978 magnetization 

 Broyden mixing:
  rms(total) = 0.20227E-02    rms(broyden)= 0.20167E-02
  rms(prec ) = 0.21870E-02
  weight for this iteration     100.00

 eigenvalues of (default mixing * dielectric matrix)
  average eigenvalue GAMMA=   1.8200
  2.6188  1.0211

 Free energy of the ion-electron system (eV)
  ---------------------------------------------------
  alpha Z        PSCENC =         0.00062366
  Ewald energy   TEWEN  =        15.87668674
  -1/2 Hartree   DENC   =       -32.20897794
  -exchange  EXHF       =         0.00000000
  -V(xc)+E(xc)   XCENC  =         5.29595328
  PAW double counting   =        23.79365485      -23.84258409
  entropy T*S    EENTRO =         0.01101221
  eigenvalues    EBANDS =       -20.64955180
  atomic energy  EATOM  =        24.96779543
  ---------------------------------------------------
  free energy    TOTEN  =        -6.75538767 eV

  energy without entropy =       -6.76639988  energy(sigma->0) =       -6.75814072


--------------------------------------------------------------------------------------------------------




----------------------------------------- Iteration    9(   4)  ---------------------------------------


    POTLOK:  cpu time    0.88: real time    0.88
    SETDIJ:  cpu time    0.00: real time    0.00
    EDDIAG:  cpu time    0.28: real time    0.28
  RMM-DIIS:  cpu time    0.86: real time    0.86
    ORTHCH:  cpu time    0.07: real time    0.07
       DOS:  cpu time    0.00: real time    0.00
    CHARGE:  cpu time    1.28: real time    1.28
    MIXING:  cpu time    0.02: real time    0.02
    --------------------------------------------
      LOOP:  cpu time    3.39: real time    3.41

 eigenvalue-minimisations  :    64
 total energy-change (2. order) :-0.3030961E-04  (-0.3860370E-05)
 number of electron       1.9999997 magnetization 
 augmentation part        0.0414983 magnetization 

 Broyden mixing:
  rms(total) = 0.81212E-03    rms(broyden)= 0.81139E-03
  rms(prec ) = 0.93103E-03
  weight for this iteration     100.00

 eigenvalues of (default mixing * dielectric matrix)
  average eigenvalue GAMMA=   2.1944
  1.0026  2.5777  3.0030

 Free energy of the ion-electron system (eV)
  ---------------------------------------------------
  alpha Z        PSCENC =         0.00062366
  Ewald energy   TEWEN  =        15.87668674
  -1/2 Hartree   DENC   =       -32.21033689
  -exchange  EXHF       =         0.00000000
  -V(xc)+E(xc)   XCENC  =         5.29611965
  PAW double counting   =        23.78170367      -23.83064365
  entropy T*S    EENTRO =         0.01101221
  eigenvalues    EBANDS =       -20.64837880
  atomic energy  EATOM  =        24.96779543
  ---------------------------------------------------
  free energy    TOTEN  =        -6.75541798 eV

  energy without entropy =       -6.76643019  energy(sigma->0) =       -6.75817103


--------------------------------------------------------------------------------------------------------




----------------------------------------- Iteration    9(   5)  ---------------------------------------


    POTLOK:  cpu time    0.88: real time    0.89
    SETDIJ:  cpu time    0.00: real time    0.00
    EDDIAG:  cpu time    0.30: real time    0.30
  RMM-DIIS:  cpu time    0.86: real time    0.86
    ORTHCH:  cpu time    0.07: real time    0.07
       DOS:  cpu time    0.00: real time    0.00
    CHARGE:  cpu time    1.28: real time    1.37
    MIXING:  cpu time    0.03: real time    0.03
    --------------------------------------------
      LOOP:  cpu time    3.43: real time    3.53

 eigenvalue-minimisations  :    64
 total energy-change (2. order) :-0.6941428E-04  (-0.1951953E-05)
 number of electron       1.9999997 magnetization 
 augmentation part        0.0414992 magnetization 

 Broyden mixing:
  rms(total) = 0.13774E-03    rms(broyden)= 0.13749E-03
  rms(prec ) = 0.19409E-03
  weight for this iteration     100.00

 eigenvalues of (default mixing * dielectric matrix)
  average eigenvalue GAMMA=   1.9913
  2.9329  2.5964  1.0018  1.4342

 Free energy of the ion-electron system (eV)
  ---------------------------------------------------
  alpha Z        PSCENC =         0.00062366
  Ewald energy   TEWEN  =        15.87668674
  -1/2 Hartree   DENC   =       -32.20903455
  -exchange  EXHF       =         0.00000000
  -V(xc)+E(xc)   XCENC  =         5.29589038
  PAW double counting   =        23.75867561      -23.80761610
  entropy T*S    EENTRO =         0.01101221
  eigenvalues    EBANDS =       -20.64952077
  atomic energy  EATOM  =        24.96779543
  ---------------------------------------------------
  free energy    TOTEN  =        -6.75548739 eV

  energy without entropy =       -6.76649960  energy(sigma->0) =       -6.75824044


--------------------------------------------------------------------------------------------------------




----------------------------------------- Iteration    9(   6)  ---------------------------------------


    POTLOK:  cpu time    0.88: real time    0.88
    SETDIJ:  cpu time    0.00: real time    0.00
    EDDIAG:  cpu time    0.28: real time    0.28
  RMM-DIIS:  cpu time    0.86: real time    0.86
    ORTHCH:  cpu time    0.07: real time    0.07
       DOS:  cpu time    0.00: real time    0.00
    CHARGE:  cpu time    1.29: real time    1.29
    MIXING:  cpu time    0.02: real time    0.02
    --------------------------------------------
      LOOP:  cpu time    3.41: real time    3.42

 eigenvalue-minimisations  :    64
 total energy-change (2. order) :-0.2360113E-04  (-0.1314148E-06)
 number of electron       1.9999997 magnetization 
 augmentation part        0.0414992 magnetization 

 Broyden mixing:
  rms(total) = 0.81228E-04    rms(broyden)= 0.81208E-04
  rms(prec ) = 0.12777E-03
  weight for this iteration     100.00

 eigenvalues of (default mixing * dielectric matrix)
  average eigenvalue GAMMA=   2.2283
  3.7935  2.8077  2.5711  1.0025  0.9667

 Free energy of the ion-electron system (eV)
  ---------------------------------------------------
  alpha Z        PSCENC =         0.00062366
  Ewald energy   TEWEN  =        15.87668674
  -1/2 Hartree   DENC   =       -32.20898128
  -exchange  EXHF       =         0.00000000
  -V(xc)+E(xc)   XCENC  =         5.29587137
  PAW double counting   =        23.76111640      -23.81005747
  entropy T*S    EENTRO =         0.01101221
  eigenvalues    EBANDS =       -20.64957806
  atomic energy  EATOM  =        24.96779543
  ---------------------------------------------------
  free energy    TOTEN  =        -6.75551099 eV

  energy without entropy =       -6.76652320  energy(sigma->0) =       -6.75826405


--------------------------------------------------------------------------------------------------------




----------------------------------------- Iteration    9(   7)  ---------------------------------------


    POTLOK:  cpu time    0.88: real time    0.88
    SETDIJ:  cpu time    0.00: real time    0.00
    EDDIAG:  cpu time    0.28: real time    0.28
  RMM-DIIS:  cpu time    0.87: real time    0.87
    ORTHCH:  cpu time    0.12: real time    0.12
       DOS:  cpu time    0.00: real time    0.00
    CHARGE:  cpu time    1.28: real time    1.28
    MIXING:  cpu time    0.05: real time    0.05
    --------------------------------------------
      LOOP:  cpu time    3.48: real time    3.50

 eigenvalue-minimisations  :    64
 total energy-change (2. order) :-0.2695428E-04  (-0.2824108E-06)
 number of electron       1.9999997 magnetization 
 augmentation part        0.0414991 magnetization 

 Broyden mixing:
  rms(total) = 0.33221E-04    rms(broyden)= 0.33219E-04
  rms(prec ) = 0.56115E-04
  weight for this iteration     100.00

 eigenvalues of (default mixing * dielectric matrix)
  average eigenvalue GAMMA=   2.4595
  4.6713  2.8408  2.5724  2.6914  1.0035  0.9778

 Free energy of the ion-electron system (eV)
  ---------------------------------------------------
  alpha Z        PSCENC =         0.00062366
  Ewald energy   TEWEN  =        15.87668674
  -1/2 Hartree   DENC   =       -32.20885875
  -exchange  EXHF       =         0.00000000
  -V(xc)+E(xc)   XCENC  =         5.29583982
  PAW double counting   =        23.76310728      -23.81204908
  entropy T*S    EENTRO =         0.01101221
  eigenvalues    EBANDS =       -20.64969525
  atomic energy  EATOM  =        24.96779543
  ---------------------------------------------------
  free energy    TOTEN  =        -6.75553795 eV

  energy without entropy =       -6.76655016  energy(sigma->0) =       -6.75829100


--------------------------------------------------------------------------------------------------------




----------------------------------------- Iteration    9(   8)  ---------------------------------------


    POTLOK:  cpu time    0.90: real time    0.90
    SETDIJ:  cpu time    0.00: real time    0.00
    EDDIAG:  cpu time    0.31: real time    0.31
  RMM-DIIS:  cpu time    0.87: real time    0.87
    ORTHCH:  cpu time    0.07: real time    0.08
       DOS:  cpu time    0.00: real time    0.00
    CHARGE:  cpu time    1.28: real time    1.28
    MIXING:  cpu time    0.03: real time    0.03
    --------------------------------------------
      LOOP:  cpu time    3.46: real time    3.48

 eigenvalue-minimisations  :    64
 total energy-change (2. order) :-0.1502438E-04  (-0.9489493E-07)
 number of electron       1.9999997 magnetization 
 augmentation part        0.0414991 magnetization 

 Broyden mixing:
  rms(total) = 0.12984E-04    rms(broyden)= 0.12984E-04
  rms(prec ) = 0.24089E-04
  weight for this iteration     100.00

 eigenvalues of (default mixing * dielectric matrix)
  average eigenvalue GAMMA=   2.4307
  5.3280  3.3403  2.7244  2.5576  0.9867  1.0109  1.0671

 Free energy of the ion-electron system (eV)
  ---------------------------------------------------
  alpha Z        PSCENC =         0.00062366
  Ewald energy   TEWEN  =        15.87668674
  -1/2 Hartree   DENC   =       -32.20871059
  -exchange  EXHF       =         0.00000000
  -V(xc)+E(xc)   XCENC  =         5.29580981
  PAW double counting   =        23.76180450      -23.81074543
  entropy T*S    EENTRO =         0.01101221
  eigenvalues    EBANDS =       -20.64982929
  atomic energy  EATOM  =        24.96779543
  ---------------------------------------------------
  free energy    TOTEN  =        -6.75555297 eV

  energy without entropy =       -6.76656518  energy(sigma->0) =       -6.75830602


--------------------------------------------------------------------------------------------------------




----------------------------------------- Iteration    9(   9)  ---------------------------------------


    POTLOK:  cpu time    0.88: real time    0.88
    SETDIJ:  cpu time    0.00: real time    0.00
    EDDIAG:  cpu time    0.28: real time    0.28
  RMM-DIIS:  cpu time    0.86: real time    0.86
    ORTHCH:  cpu time    0.07: real time    0.07
       DOS:  cpu time    0.00: real time    0.00
    CHARGE:  cpu time    1.28: real time    1.29
    MIXING:  cpu time    0.03: real time    0.03
    --------------------------------------------
      LOOP:  cpu time    3.40: real time    3.42

 eigenvalue-minimisations  :    63
 total energy-change (2. order) :-0.3551534E-05  (-0.9020280E-08)
 number of electron       1.9999997 magnetization 
 augmentation part        0.0414991 magnetization 

 Broyden mixing:
  rms(total) = 0.97809E-05    rms(broyden)= 0.97808E-05
  rms(prec ) = 0.16398E-04
  weight for this iteration     100.00

 eigenvalues of (default mixing * dielectric matrix)
  average eigenvalue GAMMA=   2.7638
  6.8050  4.0817  3.0275  2.5485  2.6733  1.0000  0.9873  0.9873

 Free energy of the ion-electron system (eV)
  ---------------------------------------------------
  alpha Z        PSCENC =         0.00062366
  Ewald energy   TEWEN  =        15.87668674
  -1/2 Hartree   DENC   =       -32.20869778
  -exchange  EXHF       =         0.00000000
  -V(xc)+E(xc)   XCENC  =         5.29580566
  PAW double counting   =        23.76175669      -23.81069763
  entropy T*S    EENTRO =         0.01101221
  eigenvalues    EBANDS =       -20.64984150
  atomic energy  EATOM  =        24.96779543
  ---------------------------------------------------
  free energy    TOTEN  =        -6.75555652 eV

  energy without entropy =       -6.76656873  energy(sigma->0) =       -6.75830958


--------------------------------------------------------------------------------------------------------




----------------------------------------- Iteration    9(  10)  ---------------------------------------


    POTLOK:  cpu time    0.88: real time    0.88
    SETDIJ:  cpu time    0.00: real time    0.00
    EDDIAG:  cpu time    0.28: real time    0.29
  RMM-DIIS:  cpu time    0.78: real time    0.78
    ORTHCH:  cpu time    0.07: real time    0.07
       DOS:  cpu time    0.00: real time    0.00
    CHARGE:  cpu time    1.31: real time    1.31
    MIXING:  cpu time    0.03: real time    0.03
    --------------------------------------------
      LOOP:  cpu time    3.35: real time    3.46

 eigenvalue-minimisations  :    63
 total energy-change (2. order) :-0.3704347E-05  (-0.7455554E-08)
 number of electron       1.9999997 magnetization 
 augmentation part        0.0414991 magnetization 

 Broyden mixing:
  rms(total) = 0.39194E-05    rms(broyden)= 0.39194E-05
  rms(prec ) = 0.61599E-05
  weight for this iteration     100.00

 eigenvalues of (default mixing * dielectric matrix)
  average eigenvalue GAMMA=   2.9114
  7.6340  4.0781  3.6027  2.8194  2.5881  2.4987  1.0026  0.9895  0.9895

 Free energy of the ion-electron system (eV)
  ---------------------------------------------------
  alpha Z        PSCENC =         0.00062366
  Ewald energy   TEWEN  =        15.87668674
  -1/2 Hartree   DENC   =       -32.20872812
  -exchange  EXHF       =         0.00000000
  -V(xc)+E(xc)   XCENC  =         5.29580692
  PAW double counting   =        23.76224838      -23.81118982
  entropy T*S    EENTRO =         0.01101221
  eigenvalues    EBANDS =       -20.64981562
  atomic energy  EATOM  =        24.96779543
  ---------------------------------------------------
  free energy    TOTEN  =        -6.75556023 eV

  energy without entropy =       -6.76657244  energy(sigma->0) =       -6.75831328


--------------------------------------------------------------------------------------------------------




----------------------------------------- Iteration    9(  11)  ---------------------------------------


    POTLOK:  cpu time    0.90: real time    0.90
    SETDIJ:  cpu time    0.00: real time    0.00
    EDDIAG:  cpu time    0.28: real time    0.28
  RMM-DIIS:  cpu time    0.86: real time    0.86
    ORTHCH:  cpu time    0.07: real time    0.08
       DOS:  cpu time    0.00: real time    0.00
    CHARGE:  cpu time    1.28: real time    1.28
    MIXING:  cpu time    0.03: real time    0.03
    --------------------------------------------
      LOOP:  cpu time    3.42: real time    3.44

 eigenvalue-minimisations  :    63
 total energy-change (2. order) :-0.1172102E-05  (-0.8753709E-09)
 number of electron       1.9999997 magnetization 
 augmentation part        0.0414991 magnetization 

 Broyden mixing:
  rms(total) = 0.14898E-05    rms(broyden)= 0.14898E-05
  rms(prec ) = 0.25127E-05
  weight for this iteration     100.00

 eigenvalues of (default mixing * dielectric matrix)
  average eigenvalue GAMMA=   2.8905
  8.2934  4.9557  3.5357  2.9090  2.5422  2.6470  0.9989  0.9814  1.0209  1.0209

 Free energy of the ion-electron system (eV)
  ---------------------------------------------------
  alpha Z        PSCENC =         0.00062366
  Ewald energy   TEWEN  =        15.87668674
  -1/2 Hartree   DENC   =       -32.20870741
  -exchange  EXHF       =         0.00000000
  -V(xc)+E(xc)   XCENC  =         5.29580296
  PAW double counting   =        23.76205987      -23.81100102
  entropy T*S    EENTRO =         0.01101221
  eigenvalues    EBANDS =       -20.64983384
  atomic energy  EATOM  =        24.96779543
  ---------------------------------------------------
  free energy    TOTEN  =        -6.75556140 eV

  energy without entropy =       -6.76657361  energy(sigma->0) =       -6.75831445


--------------------------------------------------------------------------------------------------------




----------------------------------------- Iteration    9(  12)  ---------------------------------------


    POTLOK:  cpu time    0.88: real time    0.88
    SETDIJ:  cpu time    0.00: real time    0.00
    EDDIAG:  cpu time    0.28: real time    0.29
  RMM-DIIS:  cpu time    0.85: real time    0.86
    ORTHCH:  cpu time    0.07: real time    0.07
       DOS:  cpu time    0.00: real time    0.00
    --------------------------------------------
      LOOP:  cpu time    2.09: real time    2.11

 eigenvalue-minimisations  :    62
 total energy-change (2. order) :-0.2476781E-06  ( 0.0000000E+00)
 number of electron       1.9999997 magnetization 
 augmentation part        0.0414991 magnetization 

 Free energy of the ion-electron system (eV)
  ---------------------------------------------------
  alpha Z        PSCENC =         0.00062366
  Ewald energy   TEWEN  =        15.87668674
  -1/2 Hartree   DENC   =       -32.20870616
  -exchange  EXHF       =         0.00000000
  -V(xc)+E(xc)   XCENC  =         5.29580259
  PAW double counting   =        23.76202329      -23.81096441
  entropy T*S    EENTRO =         0.01101221
  eigenvalues    EBANDS =       -20.64983499
  atomic energy  EATOM  =        24.96779543
  ---------------------------------------------------
  free energy    TOTEN  =        -6.75556165 eV

  energy without entropy =       -6.76657386  energy(sigma->0) =       -6.75831470


--------------------------------------------------------------------------------------------------------




 average (electrostatic) potential at core
  the test charge radii are     0.5201
  (the norm of the test charge is              1.0000)
       1 -41.6177       2 -41.6184
 
 
 
 E-fermi : -10.1983     XC(G=0):  -0.0403     alpha+bet : -0.0035


 k-point   1 :       0.0000    0.0000    0.0000
  band No.  band energies     occupation 
      1     -10.3249      2.00000
      2      -0.0365      0.00000
      3       0.1255      0.00000
      4       0.1507      0.00000
      5       0.2094      0.00000
      6       0.2103      0.00000
      7       0.2247      0.00000
      8       0.2256      0.00000
      9       0.2867      0.00000
     10       0.3958      0.00000
     11       0.4143      0.00000
     12       0.4146      0.00000
     13       0.4616      0.00000
     14       0.4620      0.00000
     15       0.4635      0.00000
     16       0.4642      0.00000
     17       0.4652      0.00000
     18       0.4668      0.00000
     19       0.4673      0.00000
     20       0.4675      0.00000
     21       0.5532      0.00000
     22       0.6607      0.00000
     23       0.6607      0.00000
     24       0.6778      0.00000
     25       0.7012      0.00000
     26       0.7025      0.00000
     27       0.7037      0.00000
     28       0.7064      0.00000
     29       0.7648      0.00000
     30       0.8815      0.00000
     31       0.8838      0.00000
     32       0.9261      0.00000


--------------------------------------------------------------------------------------------------------


 soft charge-density along one line, spin component           1
         0         1         2         3         4         5         6         7         8         9
 total charge-density along one line
 
 pseudopotential strength for first ion, spin component:           1
 -2.344  -4.039  -0.000  -0.002   0.000
 -4.039  -6.875  -0.000  -0.005   0.000
 -0.000  -0.000  -0.341  -0.000   0.000
 -0.002  -0.005  -0.000  -0.335  -0.000
  0.000   0.000   0.000  -0.000  -0.341
 total augmentation occupancy for first ion, spin component:           1
  2.991  -0.446   0.000   0.369  -0.025
 -0.446   0.066   0.000  -0.055   0.004
  0.000   0.000   0.000   0.000   0.000
  0.369  -0.055   0.000   0.046  -0.003
 -0.025   0.004   0.000  -0.003   0.000


------------------------ aborting loop because EDIFF is reached ----------------------------------------


    CHARGE:  cpu time    1.29: real time    1.29
    FORLOC:  cpu time    0.02: real time    0.02
    FORNL :  cpu time    0.28: real time    0.28
    STRESS:  cpu time    0.90: real time    0.90
    FORHAR:  cpu time    0.21: real time    0.22
    MIXING:  cpu time    0.03: real time    0.03

  Number of pair interactions contributing to Grimme's potential:      19
  Estimated vdW energy (eV):  -0.00002

  FORCE on cell =-STRESS in cart. coord.  units (eV):
  Direction    XX          YY          ZZ          XY          YZ          ZX
  --------------------------------------------------------------------------------------
  Alpha Z     0.00062     0.00062     0.00062
  Ewald      -1.00546    -1.09007    17.97223     0.00000    -0.00000    -1.26955
  Hartree     9.99917     9.98926    12.22028    -0.00000    -0.00000    -0.14841
  E(xc)      -5.96918    -5.97015    -5.75079    -0.00000     0.00000    -0.01461
  Local     -18.81210   -18.75219   -32.24322     0.00000    -0.00000     0.89816
  n-local    -5.36380    -5.35947    -6.29371     0.00000    -0.00000     0.06226
  augment     0.27345     0.27361     0.20425    -0.00000    -0.00000     0.00464
  Kinetic    20.80967    20.84110    13.76198     0.00000     0.00000     0.47162
  Fock        0.00000     0.00000     0.00000     0.00000     0.00000     0.00000
  -------------------------------------------------------------------------------------
  Total      -0.06762    -0.06728    -0.12833     0.00000     0.00000     0.00411
  in kB      -0.00693    -0.00690    -0.01316     0.00000     0.00000     0.00042
  external pressure =       -0.01 kB  Pullay stress =        0.00 kB


 VOLUME and BASIS-vectors are now :
 -----------------------------------------------------------------------------
  energy-cutoff  :      450.00
  volume of cell :    15625.00
      direct lattice vectors                 reciprocal lattice vectors
    25.000000000  0.000000000  0.000000000     0.040000000  0.000000000  0.000000000
     0.000000000 25.000000000  0.000000000     0.000000000  0.040000000  0.000000000
     0.000000000  0.000000000 25.000000000     0.000000000  0.000000000  0.040000000

  length of vectors
    25.000000000 25.000000000 25.000000000     0.040000000  0.040000000  0.040000000


 FORCES acting on ions
    electron-ion (+dipol)            ewald-force                    non-local-force                 convergence-correction
 -----------------------------------------------------------------------------------------------
   -.136E+01 0.476E-13 0.204E+02   0.169E+01 -.300E-18 -.254E+02   -.335E+00 0.000E+00 0.502E+01   0.280E-05 -.318E-14 -.130E-05
   0.136E+01 0.213E-13 -.204E+02   -.169E+01 0.271E-18 0.254E+02   0.335E+00 0.000E+00 -.502E+01   0.145E-05 -.446E-14 0.132E-05
 -----------------------------------------------------------------------------------------------
   -.259E-05 0.689E-13 0.241E-04   0.000E+00 -.291E-19 0.000E+00   -.555E-16 0.000E+00 0.888E-15   0.425E-05 -.764E-14 0.227E-07
 
 
 POSITION                                       TOTAL-FORCE (eV/Angst)
 -----------------------------------------------------------------------------------
     12.50000     12.50000     12.42474        -0.003880      0.000000      0.055421
     12.45000     12.50000     13.17526         0.003880      0.000000     -0.055421
 -----------------------------------------------------------------------------------
    total drift:                                0.000002      0.000000      0.000024


--------------------------------------------------------------------------------------------------------



  FREE ENERGIE OF THE ION-ELECTRON SYSTEM (eV)
  ---------------------------------------------------
  free  energy   TOTEN  =        -6.755584 eV

  energy  without entropy=       -6.766597  energy(sigma->0) =       -6.758337
 
 d Force =-0.5795200E-07[-0.388E-03, 0.388E-03]  d Energy = 0.9065574E-07-0.149E-06
 d Force =-0.5551115E-16[ 0.169E+00,-0.169E+00]  d Ewald  = 0.7105427E-14-0.711E-14


--------------------------------------------------------------------------------------------------------


    POTLOK:  cpu time    0.89: real time    0.89


--------------------------------------------------------------------------------------------------------


 stress matrix after NEB project (eV)
     -0.06762      0.00000      0.00411
      0.00000     -0.06728      0.00000
      0.00411      0.00000     -0.12833
  FORCES: max atom, RMS     0.055556    0.055556
  FORCE total and by dimension    0.078569    0.055421
  Stress total and by dimension    0.160002    0.128327
 Finite differences progress:
  Degree of freedom:   4/  6
  Displacement:        2/  2
  Total:               8/ 12
  LATTYP: Found a simple cubic cell.
 ALAT       =    25.0000000000
  
  Lattice vectors:
  
 A1 = (  25.0000000000,   0.0000000000,   0.0000000000)
 A2 = (   0.0000000000,  25.0000000000,   0.0000000000)
 A3 = (   0.0000000000,   0.0000000000,  25.0000000000)
 Subroutine PRICEL returns:
 Original cell was already a primitive cell.
 

Analysis of symmetry for initial positions (statically):

 Routine SETGRP: Setting up the symmetry group for a 
 simple cubic supercell.


 Subroutine GETGRP returns: Found  4 space group operations
 (whereof  2 operations were pure point group operations)
 out of a pool of 48 trial point group operations.


The static configuration has the point symmetry C_1h.
 The point group associated with its full space group is C_2h.

Analysis of symmetry for dynamics (positions and initial velocities):

 Subroutine DYNSYM returns: Found  4 space group operations
 (whereof  2 operations were pure point group operations)
 out of a pool of  4 trial space group operations
 (whereof  2 operations were pure point group operations)
 and found also     1 'primitive' translations


The dynamic configuration has the point symmetry C_1h.
 The point group associated with its full space group is C_2h.
 
 KPOINTS: k-points                                

Automatic generation of k-mesh.
 
 Subroutine IBZKPT returns following result:
 ===========================================
 
 Found      1 irreducible k-points:
 
 Following reciprocal coordinates:
            Coordinates               Weight
  0.000000  0.000000  0.000000      1.000000
 
 Following cartesian coordinates:
            Coordinates               Weight
  0.000000  0.000000  0.000000      1.000000
 
    WAVPRE:  cpu time    0.06: real time    0.06
    FEWALD:  cpu time    0.00: real time    0.00
    ORTHCH:  cpu time    0.16: real time    0.16
     LOOP+:  cpu time   43.82: real time   44.22


----------------------------------------- Iteration   10(   1)  ---------------------------------------


    POTLOK:  cpu time    0.89: real time    0.93
    SETDIJ:  cpu time    0.01: real time    0.01
     EDDAV:  cpu time    1.27: real time    1.29
       DOS:  cpu time    0.00: real time    0.00
    CHARGE:  cpu time    1.47: real time    1.48
    MIXING:  cpu time    0.02: real time    0.02
    --------------------------------------------
      LOOP:  cpu time    3.66: real time    3.73

 eigenvalue-minimisations  :    64
 total energy-change (2. order) :-0.5380394E-04  (-0.1760972E+00)
 number of electron       1.9999997 magnetization 
 augmentation part        0.0413744 magnetization 

 Broyden mixing:
  rms(total) = 0.32308E-01    rms(broyden)= 0.32238E-01
  rms(prec ) = 0.33140E-01
  weight for this iteration     100.00

 Free energy of the ion-electron system (eV)
  ---------------------------------------------------
  alpha Z        PSCENC =         0.00062366
  Ewald energy   TEWEN  =        15.87668674
  -1/2 Hartree   DENC   =       -32.20058013
  -exchange  EXHF       =         0.00000000
  -V(xc)+E(xc)   XCENC  =         5.29517027
  PAW double counting   =        23.76209458      -23.81103583
  entropy T*S    EENTRO =         0.01101221
  eigenvalues    EBANDS =       -20.65738214
  atomic energy  EATOM  =        24.96779543
  ---------------------------------------------------
  free energy    TOTEN  =        -6.75561520 eV

  energy without entropy =       -6.76662741  energy(sigma->0) =       -6.75836826


--------------------------------------------------------------------------------------------------------




----------------------------------------- Iteration   10(   2)  ---------------------------------------


    POTLOK:  cpu time    0.88: real time    0.88
    SETDIJ:  cpu time    0.00: real time    0.00
    EDDIAG:  cpu time    0.28: real time    0.29
  RMM-DIIS:  cpu time    0.87: real time    0.87
    ORTHCH:  cpu time    0.07: real time    0.07
       DOS:  cpu time    0.00: real time    0.00
    CHARGE:  cpu time    1.30: real time    1.30
    MIXING:  cpu time    0.02: real time    0.02
    --------------------------------------------
      LOOP:  cpu time    3.42: real time    3.44

 eigenvalue-minimisations  :    64
 total energy-change (2. order) : 0.5748547E-04  (-0.6342279E-03)
 number of electron       1.9999997 magnetization 
 augmentation part        0.0414911 magnetization 

 Broyden mixing:
  rms(total) = 0.20056E-01    rms(broyden)= 0.20051E-01
  rms(prec ) = 0.20635E-01
  weight for this iteration     100.00

 eigenvalues of (default mixing * dielectric matrix)
  average eigenvalue GAMMA=   2.5440
  2.5440

 Free energy of the ion-electron system (eV)
  ---------------------------------------------------
  alpha Z        PSCENC =         0.00062366
  Ewald energy   TEWEN  =        15.87668674
  -1/2 Hartree   DENC   =       -32.19541009
  -exchange  EXHF       =         0.00000000
  -V(xc)+E(xc)   XCENC  =         5.29429876
  PAW double counting   =        23.77760153      -23.82645911
  entropy T*S    EENTRO =         0.01101221
  eigenvalues    EBANDS =       -20.66170684
  atomic energy  EATOM  =        24.96779543
  ---------------------------------------------------
  free energy    TOTEN  =        -6.75555772 eV

  energy without entropy =       -6.76656993  energy(sigma->0) =       -6.75831077


--------------------------------------------------------------------------------------------------------




----------------------------------------- Iteration   10(   3)  ---------------------------------------


    POTLOK:  cpu time    0.88: real time    0.88
    SETDIJ:  cpu time    0.00: real time    0.00
    EDDIAG:  cpu time    0.28: real time    0.28
  RMM-DIIS:  cpu time    0.87: real time    0.88
    ORTHCH:  cpu time    0.07: real time    0.07
       DOS:  cpu time    0.00: real time    0.00
    CHARGE:  cpu time    1.34: real time    1.34
    MIXING:  cpu time    0.02: real time    0.02
    --------------------------------------------
      LOOP:  cpu time    3.47: real time    3.48

 eigenvalue-minimisations  :    64
 total energy-change (2. order) : 0.1057543E-03  (-0.1181525E-03)
 number of electron       1.9999997 magnetization 
 augmentation part        0.0414982 magnetization 

 Broyden mixing:
  rms(total) = 0.99333E-03    rms(broyden)= 0.98811E-03
  rms(prec ) = 0.11081E-02
  weight for this iteration     100.00

 eigenvalues of (default mixing * dielectric matrix)
  average eigenvalue GAMMA=   1.8215
  2.6141  1.0289

 Free energy of the ion-electron system (eV)
  ---------------------------------------------------
  alpha Z        PSCENC =         0.00062366
  Ewald energy   TEWEN  =        15.87668674
  -1/2 Hartree   DENC   =       -32.20908828
  -exchange  EXHF       =         0.00000000
  -V(xc)+E(xc)   XCENC  =         5.29592088
  PAW double counting   =        23.77845126      -23.82738750
  entropy T*S    EENTRO =         0.01101221
  eigenvalues    EBANDS =       -20.64946636
  atomic energy  EATOM  =        24.96779543
  ---------------------------------------------------
  free energy    TOTEN  =        -6.75545196 eV

  energy without entropy =       -6.76646417  energy(sigma->0) =       -6.75820502


--------------------------------------------------------------------------------------------------------




----------------------------------------- Iteration   10(   4)  ---------------------------------------


    POTLOK:  cpu time    0.99: real time    1.00
    SETDIJ:  cpu time    0.00: real time    0.00
    EDDIAG:  cpu time    0.28: real time    0.28
  RMM-DIIS:  cpu time    0.86: real time    0.86
    ORTHCH:  cpu time    0.07: real time    0.07
       DOS:  cpu time    0.00: real time    0.00
    CHARGE:  cpu time    1.30: real time    1.30
    MIXING:  cpu time    0.02: real time    0.02
    --------------------------------------------
      LOOP:  cpu time    3.53: real time    3.54

 eigenvalue-minimisations  :    64
 total energy-change (2. order) :-0.2836132E-04  (-0.1236036E-05)
 number of electron       1.9999997 magnetization 
 augmentation part        0.0414988 magnetization 

 Broyden mixing:
  rms(total) = 0.55587E-03    rms(broyden)= 0.55544E-03
  rms(prec ) = 0.63954E-03
  weight for this iteration     100.00

 eigenvalues of (default mixing * dielectric matrix)
  average eigenvalue GAMMA=   2.1830
  1.0001  2.9707  2.5783

 Free energy of the ion-electron system (eV)
  ---------------------------------------------------
  alpha Z        PSCENC =         0.00062366
  Ewald energy   TEWEN  =        15.87668674
  -1/2 Hartree   DENC   =       -32.20935836
  -exchange  EXHF       =         0.00000000
  -V(xc)+E(xc)   XCENC  =         5.29594361
  PAW double counting   =        23.77231348      -23.82125286
  entropy T*S    EENTRO =         0.01101221
  eigenvalues    EBANDS =       -20.64924422
  atomic energy  EATOM  =        24.96779543
  ---------------------------------------------------
  free energy    TOTEN  =        -6.75548033 eV

  energy without entropy =       -6.76649253  energy(sigma->0) =       -6.75823338


--------------------------------------------------------------------------------------------------------




----------------------------------------- Iteration   10(   5)  ---------------------------------------


    POTLOK:  cpu time    0.88: real time    0.88
    SETDIJ:  cpu time    0.00: real time    0.00
    EDDIAG:  cpu time    0.28: real time    0.29
  RMM-DIIS:  cpu time    0.88: real time    0.88
    ORTHCH:  cpu time    0.07: real time    0.07
       DOS:  cpu time    0.00: real time    0.00
    CHARGE:  cpu time    1.30: real time    1.30
    MIXING:  cpu time    0.02: real time    0.02
    --------------------------------------------
      LOOP:  cpu time    3.44: real time    3.45

 eigenvalue-minimisations  :    64
 total energy-change (2. order) :-0.3821924E-04  (-0.9490398E-06)
 number of electron       1.9999997 magnetization 
 augmentation part        0.0414991 magnetization 

 Broyden mixing:
  rms(total) = 0.93547E-04    rms(broyden)= 0.93413E-04
  rms(prec ) = 0.13349E-03
  weight for this iteration     100.00

 eigenvalues of (default mixing * dielectric matrix)
  average eigenvalue GAMMA=   2.0369
  2.9408  2.5943  0.9983  1.6139

 Free energy of the ion-electron system (eV)
  ---------------------------------------------------
  alpha Z        PSCENC =         0.00062366
  Ewald energy   TEWEN  =        15.87668674
  -1/2 Hartree   DENC   =       -32.20895007
  -exchange  EXHF       =         0.00000000
  -V(xc)+E(xc)   XCENC  =         5.29586283
  PAW double counting   =        23.76055103      -23.80949242
  entropy T*S    EENTRO =         0.01101221
  eigenvalues    EBANDS =       -20.64960795
  atomic energy  EATOM  =        24.96779543
  ---------------------------------------------------
  free energy    TOTEN  =        -6.75551854 eV

  energy without entropy =       -6.76653075  energy(sigma->0) =       -6.75827160


--------------------------------------------------------------------------------------------------------




----------------------------------------- Iteration   10(   6)  ---------------------------------------


    POTLOK:  cpu time    0.88: real time    0.88
    SETDIJ:  cpu time    0.00: real time    0.00
    EDDIAG:  cpu time    0.28: real time    0.28
  RMM-DIIS:  cpu time    0.86: real time    0.86
    ORTHCH:  cpu time    0.07: real time    0.07
       DOS:  cpu time    0.00: real time    0.00
    CHARGE:  cpu time    1.36: real time    1.38
    MIXING:  cpu time    0.02: real time    0.02
    --------------------------------------------
      LOOP:  cpu time    3.48: real time    3.51

 eigenvalue-minimisations  :    64
 total energy-change (2. order) :-0.1571516E-04  (-0.9242396E-07)
 number of electron       1.9999997 magnetization 
 augmentation part        0.0414991 magnetization 

 Broyden mixing:
  rms(total) = 0.48016E-04    rms(broyden)= 0.48004E-04
  rms(prec ) = 0.78475E-04
  weight for this iteration     100.00

 eigenvalues of (default mixing * dielectric matrix)
  average eigenvalue GAMMA=   2.2321
  3.8112  2.5701  2.8007  1.0021  0.9766

 Free energy of the ion-electron system (eV)
  ---------------------------------------------------
  alpha Z        PSCENC =         0.00062366
  Ewald energy   TEWEN  =        15.87668674
  -1/2 Hartree   DENC   =       -32.20886180
  -exchange  EXHF       =         0.00000000
  -V(xc)+E(xc)   XCENC  =         5.29584160
  PAW double counting   =        23.76182148      -23.81076277
  entropy T*S    EENTRO =         0.01101221
  eigenvalues    EBANDS =       -20.64969079
  atomic energy  EATOM  =        24.96779543
  ---------------------------------------------------
  free energy    TOTEN  =        -6.75553426 eV

  energy without entropy =       -6.76654647  energy(sigma->0) =       -6.75828731


--------------------------------------------------------------------------------------------------------




----------------------------------------- Iteration   10(   7)  ---------------------------------------


    POTLOK:  cpu time    0.88: real time    0.88
    SETDIJ:  cpu time    0.00: real time    0.00
    EDDIAG:  cpu time    0.28: real time    0.28
  RMM-DIIS:  cpu time    0.86: real time    0.86
    ORTHCH:  cpu time    0.07: real time    0.07
       DOS:  cpu time    0.00: real time    0.00
    CHARGE:  cpu time    1.31: real time    1.31
    MIXING:  cpu time    0.03: real time    0.03
    --------------------------------------------
      LOOP:  cpu time    3.43: real time    3.44

 eigenvalue-minimisations  :    64
 total energy-change (2. order) :-0.1328391E-04  (-0.1149174E-06)
 number of electron       1.9999997 magnetization 
 augmentation part        0.0414991 magnetization 

 Broyden mixing:
  rms(total) = 0.22779E-04    rms(broyden)= 0.22778E-04
  rms(prec ) = 0.38484E-04
  weight for this iteration     100.00

 eigenvalues of (default mixing * dielectric matrix)
  average eigenvalue GAMMA=   2.5660
  5.0020  3.1229  2.5609  2.7243  1.0006  0.9852

 Free energy of the ion-electron system (eV)
  ---------------------------------------------------
  alpha Z        PSCENC =         0.00062366
  Ewald energy   TEWEN  =        15.87668674
  -1/2 Hartree   DENC   =       -32.20877010
  -exchange  EXHF       =         0.00000000
  -V(xc)+E(xc)   XCENC  =         5.29582097
  PAW double counting   =        23.76254414      -23.81148543
  entropy T*S    EENTRO =         0.01101221
  eigenvalues    EBANDS =       -20.64977516
  atomic energy  EATOM  =        24.96779543
  ---------------------------------------------------
  free energy    TOTEN  =        -6.75554754 eV

  energy without entropy =       -6.76655975  energy(sigma->0) =       -6.75830060


--------------------------------------------------------------------------------------------------------




----------------------------------------- Iteration   10(   8)  ---------------------------------------


    POTLOK:  cpu time    0.90: real time    0.90
    SETDIJ:  cpu time    0.00: real time    0.00
    EDDIAG:  cpu time    0.28: real time    0.28
  RMM-DIIS:  cpu time    0.88: real time    0.88
    ORTHCH:  cpu time    0.07: real time    0.07
       DOS:  cpu time    0.00: real time    0.00
    CHARGE:  cpu time    1.31: real time    1.32
    MIXING:  cpu time    0.03: real time    0.03
    --------------------------------------------
      LOOP:  cpu time    3.47: real time    3.48

 eigenvalue-minimisations  :    64
 total energy-change (2. order) :-0.9530900E-05  (-0.5968299E-07)
 number of electron       1.9999997 magnetization 
 augmentation part        0.0414991 magnetization 

 Broyden mixing:
  rms(total) = 0.84927E-05    rms(broyden)= 0.84925E-05
  rms(prec ) = 0.14958E-04
  weight for this iteration     100.00

 eigenvalues of (default mixing * dielectric matrix)
  average eigenvalue GAMMA=   2.5122
  5.4254  3.4189  2.7298  2.5602  0.9999  0.9883  1.4631

 Free energy of the ion-electron system (eV)
  ---------------------------------------------------
  alpha Z        PSCENC =         0.00062366
  Ewald energy   TEWEN  =        15.87668674
  -1/2 Hartree   DENC   =       -32.20872336
  -exchange  EXHF       =         0.00000000
  -V(xc)+E(xc)   XCENC  =         5.29580872
  PAW double counting   =        23.76191486      -23.81085605
  entropy T*S    EENTRO =         0.01101221
  eigenvalues    EBANDS =       -20.64981928
  atomic energy  EATOM  =        24.96779543
  ---------------------------------------------------
  free energy    TOTEN  =        -6.75555707 eV

  energy without entropy =       -6.76656928  energy(sigma->0) =       -6.75831013


--------------------------------------------------------------------------------------------------------




----------------------------------------- Iteration   10(   9)  ---------------------------------------


    POTLOK:  cpu time    0.88: real time    0.88
    SETDIJ:  cpu time    0.00: real time    0.00
    EDDIAG:  cpu time    0.28: real time    0.28
  RMM-DIIS:  cpu time    0.86: real time    0.86
    ORTHCH:  cpu time    0.07: real time    0.07
       DOS:  cpu time    0.00: real time    0.00
    CHARGE:  cpu time    1.39: real time    1.39
    MIXING:  cpu time    0.03: real time    0.03
    --------------------------------------------
      LOOP:  cpu time    3.51: real time    3.52

 eigenvalue-minimisations  :    63
 total energy-change (2. order) :-0.2064093E-05  (-0.2747576E-08)
 number of electron       1.9999997 magnetization 
 augmentation part        0.0414991 magnetization 

 Broyden mixing:
  rms(total) = 0.57289E-05    rms(broyden)= 0.57289E-05
  rms(prec ) = 0.97962E-05
  weight for this iteration     100.00

 eigenvalues of (default mixing * dielectric matrix)
  average eigenvalue GAMMA=   2.7719
  6.8619  4.0508  3.0536  2.5526  2.6821  0.9875  0.9875  0.9992

 Free energy of the ion-electron system (eV)
  ---------------------------------------------------
  alpha Z        PSCENC =         0.00062366
  Ewald energy   TEWEN  =        15.87668674
  -1/2 Hartree   DENC   =       -32.20871675
  -exchange  EXHF       =         0.00000000
  -V(xc)+E(xc)   XCENC  =         5.29580625
  PAW double counting   =        23.76198172      -23.81092291
  entropy T*S    EENTRO =         0.01101221
  eigenvalues    EBANDS =       -20.64982548
  atomic energy  EATOM  =        24.96779543
  ---------------------------------------------------
  free energy    TOTEN  =        -6.75555914 eV

  energy without entropy =       -6.76657135  energy(sigma->0) =       -6.75831219


--------------------------------------------------------------------------------------------------------




----------------------------------------- Iteration   10(  10)  ---------------------------------------


    POTLOK:  cpu time    0.88: real time    0.88
    SETDIJ:  cpu time    0.00: real time    0.00
    EDDIAG:  cpu time    0.28: real time    0.28
  RMM-DIIS:  cpu time    0.83: real time    0.88
    ORTHCH:  cpu time    0.08: real time    0.08
       DOS:  cpu time    0.00: real time    0.00
    CHARGE:  cpu time    1.31: real time    1.31
    MIXING:  cpu time    0.03: real time    0.03
    --------------------------------------------
      LOOP:  cpu time    3.41: real time    3.47

 eigenvalue-minimisations  :    63
 total energy-change (2. order) :-0.1808007E-05  (-0.2860219E-08)
 number of electron       1.9999997 magnetization 
 augmentation part        0.0414991 magnetization 

 Broyden mixing:
  rms(total) = 0.25385E-05    rms(broyden)= 0.25385E-05
  rms(prec ) = 0.40789E-05
  weight for this iteration     100.00

 eigenvalues of (default mixing * dielectric matrix)
  average eigenvalue GAMMA=   2.9834
  7.8403  4.5420  3.4993  2.8535  2.6181  2.5274  0.9962  0.9868  0.9868

 Free energy of the ion-electron system (eV)
  ---------------------------------------------------
  alpha Z        PSCENC =         0.00062366
  Ewald energy   TEWEN  =        15.87668674
  -1/2 Hartree   DENC   =       -32.20870728
  -exchange  EXHF       =         0.00000000
  -V(xc)+E(xc)   XCENC  =         5.29580333
  PAW double counting   =        23.76213314      -23.81107434
  entropy T*S    EENTRO =         0.01101221
  eigenvalues    EBANDS =       -20.64983382
  atomic energy  EATOM  =        24.96779543
  ---------------------------------------------------
  free energy    TOTEN  =        -6.75556095 eV

  energy without entropy =       -6.76657315  energy(sigma->0) =       -6.75831400


--------------------------------------------------------------------------------------------------------




----------------------------------------- Iteration   10(  11)  ---------------------------------------


    POTLOK:  cpu time    0.88: real time    0.88
    SETDIJ:  cpu time    0.00: real time    0.00
    EDDIAG:  cpu time    0.28: real time    0.28
  RMM-DIIS:  cpu time    0.87: real time    0.87
    ORTHCH:  cpu time    0.07: real time    0.07
       DOS:  cpu time    0.00: real time    0.00
    --------------------------------------------
      LOOP:  cpu time    2.10: real time    2.11

 eigenvalue-minimisations  :    62
 total energy-change (2. order) :-0.7317180E-06  ( 0.0000000E+00)
 number of electron       1.9999997 magnetization 
 augmentation part        0.0414991 magnetization 

 Free energy of the ion-electron system (eV)
  ---------------------------------------------------
  alpha Z        PSCENC =         0.00062366
  Ewald energy   TEWEN  =        15.87668674
  -1/2 Hartree   DENC   =       -32.20871166
  -exchange  EXHF       =         0.00000000
  -V(xc)+E(xc)   XCENC  =         5.29580338
  PAW double counting   =        23.76207052      -23.81101173
  entropy T*S    EENTRO =         0.01101221
  eigenvalues    EBANDS =       -20.64983023
  atomic energy  EATOM  =        24.96779543
  ---------------------------------------------------
  free energy    TOTEN  =        -6.75556168 eV

  energy without entropy =       -6.76657389  energy(sigma->0) =       -6.75831473


--------------------------------------------------------------------------------------------------------




 average (electrostatic) potential at core
  the test charge radii are     0.5201
  (the norm of the test charge is              1.0000)
       1 -41.6177       2 -41.6184
 
 
 
 E-fermi : -10.1983     XC(G=0):  -0.0402     alpha+bet : -0.0035


 k-point   1 :       0.0000    0.0000    0.0000
  band No.  band energies     occupation 
      1     -10.3249      2.00000
      2      -0.0362      0.00000
      3       0.1257      0.00000
      4       0.1510      0.00000
      5       0.2084      0.00000
      6       0.2126      0.00000
      7       0.2240      0.00000
      8       0.2252      0.00000
      9       0.2868      0.00000
     10       0.3966      0.00000
     11       0.4137      0.00000
     12       0.4156      0.00000
     13       0.4604      0.00000
     14       0.4617      0.00000
     15       0.4630      0.00000
     16       0.4646      0.00000
     17       0.4646      0.00000
     18       0.4673      0.00000
     19       0.4676      0.00000
     20       0.4691      0.00000
     21       0.5534      0.00000
     22       0.6599      0.00000
     23       0.6613      0.00000
     24       0.6769      0.00000
     25       0.7008      0.00000
     26       0.7031      0.00000
     27       0.7050      0.00000
     28       0.7075      0.00000
     29       0.7645      0.00000
     30       0.8823      0.00000
     31       0.8831      0.00000
     32       0.9270      0.00000


--------------------------------------------------------------------------------------------------------


 soft charge-density along one line, spin component           1
         0         1         2         3         4         5         6         7         8         9
 total charge-density along one line
 
 pseudopotential strength for first ion, spin component:           1
 -2.344  -4.039  -0.000  -0.002   0.000
 -4.039  -6.875  -0.000  -0.005   0.000
 -0.000  -0.000  -0.341   0.000   0.000
 -0.002  -0.005   0.000  -0.335   0.000
  0.000   0.000   0.000   0.000  -0.341
 total augmentation occupancy for first ion, spin component:           1
  2.991  -0.446   0.025   0.369   0.000
 -0.446   0.066  -0.004  -0.055   0.000
  0.025  -0.004   0.000   0.003   0.000
  0.369  -0.055   0.003   0.046   0.000
  0.000   0.000   0.000   0.000   0.000


------------------------ aborting loop because EDIFF is reached ----------------------------------------


    CHARGE:  cpu time    1.30: real time    1.30
    FORLOC:  cpu time    0.02: real time    0.02
    FORNL :  cpu time    0.31: real time    0.31
    STRESS:  cpu time    0.90: real time    0.90
    FORHAR:  cpu time    0.22: real time    0.22
    MIXING:  cpu time    0.03: real time    0.03

  Number of pair interactions contributing to Grimme's potential:      19
  Estimated vdW energy (eV):  -0.00002

  FORCE on cell =-STRESS in cart. coord.  units (eV):
  Direction    XX          YY          ZZ          XY          YZ          ZX
  --------------------------------------------------------------------------------------
  Alpha Z     0.00062     0.00062     0.00062
  Ewald      -1.09007    -1.00546    17.97223     0.00000     1.26955    -0.00000
  Hartree     9.98926     9.99917    12.22028     0.00000     0.14841    -0.00000
  E(xc)      -5.97015    -5.96918    -5.75079     0.00000     0.01461     0.00000
  Local     -18.75219   -18.81210   -32.24322    -0.00000    -0.89816     0.00000
  n-local    -5.35947    -5.36380    -6.29371     0.00000    -0.06226     0.00000
  augment     0.27361     0.27345     0.20425     0.00000    -0.00464     0.00000
  Kinetic    20.84110    20.80967    13.76198     0.00000    -0.47162     0.00000
  Fock        0.00000     0.00000     0.00000     0.00000     0.00000     0.00000
  -------------------------------------------------------------------------------------
  Total      -0.06728    -0.06762    -0.12833     0.00000    -0.00411     0.00000
  in kB      -0.00690    -0.00693    -0.01316     0.00000    -0.00042     0.00000
  external pressure =       -0.01 kB  Pullay stress =        0.00 kB


 VOLUME and BASIS-vectors are now :
 -----------------------------------------------------------------------------
  energy-cutoff  :      450.00
  volume of cell :    15625.00
      direct lattice vectors                 reciprocal lattice vectors
    25.000000000  0.000000000  0.000000000     0.040000000  0.000000000  0.000000000
     0.000000000 25.000000000  0.000000000     0.000000000  0.040000000  0.000000000
     0.000000000  0.000000000 25.000000000     0.000000000  0.000000000  0.040000000

  length of vectors
    25.000000000 25.000000000 25.000000000     0.040000000  0.040000000  0.040000000


 FORCES acting on ions
    electron-ion (+dipol)            ewald-force                    non-local-force                 convergence-correction
 -----------------------------------------------------------------------------------------------
   0.477E-13 0.136E+01 0.204E+02   -.649E-18 -.169E+01 -.254E+02   0.000E+00 0.335E+00 0.502E+01   -.111E-05 -.124E-05 0.427E-06
   0.475E-13 -.136E+01 -.204E+02   0.544E-18 0.169E+01 0.254E+02   0.000E+00 -.335E+00 -.502E+01   -.901E-06 -.785E-06 -.413E-06
 -----------------------------------------------------------------------------------------------
   0.952E-13 0.259E-05 0.241E-04   -.105E-18 0.000E+00 0.000E+00   0.000E+00 0.000E+00 0.000E+00   -.201E-05 -.202E-05 0.145E-07
 
 
 POSITION                                       TOTAL-FORCE (eV/Angst)
 -----------------------------------------------------------------------------------
     12.50000     12.50000     12.42474         0.000000      0.003881      0.055421
     12.50000     12.55000     13.17526         0.000000     -0.003881     -0.055421
 -----------------------------------------------------------------------------------
    total drift:                               -0.000002      0.000001      0.000024


--------------------------------------------------------------------------------------------------------



  FREE ENERGIE OF THE ION-ELECTRON SYSTEM (eV)
  ---------------------------------------------------
  free  energy   TOTEN  =        -6.755584 eV

  energy  without entropy=       -6.766597  energy(sigma->0) =       -6.758337
 
 d Force =-0.3492826E-07[-0.194E-03, 0.194E-03]  d Energy = 0.3087406E-07-0.658E-07
 d Force = 0.1387779E-16[ 0.846E-01,-0.846E-01]  d Ewald  =-0.7105427E-14 0.711E-14


--------------------------------------------------------------------------------------------------------


    POTLOK:  cpu time    0.90: real time    0.93


--------------------------------------------------------------------------------------------------------


 stress matrix after NEB project (eV)
     -0.06728      0.00000      0.00000
      0.00000     -0.06762     -0.00411
      0.00000     -0.00411     -0.12833
  FORCES: max atom, RMS     0.055557    0.055557
  FORCE total and by dimension    0.078569    0.055421
  Stress total and by dimension    0.160004    0.128328
 Finite differences progress:
  Degree of freedom:   5/  6
  Displacement:        1/  2
  Total:               9/ 12
  LATTYP: Found a simple cubic cell.
 ALAT       =    25.0000000000
  
  Lattice vectors:
  
 A1 = (  25.0000000000,   0.0000000000,   0.0000000000)
 A2 = (   0.0000000000,  25.0000000000,   0.0000000000)
 A3 = (   0.0000000000,   0.0000000000,  25.0000000000)
 Subroutine PRICEL returns:
 Original cell was already a primitive cell.
 

Analysis of symmetry for initial positions (statically):

 Routine SETGRP: Setting up the symmetry group for a 
 simple cubic supercell.


 Subroutine GETGRP returns: Found  4 space group operations
 (whereof  2 operations were pure point group operations)
 out of a pool of 48 trial point group operations.


The static configuration has the point symmetry C_1h.
 The point group associated with its full space group is C_2h.

Analysis of symmetry for dynamics (positions and initial velocities):

 Subroutine DYNSYM returns: Found  4 space group operations
 (whereof  2 operations were pure point group operations)
 out of a pool of  4 trial space group operations
 (whereof  2 operations were pure point group operations)
 and found also     1 'primitive' translations


The dynamic configuration has the point symmetry C_1h.
 The point group associated with its full space group is C_2h.
 
 KPOINTS: k-points                                

Automatic generation of k-mesh.
 
 Subroutine IBZKPT returns following result:
 ===========================================
 
 Found      1 irreducible k-points:
 
 Following reciprocal coordinates:
            Coordinates               Weight
  0.000000  0.000000  0.000000      1.000000
 
 Following cartesian coordinates:
            Coordinates               Weight
  0.000000  0.000000  0.000000      1.000000
 
    WAVPRE:  cpu time    0.06: real time    0.06
    FEWALD:  cpu time    0.00: real time    0.00
    ORTHCH:  cpu time    0.19: real time    0.20
     LOOP+:  cpu time   41.00: real time   41.30


----------------------------------------- Iteration   11(   1)  ---------------------------------------


    POTLOK:  cpu time    0.89: real time    0.89
    SETDIJ:  cpu time    0.00: real time    0.00
     EDDAV:  cpu time    1.22: real time    1.24
       DOS:  cpu time    0.00: real time    0.00
    CHARGE:  cpu time    1.44: real time    1.45
    MIXING:  cpu time    0.02: real time    0.02
    --------------------------------------------
      LOOP:  cpu time    3.58: real time    3.61

 eigenvalue-minimisations  :    64
 total energy-change (2. order) : 0.7679957E-05  (-0.3500623E+00)
 number of electron       1.9999997 magnetization 
 augmentation part        0.0412979 magnetization 

 Broyden mixing:
  rms(total) = 0.45432E-01    rms(broyden)= 0.45339E-01
  rms(prec ) = 0.46612E-01
  weight for this iteration     100.00

 Free energy of the ion-electron system (eV)
  ---------------------------------------------------
  alpha Z        PSCENC =         0.00062366
  Ewald energy   TEWEN  =        15.87668674
  -1/2 Hartree   DENC   =       -32.19248896
  -exchange  EXHF       =         0.00000000
  -V(xc)+E(xc)   XCENC  =         5.29454621
  PAW double counting   =        23.76206167      -23.81100287
  entropy T*S    EENTRO =         0.01101221
  eigenvalues    EBANDS =       -20.66478735
  atomic energy  EATOM  =        24.96779543
  ---------------------------------------------------
  free energy    TOTEN  =        -6.75555327 eV

  energy without entropy =       -6.76656547  energy(sigma->0) =       -6.75830632


--------------------------------------------------------------------------------------------------------




----------------------------------------- Iteration   11(   2)  ---------------------------------------


    POTLOK:  cpu time    0.88: real time    0.88
    SETDIJ:  cpu time    0.00: real time    0.00
    EDDIAG:  cpu time    0.26: real time    0.30
  RMM-DIIS:  cpu time    0.86: real time    0.87
    ORTHCH:  cpu time    0.07: real time    0.07
       DOS:  cpu time    0.00: real time    0.00
    CHARGE:  cpu time    1.30: real time    1.31
    MIXING:  cpu time    0.02: real time    0.02
    --------------------------------------------
      LOOP:  cpu time    3.41: real time    3.46

 eigenvalue-minimisations  :    64
 total energy-change (2. order) :-0.7511823E-04  (-0.1338767E-02)
 number of electron       1.9999997 magnetization 
 augmentation part        0.0414853 magnetization 

 Broyden mixing:
  rms(total) = 0.28322E-01    rms(broyden)= 0.28315E-01
  rms(prec ) = 0.29141E-01
  weight for this iteration     100.00

 eigenvalues of (default mixing * dielectric matrix)
  average eigenvalue GAMMA=   2.5269
  2.5269

 Free energy of the ion-electron system (eV)
  ---------------------------------------------------
  alpha Z        PSCENC =         0.00062366
  Ewald energy   TEWEN  =        15.87668674
  -1/2 Hartree   DENC   =       -32.18709509
  -exchange  EXHF       =         0.00000000
  -V(xc)+E(xc)   XCENC  =         5.29346877
  PAW double counting   =        23.79529968      -23.84410920
  entropy T*S    EENTRO =         0.01101221
  eigenvalues    EBANDS =       -20.66931059
  atomic energy  EATOM  =        24.96779543
  ---------------------------------------------------
  free energy    TOTEN  =        -6.75562839 eV

  energy without entropy =       -6.76664059  energy(sigma->0) =       -6.75838144


--------------------------------------------------------------------------------------------------------




----------------------------------------- Iteration   11(   3)  ---------------------------------------


    POTLOK:  cpu time    0.88: real time    0.88
    SETDIJ:  cpu time    0.00: real time    0.00
    EDDIAG:  cpu time    0.28: real time    0.28
  RMM-DIIS:  cpu time    0.87: real time    0.87
    ORTHCH:  cpu time    0.07: real time    0.08
       DOS:  cpu time    0.00: real time    0.00
    CHARGE:  cpu time    1.34: real time    1.34
    MIXING:  cpu time    0.02: real time    0.02
    --------------------------------------------
      LOOP:  cpu time    3.47: real time    3.49

 eigenvalue-minimisations  :    64
 total energy-change (2. order) : 0.2526981E-03  (-0.2352885E-03)
 number of electron       1.9999997 magnetization 
 augmentation part        0.0414974 magnetization 

 Broyden mixing:
  rms(total) = 0.15603E-02    rms(broyden)= 0.15528E-02
  rms(prec ) = 0.17226E-02
  weight for this iteration     100.00

 eigenvalues of (default mixing * dielectric matrix)
  average eigenvalue GAMMA=   1.8232
  2.6187  1.0278

 Free energy of the ion-electron system (eV)
  ---------------------------------------------------
  alpha Z        PSCENC =         0.00062366
  Ewald energy   TEWEN  =        15.87668674
  -1/2 Hartree   DENC   =       -32.20982127
  -exchange  EXHF       =         0.00000000
  -V(xc)+E(xc)   XCENC  =         5.29607689
  PAW double counting   =        23.79125889      -23.84019104
  entropy T*S    EENTRO =         0.01101221
  eigenvalues    EBANDS =       -20.64881719
  atomic energy  EATOM  =        24.96779543
  ---------------------------------------------------
  free energy    TOTEN  =        -6.75537569 eV

  energy without entropy =       -6.76638789  energy(sigma->0) =       -6.75812874


--------------------------------------------------------------------------------------------------------




----------------------------------------- Iteration   11(   4)  ---------------------------------------


    POTLOK:  cpu time    0.88: real time    0.88
    SETDIJ:  cpu time    0.00: real time    0.00
    EDDIAG:  cpu time    0.28: real time    0.29
  RMM-DIIS:  cpu time    0.86: real time    0.86
    ORTHCH:  cpu time    0.07: real time    0.07
       DOS:  cpu time    0.00: real time    0.00
    CHARGE:  cpu time    1.31: real time    1.31
    MIXING:  cpu time    0.05: real time    0.05
    --------------------------------------------
      LOOP:  cpu time    3.45: real time    3.47

 eigenvalue-minimisations  :    64
 total energy-change (2. order) :-0.4302096E-04  (-0.2866091E-05)
 number of electron       1.9999997 magnetization 
 augmentation part        0.0414984 magnetization 

 Broyden mixing:
  rms(total) = 0.80944E-03    rms(broyden)= 0.80874E-03
  rms(prec ) = 0.92828E-03
  weight for this iteration     100.00

 eigenvalues of (default mixing * dielectric matrix)
  average eigenvalue GAMMA=   2.1934
  1.0007  3.0025  2.5768

 Free energy of the ion-electron system (eV)
  ---------------------------------------------------
  alpha Z        PSCENC =         0.00062366
  Ewald energy   TEWEN  =        15.87668674
  -1/2 Hartree   DENC   =       -32.21025826
  -exchange  EXHF       =         0.00000000
  -V(xc)+E(xc)   XCENC  =         5.29610779
  PAW double counting   =        23.78010555      -23.82904359
  entropy T*S    EENTRO =         0.01101221
  eigenvalues    EBANDS =       -20.64844822
  atomic energy  EATOM  =        24.96779543
  ---------------------------------------------------
  free energy    TOTEN  =        -6.75541871 eV

  energy without entropy =       -6.76643092  energy(sigma->0) =       -6.75817176


--------------------------------------------------------------------------------------------------------




----------------------------------------- Iteration   11(   5)  ---------------------------------------


    POTLOK:  cpu time    0.90: real time    0.90
    SETDIJ:  cpu time    0.00: real time    0.00
    EDDIAG:  cpu time    0.28: real time    0.28
  RMM-DIIS:  cpu time    0.87: real time    0.87
    ORTHCH:  cpu time    0.07: real time    0.07
       DOS:  cpu time    0.00: real time    0.00
    CHARGE:  cpu time    1.29: real time    1.30
    MIXING:  cpu time    0.02: real time    0.02
    --------------------------------------------
      LOOP:  cpu time    3.44: real time    3.45

 eigenvalue-minimisations  :    64
 total energy-change (2. order) :-0.6881050E-04  (-0.1910819E-05)
 number of electron       1.9999997 magnetization 
 augmentation part        0.0414992 magnetization 

 Broyden mixing:
  rms(total) = 0.13766E-03    rms(broyden)= 0.13742E-03
  rms(prec ) = 0.19390E-03
  weight for this iteration     100.00

 eigenvalues of (default mixing * dielectric matrix)
  average eigenvalue GAMMA=   1.9883
  2.9403  2.5969  0.9992  1.4168

 Free energy of the ion-electron system (eV)
  ---------------------------------------------------
  alpha Z        PSCENC =         0.00062366
  Ewald energy   TEWEN  =        15.87668674
  -1/2 Hartree   DENC   =       -32.20906747
  -exchange  EXHF       =         0.00000000
  -V(xc)+E(xc)   XCENC  =         5.29589383
  PAW double counting   =        23.75902245      -23.80796337
  entropy T*S    EENTRO =         0.01101221
  eigenvalues    EBANDS =       -20.64949100
  atomic energy  EATOM  =        24.96779543
  ---------------------------------------------------
  free energy    TOTEN  =        -6.75548752 eV

  energy without entropy =       -6.76649973  energy(sigma->0) =       -6.75824057


--------------------------------------------------------------------------------------------------------




----------------------------------------- Iteration   11(   6)  ---------------------------------------


    POTLOK:  cpu time    0.88: real time    0.88
    SETDIJ:  cpu time    0.00: real time    0.00
    EDDIAG:  cpu time    0.28: real time    0.28
  RMM-DIIS:  cpu time    0.85: real time    0.87
    ORTHCH:  cpu time    0.07: real time    0.07
       DOS:  cpu time    0.00: real time    0.00
    CHARGE:  cpu time    1.32: real time    1.32
    MIXING:  cpu time    0.02: real time    0.02
    --------------------------------------------
      LOOP:  cpu time    3.42: real time    3.46

 eigenvalue-minimisations  :    64
 total energy-change (2. order) :-0.2426701E-04  (-0.1371290E-06)
 number of electron       1.9999997 magnetization 
 augmentation part        0.0414991 magnetization 

 Broyden mixing:
  rms(total) = 0.79520E-04    rms(broyden)= 0.79501E-04
  rms(prec ) = 0.12561E-03
  weight for this iteration     100.00

 eigenvalues of (default mixing * dielectric matrix)
  average eigenvalue GAMMA=   2.2292
  3.7957  2.5713  2.8086  1.0009  0.9698

 Free energy of the ion-electron system (eV)
  ---------------------------------------------------
  alpha Z        PSCENC =         0.00062366
  Ewald energy   TEWEN  =        15.87668674
  -1/2 Hartree   DENC   =       -32.20899379
  -exchange  EXHF       =         0.00000000
  -V(xc)+E(xc)   XCENC  =         5.29587201
  PAW double counting   =        23.76129955      -23.81024076
  entropy T*S    EENTRO =         0.01101221
  eigenvalues    EBANDS =       -20.64956683
  atomic energy  EATOM  =        24.96779543
  ---------------------------------------------------
  free energy    TOTEN  =        -6.75551179 eV

  energy without entropy =       -6.76652399  energy(sigma->0) =       -6.75826484


--------------------------------------------------------------------------------------------------------




----------------------------------------- Iteration   11(   7)  ---------------------------------------


    POTLOK:  cpu time    0.88: real time    0.89
    SETDIJ:  cpu time    0.00: real time    0.00
    EDDIAG:  cpu time    0.28: real time    0.29
  RMM-DIIS:  cpu time    0.87: real time    0.88
    ORTHCH:  cpu time    0.07: real time    0.08
       DOS:  cpu time    0.00: real time    0.00
    CHARGE:  cpu time    1.32: real time    1.32
    MIXING:  cpu time    0.03: real time    0.03
    --------------------------------------------
      LOOP:  cpu time    3.45: real time    3.48

 eigenvalue-minimisations  :    64
 total energy-change (2. order) :-0.2624879E-04  (-0.2722888E-06)
 number of electron       1.9999997 magnetization 
 augmentation part        0.0414991 magnetization 

 Broyden mixing:
  rms(total) = 0.33151E-04    rms(broyden)= 0.33149E-04
  rms(prec ) = 0.55976E-04
  weight for this iteration     100.00

 eigenvalues of (default mixing * dielectric matrix)
  average eigenvalue GAMMA=   2.4852
  4.7615  2.8748  2.5666  2.7281  1.0016  0.9786

 Free energy of the ion-electron system (eV)
  ---------------------------------------------------
  alpha Z        PSCENC =         0.00062366
  Ewald energy   TEWEN  =        15.87668674
  -1/2 Hartree   DENC   =       -32.20885241
  -exchange  EXHF       =         0.00000000
  -V(xc)+E(xc)   XCENC  =         5.29583862
  PAW double counting   =        23.76300611      -23.81194776
  entropy T*S    EENTRO =         0.01101221
  eigenvalues    EBANDS =       -20.64970063
  atomic energy  EATOM  =        24.96779543
  ---------------------------------------------------
  free energy    TOTEN  =        -6.75553803 eV

  energy without entropy =       -6.76655024  energy(sigma->0) =       -6.75829109


--------------------------------------------------------------------------------------------------------




----------------------------------------- Iteration   11(   8)  ---------------------------------------


    POTLOK:  cpu time    0.88: real time    0.88
    SETDIJ:  cpu time    0.00: real time    0.00
    EDDIAG:  cpu time    0.28: real time    0.29
  RMM-DIIS:  cpu time    0.87: real time    0.87
    ORTHCH:  cpu time    0.07: real time    0.07
       DOS:  cpu time    0.00: real time    0.00
    CHARGE:  cpu time    1.38: real time    1.38
    MIXING:  cpu time    0.03: real time    0.03
    --------------------------------------------
      LOOP:  cpu time    3.51: real time    3.52

 eigenvalue-minimisations  :    64
 total energy-change (2. order) :-0.1530320E-04  (-0.1014760E-06)
 number of electron       1.9999997 magnetization 
 augmentation part        0.0414991 magnetization 

 Broyden mixing:
  rms(total) = 0.12831E-04    rms(broyden)= 0.12831E-04
  rms(prec ) = 0.23368E-04
  weight for this iteration     100.00

 eigenvalues of (default mixing * dielectric matrix)
  average eigenvalue GAMMA=   2.4384
  5.3337  3.3554  2.5580  2.7240  1.0057  0.9839  1.1078

 Free energy of the ion-electron system (eV)
  ---------------------------------------------------
  alpha Z        PSCENC =         0.00062366
  Ewald energy   TEWEN  =        15.87668674
  -1/2 Hartree   DENC   =       -32.20870915
  -exchange  EXHF       =         0.00000000
  -V(xc)+E(xc)   XCENC  =         5.29580930
  PAW double counting   =        23.76177546      -23.81071643
  entropy T*S    EENTRO =         0.01101221
  eigenvalues    EBANDS =       -20.64983055
  atomic energy  EATOM  =        24.96779543
  ---------------------------------------------------
  free energy    TOTEN  =        -6.75555334 eV

  energy without entropy =       -6.76656555  energy(sigma->0) =       -6.75830639


--------------------------------------------------------------------------------------------------------




----------------------------------------- Iteration   11(   9)  ---------------------------------------


    POTLOK:  cpu time    0.90: real time    0.90
    SETDIJ:  cpu time    0.00: real time    0.00
    EDDIAG:  cpu time    0.28: real time    0.28
  RMM-DIIS:  cpu time    0.88: real time    0.89
    ORTHCH:  cpu time    0.07: real time    0.08
       DOS:  cpu time    0.00: real time    0.00
    CHARGE:  cpu time    1.30: real time    1.30
    MIXING:  cpu time    0.03: real time    0.03
    --------------------------------------------
      LOOP:  cpu time    3.47: real time    3.49

 eigenvalue-minimisations  :    63
 total energy-change (2. order) :-0.3319170E-05  (-0.7297896E-08)
 number of electron       1.9999997 magnetization 
 augmentation part        0.0414991 magnetization 

 Broyden mixing:
  rms(total) = 0.95723E-05    rms(broyden)= 0.95722E-05
  rms(prec ) = 0.16086E-04
  weight for this iteration     100.00

 eigenvalues of (default mixing * dielectric matrix)
  average eigenvalue GAMMA=   2.7626
  6.8074  4.0746  3.0274  2.5487  2.6741  0.9977  0.9854  0.9854

 Free energy of the ion-electron system (eV)
  ---------------------------------------------------
  alpha Z        PSCENC =         0.00062366
  Ewald energy   TEWEN  =        15.87668674
  -1/2 Hartree   DENC   =       -32.20870255
  -exchange  EXHF       =         0.00000000
  -V(xc)+E(xc)   XCENC  =         5.29580619
  PAW double counting   =        23.76181064      -23.81075164
  entropy T*S    EENTRO =         0.01101221
  eigenvalues    EBANDS =       -20.64983732
  atomic energy  EATOM  =        24.96779543
  ---------------------------------------------------
  free energy    TOTEN  =        -6.75555666 eV

  energy without entropy =       -6.76656886  energy(sigma->0) =       -6.75830971


--------------------------------------------------------------------------------------------------------




----------------------------------------- Iteration   11(  10)  ---------------------------------------


    POTLOK:  cpu time    0.88: real time    0.88
    SETDIJ:  cpu time    0.00: real time    0.00
    EDDIAG:  cpu time    0.28: real time    0.29
  RMM-DIIS:  cpu time    0.87: real time    0.87
    ORTHCH:  cpu time    0.07: real time    0.07
       DOS:  cpu time    0.00: real time    0.00
    CHARGE:  cpu time    1.30: real time    1.30
    MIXING:  cpu time    0.03: real time    0.03
    --------------------------------------------
      LOOP:  cpu time    3.43: real time    3.44

 eigenvalue-minimisations  :    63
 total energy-change (2. order) :-0.3574290E-05  (-0.7005749E-08)
 number of electron       1.9999997 magnetization 
 augmentation part        0.0414991 magnetization 

 Broyden mixing:
  rms(total) = 0.38403E-05    rms(broyden)= 0.38403E-05
  rms(prec ) = 0.60986E-05
  weight for this iteration     100.00

 eigenvalues of (default mixing * dielectric matrix)
  average eigenvalue GAMMA=   2.9248
  7.6666  4.2008  3.5751  2.8191  2.5917  2.4943  1.0005  0.9874  0.9874

 Free energy of the ion-electron system (eV)
  ---------------------------------------------------
  alpha Z        PSCENC =         0.00062366
  Ewald energy   TEWEN  =        15.87668674
  -1/2 Hartree   DENC   =       -32.20872514
  -exchange  EXHF       =         0.00000000
  -V(xc)+E(xc)   XCENC  =         5.29580646
  PAW double counting   =        23.76222726      -23.81116866
  entropy T*S    EENTRO =         0.01101221
  eigenvalues    EBANDS =       -20.64981819
  atomic energy  EATOM  =        24.96779543
  ---------------------------------------------------
  free energy    TOTEN  =        -6.75556023 eV

  energy without entropy =       -6.76657244  energy(sigma->0) =       -6.75831328


--------------------------------------------------------------------------------------------------------




----------------------------------------- Iteration   11(  11)  ---------------------------------------


    POTLOK:  cpu time    0.88: real time    0.88
    SETDIJ:  cpu time    0.01: real time    0.01
    EDDIAG:  cpu time    0.30: real time    0.31
  RMM-DIIS:  cpu time    0.86: real time    0.86
    ORTHCH:  cpu time    0.08: real time    0.08
       DOS:  cpu time    0.00: real time    0.00
    CHARGE:  cpu time    1.33: real time    1.33
    MIXING:  cpu time    0.03: real time    0.03
    --------------------------------------------
      LOOP:  cpu time    3.50: real time    3.51

 eigenvalue-minimisations  :    63
 total energy-change (2. order) :-0.1190437E-05  (-0.9251444E-09)
 number of electron       1.9999997 magnetization 
 augmentation part        0.0414991 magnetization 

 Broyden mixing:
  rms(total) = 0.14370E-05    rms(broyden)= 0.14370E-05
  rms(prec ) = 0.24151E-05
  weight for this iteration     100.00

 eigenvalues of (default mixing * dielectric matrix)
  average eigenvalue GAMMA=   2.8941
  8.2986  4.9650  3.5390  2.9121  2.5437  2.6498  0.9834  0.9963  1.0267  1.0267

 Free energy of the ion-electron system (eV)
  ---------------------------------------------------
  alpha Z        PSCENC =         0.00062366
  Ewald energy   TEWEN  =        15.87668674
  -1/2 Hartree   DENC   =       -32.20870806
  -exchange  EXHF       =         0.00000000
  -V(xc)+E(xc)   XCENC  =         5.29580304
  PAW double counting   =        23.76205866      -23.81099981
  entropy T*S    EENTRO =         0.01101221
  eigenvalues    EBANDS =       -20.64983328
  atomic energy  EATOM  =        24.96779543
  ---------------------------------------------------
  free energy    TOTEN  =        -6.75556142 eV

  energy without entropy =       -6.76657363  energy(sigma->0) =       -6.75831447


--------------------------------------------------------------------------------------------------------




----------------------------------------- Iteration   11(  12)  ---------------------------------------


    POTLOK:  cpu time    0.88: real time    0.88
    SETDIJ:  cpu time    0.00: real time    0.00
    EDDIAG:  cpu time    0.27: real time    0.29
  RMM-DIIS:  cpu time    0.86: real time    0.86
    ORTHCH:  cpu time    0.07: real time    0.07
       DOS:  cpu time    0.00: real time    0.00
    --------------------------------------------
      LOOP:  cpu time    2.08: real time    2.12

 eigenvalue-minimisations  :    62
 total energy-change (2. order) :-0.2315065E-06  ( 0.0000000E+00)
 number of electron       1.9999997 magnetization 
 augmentation part        0.0414991 magnetization 

 Free energy of the ion-electron system (eV)
  ---------------------------------------------------
  alpha Z        PSCENC =         0.00062366
  Ewald energy   TEWEN  =        15.87668674
  -1/2 Hartree   DENC   =       -32.20870728
  -exchange  EXHF       =         0.00000000
  -V(xc)+E(xc)   XCENC  =         5.29580274
  PAW double counting   =        23.76202920      -23.81097034
  entropy T*S    EENTRO =         0.01101221
  eigenvalues    EBANDS =       -20.64983402
  atomic energy  EATOM  =        24.96779543
  ---------------------------------------------------
  free energy    TOTEN  =        -6.75556165 eV

  energy without entropy =       -6.76657386  energy(sigma->0) =       -6.75831470


--------------------------------------------------------------------------------------------------------




 average (electrostatic) potential at core
  the test charge radii are     0.5201
  (the norm of the test charge is              1.0000)
       1 -41.6177       2 -41.6184
 
 
 
 E-fermi : -10.1983     XC(G=0):  -0.0403     alpha+bet : -0.0035


 k-point   1 :       0.0000    0.0000    0.0000
  band No.  band energies     occupation 
      1     -10.3249      2.00000
      2      -0.0364      0.00000
      3       0.1255      0.00000
      4       0.1507      0.00000
      5       0.2095      0.00000
      6       0.2104      0.00000
      7       0.2248      0.00000
      8       0.2256      0.00000
      9       0.2868      0.00000
     10       0.3958      0.00000
     11       0.4143      0.00000
     12       0.4147      0.00000
     13       0.4616      0.00000
     14       0.4620      0.00000
     15       0.4635      0.00000
     16       0.4643      0.00000
     17       0.4652      0.00000
     18       0.4668      0.00000
     19       0.4673      0.00000
     20       0.4675      0.00000
     21       0.5533      0.00000
     22       0.6607      0.00000
     23       0.6608      0.00000
     24       0.6779      0.00000
     25       0.7012      0.00000
     26       0.7025      0.00000
     27       0.7038      0.00000
     28       0.7065      0.00000
     29       0.7648      0.00000
     30       0.8815      0.00000
     31       0.8838      0.00000
     32       0.9261      0.00000


--------------------------------------------------------------------------------------------------------


 soft charge-density along one line, spin component           1
         0         1         2         3         4         5         6         7         8         9
 total charge-density along one line
 
 pseudopotential strength for first ion, spin component:           1
 -2.344  -4.039   0.000  -0.002  -0.000
 -4.039  -6.875   0.000  -0.005  -0.000
  0.000   0.000  -0.341  -0.000  -0.000
 -0.002  -0.005  -0.000  -0.335  -0.000
 -0.000  -0.000  -0.000  -0.000  -0.341
 total augmentation occupancy for first ion, spin component:           1
  2.991  -0.446  -0.025   0.369   0.000
 -0.446   0.066   0.004  -0.055   0.000
 -0.025   0.004   0.000  -0.003   0.000
  0.369  -0.055  -0.003   0.046   0.000
  0.000   0.000   0.000   0.000   0.000


------------------------ aborting loop because EDIFF is reached ----------------------------------------


    CHARGE:  cpu time    1.31: real time    1.31
    FORLOC:  cpu time    0.02: real time    0.02
    FORNL :  cpu time    0.28: real time    0.28
    STRESS:  cpu time    0.90: real time    0.90
    FORHAR:  cpu time    0.21: real time    0.21
    MIXING:  cpu time    0.03: real time    0.03

  Number of pair interactions contributing to Grimme's potential:      19
  Estimated vdW energy (eV):  -0.00002

  FORCE on cell =-STRESS in cart. coord.  units (eV):
  Direction    XX          YY          ZZ          XY          YZ          ZX
  --------------------------------------------------------------------------------------
  Alpha Z     0.00062     0.00062     0.00062
  Ewald      -1.09007    -1.00546    17.97223     0.00000    -1.26955    -0.00000
  Hartree     9.98926     9.99917    12.22028    -0.00000    -0.14841    -0.00000
  E(xc)      -5.97015    -5.96918    -5.75079     0.00000    -0.01461    -0.00000
  Local     -18.75219   -18.81210   -32.24322     0.00000     0.89816     0.00000
  n-local    -5.35947    -5.36380    -6.29371    -0.00000     0.06226     0.00000
  augment     0.27361     0.27345     0.20425     0.00000     0.00464     0.00000
  Kinetic    20.84110    20.80967    13.76198    -0.00000     0.47162    -0.00000
  Fock        0.00000     0.00000     0.00000     0.00000     0.00000     0.00000
  -------------------------------------------------------------------------------------
  Total      -0.06728    -0.06762    -0.12833     0.00000     0.00411     0.00000
  in kB      -0.00690    -0.00693    -0.01316     0.00000     0.00042     0.00000
  external pressure =       -0.01 kB  Pullay stress =        0.00 kB


 VOLUME and BASIS-vectors are now :
 -----------------------------------------------------------------------------
  energy-cutoff  :      450.00
  volume of cell :    15625.00
      direct lattice vectors                 reciprocal lattice vectors
    25.000000000  0.000000000  0.000000000     0.040000000  0.000000000  0.000000000
     0.000000000 25.000000000  0.000000000     0.000000000  0.040000000  0.000000000
     0.000000000  0.000000000 25.000000000     0.000000000  0.000000000  0.040000000

  length of vectors
    25.000000000 25.000000000 25.000000000     0.040000000  0.040000000  0.040000000


 FORCES acting on ions
    electron-ion (+dipol)            ewald-force                    non-local-force                 convergence-correction
 -----------------------------------------------------------------------------------------------
   0.479E-13 -.136E+01 0.204E+02   -.193E-18 0.169E+01 -.254E+02   0.000E+00 -.335E+00 0.502E+01   -.750E-08 0.259E-05 -.106E-05
   0.474E-13 0.136E+01 -.204E+02   0.883E-19 -.169E+01 0.254E+02   0.000E+00 0.335E+00 -.502E+01   -.552E-08 0.129E-05 0.108E-05
 -----------------------------------------------------------------------------------------------
   0.954E-13 -.259E-05 0.241E-04   -.105E-18 0.000E+00 0.000E+00   0.000E+00 0.000E+00 0.000E+00   -.130E-07 0.388E-05 0.208E-07
 
 
 POSITION                                       TOTAL-FORCE (eV/Angst)
 -----------------------------------------------------------------------------------
     12.50000     12.50000     12.42474         0.000000     -0.003880      0.055421
     12.50000     12.45000     13.17526         0.000000      0.003880     -0.055421
 -----------------------------------------------------------------------------------
    total drift:                               -0.000000      0.000001      0.000024


--------------------------------------------------------------------------------------------------------



  FREE ENERGIE OF THE ION-ELECTRON SYSTEM (eV)
  ---------------------------------------------------
  free  energy   TOTEN  =        -6.755584 eV

  energy  without entropy=       -6.766597  energy(sigma->0) =       -6.758337
 
 d Force = 0.6430963E-07[-0.388E-03, 0.388E-03]  d Energy =-0.2565345E-07 0.900E-07
 d Force = 0.0000000E+00[ 0.169E+00,-0.169E+00]  d Ewald  = 0.7105427E-14-0.711E-14


--------------------------------------------------------------------------------------------------------


    POTLOK:  cpu time    0.89: real time    0.89


--------------------------------------------------------------------------------------------------------


 stress matrix after NEB project (eV)
     -0.06728      0.00000      0.00000
      0.00000     -0.06762      0.00411
      0.00000      0.00411     -0.12833
  FORCES: max atom, RMS     0.055557    0.055557
  FORCE total and by dimension    0.078569    0.055421
  Stress total and by dimension    0.160002    0.128327
 Finite differences progress:
  Degree of freedom:   5/  6
  Displacement:        2/  2
  Total:              10/ 12
  LATTYP: Found a simple cubic cell.
 ALAT       =    25.0000000000
  
  Lattice vectors:
  
 A1 = (  25.0000000000,   0.0000000000,   0.0000000000)
 A2 = (   0.0000000000,  25.0000000000,   0.0000000000)
 A3 = (   0.0000000000,   0.0000000000,  25.0000000000)
 Subroutine PRICEL returns:
 Original cell was already a primitive cell.
 

Analysis of symmetry for initial positions (statically):

 Routine SETGRP: Setting up the symmetry group for a 
 simple cubic supercell.


 Subroutine GETGRP returns: Found 16 space group operations
 (whereof  8 operations were pure point group operations)
 out of a pool of 48 trial point group operations.


The static configuration has the point symmetry C_4v.
 The point group associated with its full space group is D_4h.

Analysis of symmetry for dynamics (positions and initial velocities):

 Subroutine DYNSYM returns: Found 16 space group operations
 (whereof  8 operations were pure point group operations)
 out of a pool of 16 trial space group operations
 (whereof  8 operations were pure point group operations)
 and found also     1 'primitive' translations


The dynamic configuration has the point symmetry C_4v.
 The point group associated with its full space group is D_4h.
 
 KPOINTS: k-points                                

Automatic generation of k-mesh.
 
 Subroutine IBZKPT returns following result:
 ===========================================
 
 Found      1 irreducible k-points:
 
 Following reciprocal coordinates:
            Coordinates               Weight
  0.000000  0.000000  0.000000      1.000000
 
 Following cartesian coordinates:
            Coordinates               Weight
  0.000000  0.000000  0.000000      1.000000
 
    WAVPRE:  cpu time    0.05: real time    0.05
    FEWALD:  cpu time    0.00: real time    0.00
    ORTHCH:  cpu time    0.13: real time    0.14
     LOOP+:  cpu time   92.81: real time  103.19


----------------------------------------- Iteration   12(   1)  ---------------------------------------


    POTLOK:  cpu time    0.87: real time    0.90
    SETDIJ:  cpu time    0.00: real time    0.00
     EDDAV:  cpu time    1.23: real time    1.24
       DOS:  cpu time    0.00: real time    0.00
    CHARGE:  cpu time    1.46: real time    1.47
    MIXING:  cpu time    0.02: real time    0.02
    --------------------------------------------
      LOOP:  cpu time    3.59: real time    3.64

 eigenvalue-minimisations  :    64
 total energy-change (2. order) : 0.3469570E-01  (-0.1865605E+00)
 number of electron       1.9999993 magnetization 
 augmentation part        0.0387284 magnetization 

 Broyden mixing:
  rms(total) = 0.48251E-01    rms(broyden)= 0.48200E-01
  rms(prec ) = 0.49873E-01
  weight for this iteration     100.00

 Free energy of the ion-electron system (eV)
  ---------------------------------------------------
  alpha Z        PSCENC =         0.00062366
  Ewald energy   TEWEN  =        14.72088092
  -1/2 Hartree   DENC   =       -31.79061885
  -exchange  EXHF       =         0.00000000
  -V(xc)+E(xc)   XCENC  =         5.24516343
  PAW double counting   =        23.76209453      -23.81103577
  entropy T*S    EENTRO =         0.01101221
  eigenvalues    EBANDS =       -19.82678127
  atomic energy  EATOM  =        24.96779543
  ---------------------------------------------------
  free energy    TOTEN  =        -6.72086572 eV

  energy without entropy =       -6.73187792  energy(sigma->0) =       -6.72361877


--------------------------------------------------------------------------------------------------------




----------------------------------------- Iteration   12(   2)  ---------------------------------------


    POTLOK:  cpu time    0.89: real time    0.89
    SETDIJ:  cpu time    0.00: real time    0.00
    EDDIAG:  cpu time    0.28: real time    0.29
  RMM-DIIS:  cpu time    0.86: real time    0.86
    ORTHCH:  cpu time    0.10: real time    0.10
       DOS:  cpu time    0.00: real time    0.00
    CHARGE:  cpu time    1.42: real time    1.42
    MIXING:  cpu time    0.02: real time    0.02
    --------------------------------------------
      LOOP:  cpu time    3.58: real time    3.60

 eigenvalue-minimisations  :    64
 total energy-change (2. order) : 0.2648323E-02  (-0.9687330E-03)
 number of electron       1.9999993 magnetization 
 augmentation part        0.0389366 magnetization 

 Broyden mixing:
  rms(total) = 0.27317E-01    rms(broyden)= 0.27314E-01
  rms(prec ) = 0.28252E-01
  weight for this iteration     100.00

 eigenvalues of (default mixing * dielectric matrix)
  average eigenvalue GAMMA=   2.2517
  2.2517

 Free energy of the ion-electron system (eV)
  ---------------------------------------------------
  alpha Z        PSCENC =         0.00062366
  Ewald energy   TEWEN  =        14.72088092
  -1/2 Hartree   DENC   =       -31.58871204
  -exchange  EXHF       =         0.00000000
  -V(xc)+E(xc)   XCENC  =         5.21636490
  PAW double counting   =        22.47978476      -22.52606041
  entropy T*S    EENTRO =         0.01101221
  eigenvalues    EBANDS =       -19.99990682
  atomic energy  EATOM  =        24.96779543
  ---------------------------------------------------
  free energy    TOTEN  =        -6.71821739 eV

  energy without entropy =       -6.72922960  energy(sigma->0) =       -6.72097045


--------------------------------------------------------------------------------------------------------




----------------------------------------- Iteration   12(   3)  ---------------------------------------


    POTLOK:  cpu time    0.89: real time    0.89
    SETDIJ:  cpu time    0.00: real time    0.00
    EDDIAG:  cpu time    0.28: real time    0.28
  RMM-DIIS:  cpu time    0.84: real time    0.86
    ORTHCH:  cpu time    0.07: real time    0.07
       DOS:  cpu time    0.00: real time    0.00
    CHARGE:  cpu time    1.33: real time    1.33
    MIXING:  cpu time    0.02: real time    0.02
    --------------------------------------------
      LOOP:  cpu time    3.43: real time    3.46

 eigenvalue-minimisations  :    64
 total energy-change (2. order) : 0.1247350E-02  (-0.3644965E-03)
 number of electron       1.9999993 magnetization 
 augmentation part        0.0391321 magnetization 

 Broyden mixing:
  rms(total) = 0.33387E-02    rms(broyden)= 0.33368E-02
  rms(prec ) = 0.35030E-02
  weight for this iteration     100.00

 eigenvalues of (default mixing * dielectric matrix)
  average eigenvalue GAMMA=   2.0917
  2.4633  1.7200

 Free energy of the ion-electron system (eV)
  ---------------------------------------------------
  alpha Z        PSCENC =         0.00062366
  Ewald energy   TEWEN  =        14.72088092
  -1/2 Hartree   DENC   =       -31.35246942
  -exchange  EXHF       =         0.00000000
  -V(xc)+E(xc)   XCENC  =         5.18271728
  PAW double counting   =        20.85184712      -20.89498652
  entropy T*S    EENTRO =         0.01101221
  eigenvalues    EBANDS =       -20.20439073
  atomic energy  EATOM  =        24.96779543
  ---------------------------------------------------
  free energy    TOTEN  =        -6.71697004 eV

  energy without entropy =       -6.72798225  energy(sigma->0) =       -6.71972310


--------------------------------------------------------------------------------------------------------




----------------------------------------- Iteration   12(   4)  ---------------------------------------


    POTLOK:  cpu time    0.89: real time    0.89
    SETDIJ:  cpu time    0.00: real time    0.00
    EDDIAG:  cpu time    0.28: real time    0.28
  RMM-DIIS:  cpu time    0.87: real time    0.87
    ORTHCH:  cpu time    0.07: real time    0.07
       DOS:  cpu time    0.00: real time    0.00
    CHARGE:  cpu time    1.32: real time    1.36
    MIXING:  cpu time    0.02: real time    0.03
    --------------------------------------------
      LOOP:  cpu time    3.45: real time    3.52

 eigenvalue-minimisations  :    64
 total energy-change (2. order) :-0.4245893E-04  (-0.1387978E-04)
 number of electron       1.9999993 magnetization 
 augmentation part        0.0391403 magnetization 

 Broyden mixing:
  rms(total) = 0.10605E-02    rms(broyden)= 0.10601E-02
  rms(prec ) = 0.11419E-02
  weight for this iteration     100.00

 eigenvalues of (default mixing * dielectric matrix)
  average eigenvalue GAMMA=   2.0111
  1.0253  2.3020  2.7059

 Free energy of the ion-electron system (eV)
  ---------------------------------------------------
  alpha Z        PSCENC =         0.00062366
  Ewald energy   TEWEN  =        14.72088092
  -1/2 Hartree   DENC   =       -31.35367698
  -exchange  EXHF       =         0.00000000
  -V(xc)+E(xc)   XCENC  =         5.18320542
  PAW double counting   =        20.75640722      -20.79950552
  entropy T*S    EENTRO =         0.01101221
  eigenvalues    EBANDS =       -20.20375487
  atomic energy  EATOM  =        24.96779543
  ---------------------------------------------------
  free energy    TOTEN  =        -6.71701250 eV

  energy without entropy =       -6.72802471  energy(sigma->0) =       -6.71976555


--------------------------------------------------------------------------------------------------------




----------------------------------------- Iteration   12(   5)  ---------------------------------------


    POTLOK:  cpu time    0.89: real time    0.90
    SETDIJ:  cpu time    0.00: real time    0.00
    EDDIAG:  cpu time    0.28: real time    0.29
  RMM-DIIS:  cpu time    0.85: real time    0.87
    ORTHCH:  cpu time    0.07: real time    0.07
       DOS:  cpu time    0.00: real time    0.00
    CHARGE:  cpu time    1.38: real time    1.38
    MIXING:  cpu time    0.02: real time    0.02
    --------------------------------------------
      LOOP:  cpu time    3.50: real time    3.54

 eigenvalue-minimisations  :    64
 total energy-change (2. order) :-0.2567801E-04  (-0.2397259E-05)
 number of electron       1.9999993 magnetization 
 augmentation part        0.0391340 magnetization 

 Broyden mixing:
  rms(total) = 0.21988E-03    rms(broyden)= 0.21984E-03
  rms(prec ) = 0.28175E-03
  weight for this iteration     100.00

 eigenvalues of (default mixing * dielectric matrix)
  average eigenvalue GAMMA=   2.3103
  1.0058  2.8166  2.8166  2.6021

 Free energy of the ion-electron system (eV)
  ---------------------------------------------------
  alpha Z        PSCENC =         0.00062366
  Ewald energy   TEWEN  =        14.72088092
  -1/2 Hartree   DENC   =       -31.36163762
  -exchange  EXHF       =         0.00000000
  -V(xc)+E(xc)   XCENC  =         5.18455466
  PAW double counting   =        20.77208064      -20.81527387
  entropy T*S    EENTRO =         0.01101221
  eigenvalues    EBANDS =       -20.19707421
  atomic energy  EATOM  =        24.96779543
  ---------------------------------------------------
  free energy    TOTEN  =        -6.71703818 eV

  energy without entropy =       -6.72805039  energy(sigma->0) =       -6.71979123


--------------------------------------------------------------------------------------------------------




----------------------------------------- Iteration   12(   6)  ---------------------------------------


    POTLOK:  cpu time    0.89: real time    0.89
    SETDIJ:  cpu time    0.00: real time    0.00
    EDDIAG:  cpu time    0.28: real time    0.28
  RMM-DIIS:  cpu time    0.86: real time    0.87
    ORTHCH:  cpu time    0.07: real time    0.07
       DOS:  cpu time    0.00: real time    0.00
    CHARGE:  cpu time    1.37: real time    1.37
    MIXING:  cpu time    0.02: real time    0.02
    --------------------------------------------
      LOOP:  cpu time    3.50: real time    3.51

 eigenvalue-minimisations  :    64
 total energy-change (2. order) :-0.2244731E-04  (-0.6694411E-06)
 number of electron       1.9999993 magnetization 
 augmentation part        0.0391373 magnetization 

 Broyden mixing:
  rms(total) = 0.22177E-03    rms(broyden)= 0.22176E-03
  rms(prec ) = 0.24205E-03
  weight for this iteration     100.00

 eigenvalues of (default mixing * dielectric matrix)
  average eigenvalue GAMMA=   2.0533
  3.4205  2.2112  2.6336  0.9829  1.0184

 Free energy of the ion-electron system (eV)
  ---------------------------------------------------
  alpha Z        PSCENC =         0.00062366
  Ewald energy   TEWEN  =        14.72088092
  -1/2 Hartree   DENC   =       -31.35381669
  -exchange  EXHF       =         0.00000000
  -V(xc)+E(xc)   XCENC  =         5.18361945
  PAW double counting   =        20.75975838      -20.80291399
  entropy T*S    EENTRO =         0.01101221
  eigenvalues    EBANDS =       -20.20401999
  atomic energy  EATOM  =        24.96779543
  ---------------------------------------------------
  free energy    TOTEN  =        -6.71706063 eV

  energy without entropy =       -6.72807284  energy(sigma->0) =       -6.71981368


--------------------------------------------------------------------------------------------------------




----------------------------------------- Iteration   12(   7)  ---------------------------------------


    POTLOK:  cpu time    0.88: real time    0.88
    SETDIJ:  cpu time    0.00: real time    0.00
    EDDIAG:  cpu time    0.28: real time    0.28
  RMM-DIIS:  cpu time    0.86: real time    0.86
    ORTHCH:  cpu time    0.07: real time    0.07
       DOS:  cpu time    0.00: real time    0.00
    CHARGE:  cpu time    1.34: real time    1.35
    MIXING:  cpu time    0.02: real time    0.02
    --------------------------------------------
      LOOP:  cpu time    3.46: real time    3.48

 eigenvalue-minimisations  :    64
 total energy-change (2. order) :-0.3334045E-05  (-0.4620647E-07)
 number of electron       1.9999993 magnetization 
 augmentation part        0.0391363 magnetization 

 Broyden mixing:
  rms(total) = 0.44399E-04    rms(broyden)= 0.44398E-04
  rms(prec ) = 0.74671E-04
  weight for this iteration     100.00

 eigenvalues of (default mixing * dielectric matrix)
  average eigenvalue GAMMA=   2.4251
  4.6496  3.0207  2.6091  2.2513  1.0099  1.0099

 Free energy of the ion-electron system (eV)
  ---------------------------------------------------
  alpha Z        PSCENC =         0.00062366
  Ewald energy   TEWEN  =        14.72088092
  -1/2 Hartree   DENC   =       -31.35562020
  -exchange  EXHF       =         0.00000000
  -V(xc)+E(xc)   XCENC  =         5.18393056
  PAW double counting   =        20.76927197      -20.81245472
  entropy T*S    EENTRO =         0.01101221
  eigenvalues    EBANDS =       -20.20250379
  atomic energy  EATOM  =        24.96779543
  ---------------------------------------------------
  free energy    TOTEN  =        -6.71706396 eV

  energy without entropy =       -6.72807617  energy(sigma->0) =       -6.71981701


--------------------------------------------------------------------------------------------------------




----------------------------------------- Iteration   12(   8)  ---------------------------------------


    POTLOK:  cpu time    0.88: real time    0.89
    SETDIJ:  cpu time    0.00: real time    0.00
    EDDIAG:  cpu time    0.28: real time    0.28
  RMM-DIIS:  cpu time    0.87: real time    0.88
    ORTHCH:  cpu time    0.07: real time    0.07
       DOS:  cpu time    0.00: real time    0.00
    CHARGE:  cpu time    1.32: real time    1.33
    MIXING:  cpu time    0.03: real time    0.03
    --------------------------------------------
      LOOP:  cpu time    3.46: real time    6.34

 eigenvalue-minimisations  :    64
 total energy-change (2. order) :-0.8688803E-05  (-0.8779943E-07)
 number of electron       1.9999993 magnetization 
 augmentation part        0.0391364 magnetization 

 Broyden mixing:
  rms(total) = 0.36557E-04    rms(broyden)= 0.36556E-04
  rms(prec ) = 0.44508E-04
  weight for this iteration     100.00

 eigenvalues of (default mixing * dielectric matrix)
  average eigenvalue GAMMA=   2.3473
  5.0739  3.0540  2.6084  2.0495  1.6443  1.0003  1.0003

 Free energy of the ion-electron system (eV)
  ---------------------------------------------------
  alpha Z        PSCENC =         0.00062366
  Ewald energy   TEWEN  =        14.72088092
  -1/2 Hartree   DENC   =       -31.35448212
  -exchange  EXHF       =         0.00000000
  -V(xc)+E(xc)   XCENC  =         5.18387838
  PAW double counting   =        20.77075116      -20.81393764
  entropy T*S    EENTRO =         0.01101221
  eigenvalues    EBANDS =       -20.20359465
  atomic energy  EATOM  =        24.96779543
  ---------------------------------------------------
  free energy    TOTEN  =        -6.71707265 eV

  energy without entropy =       -6.72808486  energy(sigma->0) =       -6.71982570


--------------------------------------------------------------------------------------------------------




----------------------------------------- Iteration   12(   9)  ---------------------------------------


    POTLOK:  cpu time    0.88: real time    0.88
    SETDIJ:  cpu time    0.00: real time    0.00
    EDDIAG:  cpu time    0.28: real time    0.28
  RMM-DIIS:  cpu time    0.86: real time    0.86
    ORTHCH:  cpu time    0.07: real time    0.07
       DOS:  cpu time    0.00: real time    0.00
    CHARGE:  cpu time    1.33: real time    1.33
    MIXING:  cpu time    0.03: real time    0.03
    --------------------------------------------
      LOOP:  cpu time    3.44: real time    3.46

 eigenvalue-minimisations  :    63
 total energy-change (2. order) :-0.2007045E-05  (-0.5462642E-08)
 number of electron       1.9999993 magnetization 
 augmentation part        0.0391368 magnetization 

 Broyden mixing:
  rms(total) = 0.25595E-04    rms(broyden)= 0.25594E-04
  rms(prec ) = 0.31517E-04
  weight for this iteration     100.00

 eigenvalues of (default mixing * dielectric matrix)
  average eigenvalue GAMMA=   2.6350
  6.5713  3.8219  2.8721  2.5875  2.2186  1.0019  1.0019  1.0050

 Free energy of the ion-electron system (eV)
  ---------------------------------------------------
  alpha Z        PSCENC =         0.00062366
  Ewald energy   TEWEN  =        14.72088092
  -1/2 Hartree   DENC   =       -31.35361703
  -exchange  EXHF       =         0.00000000
  -V(xc)+E(xc)   XCENC  =         5.18377503
  PAW double counting   =        20.76861375      -20.81179387
  entropy T*S    EENTRO =         0.01101221
  eigenvalues    EBANDS =       -20.20436475
  atomic energy  EATOM  =        24.96779543
  ---------------------------------------------------
  free energy    TOTEN  =        -6.71707466 eV

  energy without entropy =       -6.72808687  energy(sigma->0) =       -6.71982771


--------------------------------------------------------------------------------------------------------




----------------------------------------- Iteration   12(  10)  ---------------------------------------


    POTLOK:  cpu time    0.88: real time    0.88
    SETDIJ:  cpu time    0.00: real time    0.00
    EDDIAG:  cpu time    0.30: real time    0.31
  RMM-DIIS:  cpu time    0.86: real time    0.89
    ORTHCH:  cpu time    0.07: real time    0.07
       DOS:  cpu time    0.00: real time    0.00
    CHARGE:  cpu time    1.33: real time    1.33
    MIXING:  cpu time    0.03: real time    0.03
    --------------------------------------------
      LOOP:  cpu time    3.47: real time    3.52

 eigenvalue-minimisations  :    63
 total energy-change (2. order) :-0.2895400E-05  (-0.7218503E-08)
 number of electron       1.9999993 magnetization 
 augmentation part        0.0391368 magnetization 

 Broyden mixing:
  rms(total) = 0.67348E-05    rms(broyden)= 0.67341E-05
  rms(prec ) = 0.94676E-05
  weight for this iteration     100.00

 eigenvalues of (default mixing * dielectric matrix)
  average eigenvalue GAMMA=   2.8450
  7.5051  4.4211  3.0739  2.7909  2.5472  2.2314  1.0243  1.0056  1.0056

 Free energy of the ion-electron system (eV)
  ---------------------------------------------------
  alpha Z        PSCENC =         0.00062366
  Ewald energy   TEWEN  =        14.72088092
  -1/2 Hartree   DENC   =       -31.35371611
  -exchange  EXHF       =         0.00000000
  -V(xc)+E(xc)   XCENC  =         5.18381649
  PAW double counting   =        20.76956835      -20.81275121
  entropy T*S    EENTRO =         0.01101221
  eigenvalues    EBANDS =       -20.20430728
  atomic energy  EATOM  =        24.96779543
  ---------------------------------------------------
  free energy    TOTEN  =        -6.71707755 eV

  energy without entropy =       -6.72808976  energy(sigma->0) =       -6.71983061


--------------------------------------------------------------------------------------------------------




----------------------------------------- Iteration   12(  11)  ---------------------------------------


    POTLOK:  cpu time    0.88: real time    0.90
    SETDIJ:  cpu time    0.00: real time    0.00
    EDDIAG:  cpu time    0.28: real time    0.28
  RMM-DIIS:  cpu time    0.85: real time    0.86
    ORTHCH:  cpu time    0.07: real time    0.07
       DOS:  cpu time    0.00: real time    0.00
    CHARGE:  cpu time    2.93: real time    2.96
    MIXING:  cpu time    0.10: real time    0.10
    --------------------------------------------
      LOOP:  cpu time    5.12: real time    5.18

 eigenvalue-minimisations  :    63
 total energy-change (2. order) :-0.1363962E-05  (-0.1431587E-08)
 number of electron       1.9999993 magnetization 
 augmentation part        0.0391368 magnetization 

 Broyden mixing:
  rms(total) = 0.65159E-05    rms(broyden)= 0.65159E-05
  rms(prec ) = 0.73742E-05
  weight for this iteration     100.00

 eigenvalues of (default mixing * dielectric matrix)
  average eigenvalue GAMMA=   2.7989
  8.2254  4.8055  3.3211  2.7812  2.5811  2.1889  1.0065  1.0065  1.0364  1.0364

 Free energy of the ion-electron system (eV)
  ---------------------------------------------------
  alpha Z        PSCENC =         0.00062366
  Ewald energy   TEWEN  =        14.72088092
  -1/2 Hartree   DENC   =       -31.35381332
  -exchange  EXHF       =         0.00000000
  -V(xc)+E(xc)   XCENC  =         5.18383535
  PAW double counting   =        20.76989930      -20.81308323
  entropy T*S    EENTRO =         0.01101221
  eigenvalues    EBANDS =       -20.20422923
  atomic energy  EATOM  =        24.96779543
  ---------------------------------------------------
  free energy    TOTEN  =        -6.71707892 eV

  energy without entropy =       -6.72809112  energy(sigma->0) =       -6.71983197


--------------------------------------------------------------------------------------------------------




----------------------------------------- Iteration   12(  12)  ---------------------------------------


    POTLOK:  cpu time    1.06: real time    1.10
    SETDIJ:  cpu time    0.00: real time    0.00
    EDDIAG:  cpu time    0.28: real time    0.29
  RMM-DIIS:  cpu time    0.86: real time    0.86
    ORTHCH:  cpu time    0.08: real time    0.08
       DOS:  cpu time    0.00: real time    0.00
    --------------------------------------------
      LOOP:  cpu time    2.28: real time    2.34

 eigenvalue-minimisations  :    62
 total energy-change (2. order) :-0.4019693E-06  ( 0.0000000E+00)
 number of electron       1.9999993 magnetization 
 augmentation part        0.0391368 magnetization 

 Free energy of the ion-electron system (eV)
  ---------------------------------------------------
  alpha Z        PSCENC =         0.00062366
  Ewald energy   TEWEN  =        14.72088092
  -1/2 Hartree   DENC   =       -31.35373538
  -exchange  EXHF       =         0.00000000
  -V(xc)+E(xc)   XCENC  =         5.18382619
  PAW double counting   =        20.76964816      -20.81283137
  entropy T*S    EENTRO =         0.01101221
  eigenvalues    EBANDS =       -20.20429914
  atomic energy  EATOM  =        24.96779543
  ---------------------------------------------------
  free energy    TOTEN  =        -6.71707932 eV

  energy without entropy =       -6.72809153  energy(sigma->0) =       -6.71983237


--------------------------------------------------------------------------------------------------------




 average (electrostatic) potential at core
  the test charge radii are     0.5201
  (the norm of the test charge is              1.0000)
       1 -41.3682       2 -41.3680
 
 
 
 E-fermi :  -9.9756     XC(G=0):  -0.0435     alpha+bet : -0.0035


 k-point   1 :       0.0000    0.0000    0.0000
  band No.  band energies     occupation 
      1     -10.1021      2.00000
      2      -0.0401      0.00000
      3       0.0305      0.00000
      4       0.1444      0.00000
      5       0.2072      0.00000
      6       0.2076      0.00000
      7       0.2213      0.00000
      8       0.2220      0.00000
      9       0.2581      0.00000
     10       0.3956      0.00000
     11       0.4052      0.00000
     12       0.4052      0.00000
     13       0.4602      0.00000
     14       0.4610      0.00000
     15       0.4617      0.00000
     16       0.4626      0.00000
     17       0.4634      0.00000
     18       0.4635      0.00000
     19       0.4641      0.00000
     20       0.4661      0.00000
     21       0.5293      0.00000
     22       0.6540      0.00000
     23       0.6545      0.00000
     24       0.6783      0.00000
     25       0.6977      0.00000
     26       0.6982      0.00000
     27       0.7027      0.00000
     28       0.7093      0.00000
     29       0.7429      0.00000
     30       0.8794      0.00000
     31       0.8799      0.00000
     32       0.9285      0.00000


--------------------------------------------------------------------------------------------------------


 soft charge-density along one line, spin component           1
         0         1         2         3         4         5         6         7         8         9
 total charge-density along one line
 
 pseudopotential strength for first ion, spin component:           1
 -2.342  -4.036  -0.000  -0.002  -0.000
 -4.036  -6.867  -0.000  -0.004  -0.000
 -0.000  -0.000  -0.343   0.000  -0.000
 -0.002  -0.004   0.000  -0.339   0.000
 -0.000  -0.000  -0.000   0.000  -0.343
 total augmentation occupancy for first ion, spin component:           1
  2.875  -0.439   0.000   0.321   0.000
 -0.439   0.067   0.000  -0.049   0.000
  0.000   0.000   0.000   0.000   0.000
  0.321  -0.049   0.000   0.036   0.000
  0.000   0.000   0.000   0.000   0.000


------------------------ aborting loop because EDIFF is reached ----------------------------------------


    CHARGE:  cpu time    1.37: real time    1.40
    FORLOC:  cpu time    0.02: real time    0.02
    FORNL :  cpu time    0.28: real time    0.28
    STRESS:  cpu time    0.90: real time    0.90
    FORHAR:  cpu time    0.21: real time    0.21
    MIXING:  cpu time    0.03: real time    0.03

  Number of pair interactions contributing to Grimme's potential:      19
  Estimated vdW energy (eV):  -0.00003

  FORCE on cell =-STRESS in cart. coord.  units (eV):
  Direction    XX          YY          ZZ          XY          YZ          ZX
  --------------------------------------------------------------------------------------
  Alpha Z     0.00062     0.00062     0.00062
  Ewald      -1.09014    -1.09014    16.90114    -0.00000     0.00000     0.00000
  Hartree     9.66001     9.66001    12.03369    -0.00000    -0.00000    -0.00000
  E(xc)      -5.84339    -5.84339    -5.61855    -0.00000    -0.00000     0.00000
  Local     -18.17048   -18.17048   -31.89289    -0.00000    -0.00000     0.00000
  n-local    -5.08916    -5.08916    -5.88105     0.00000     0.00000     0.00000
  augment     0.25596     0.25596     0.20494    -0.00000    -0.00000     0.00000
  Kinetic    20.21106    20.21106    13.00014     0.00000     0.00000    -0.00000
  Fock        0.00000     0.00000     0.00000     0.00000     0.00000     0.00000
  -------------------------------------------------------------------------------------
  Total      -0.06552    -0.06552    -1.25190     0.00000     0.00000     0.00000
  in kB      -0.00672    -0.00672    -0.12837     0.00000     0.00000     0.00000
  external pressure =       -0.05 kB  Pullay stress =        0.00 kB


 VOLUME and BASIS-vectors are now :
 -----------------------------------------------------------------------------
  energy-cutoff  :      450.00
  volume of cell :    15625.00
      direct lattice vectors                 reciprocal lattice vectors
    25.000000000  0.000000000  0.000000000     0.040000000  0.000000000  0.000000000
     0.000000000 25.000000000  0.000000000     0.000000000  0.040000000  0.000000000
     0.000000000  0.000000000 25.000000000     0.000000000  0.000000000  0.040000000

  length of vectors
    25.000000000 25.000000000 25.000000000     0.040000000  0.040000000  0.040000000


 FORCES acting on ions
    electron-ion (+dipol)            ewald-force                    non-local-force                 convergence-correction
 -----------------------------------------------------------------------------------------------
   0.450E-13 0.416E-13 0.195E+02   0.208E-18 0.308E-18 -.225E+02   0.000E+00 0.155E-24 0.442E+01   -.491E-11 -.156E-05 0.520E-06
   0.460E-13 -.547E-14 -.195E+02   -.313E-18 -.337E-18 0.225E+02   0.000E+00 -.266E-23 -.442E+01   -.370E-11 -.914E-06 -.280E-05
 -----------------------------------------------------------------------------------------------
   0.910E-13 0.361E-13 0.610E-05   -.105E-18 -.291E-19 0.000E+00   0.000E+00 -.251E-23 0.888E-15   -.861E-11 -.247E-05 -.228E-05
 
 
 POSITION                                       TOTAL-FORCE (eV/Angst)
 -----------------------------------------------------------------------------------
     12.50000     12.50000     12.42474         0.000000     -0.000000      1.465105
     12.50000     12.50000     13.22526         0.000000      0.000000     -1.465105
 -----------------------------------------------------------------------------------
    total drift:                               -0.000000     -0.000002      0.000004


--------------------------------------------------------------------------------------------------------



  FREE ENERGIE OF THE ION-ELECTRON SYSTEM (eV)
  ---------------------------------------------------
  free  energy   TOTEN  =        -6.717105 eV

  energy  without entropy=       -6.728117  energy(sigma->0) =       -6.719858
 
 d Force =-0.3791615E-01[-0.733E-01,-0.258E-02]  d Energy =-0.3847971E-01 0.564E-03
 d Force = 0.1154208E+01[ 0.112E+01, 0.119E+01]  d Ewald  = 0.1155806E+01-0.160E-02


--------------------------------------------------------------------------------------------------------


    POTLOK:  cpu time    0.89: real time    0.89


--------------------------------------------------------------------------------------------------------


 stress matrix after NEB project (eV)
     -0.06552      0.00000      0.00000
      0.00000     -0.06552      0.00000
      0.00000      0.00000     -1.25190
  FORCES: max atom, RMS     1.465105    1.465105
  FORCE total and by dimension    2.071971    1.465105
  Stress total and by dimension    1.255324    1.251899
 Finite differences progress:
  Degree of freedom:   6/  6
  Displacement:        1/  2
  Total:              11/ 12
  LATTYP: Found a simple cubic cell.
 ALAT       =    25.0000000000
  
  Lattice vectors:
  
 A1 = (  25.0000000000,   0.0000000000,   0.0000000000)
 A2 = (   0.0000000000,  25.0000000000,   0.0000000000)
 A3 = (   0.0000000000,   0.0000000000,  25.0000000000)
 Subroutine PRICEL returns:
 Original cell was already a primitive cell.
 

Analysis of symmetry for initial positions (statically):

 Routine SETGRP: Setting up the symmetry group for a 
 simple cubic supercell.


 Subroutine GETGRP returns: Found 16 space group operations
 (whereof  8 operations were pure point group operations)
 out of a pool of 48 trial point group operations.


The static configuration has the point symmetry C_4v.
 The point group associated with its full space group is D_4h.

Analysis of symmetry for dynamics (positions and initial velocities):

 Subroutine DYNSYM returns: Found 16 space group operations
 (whereof  8 operations were pure point group operations)
 out of a pool of 16 trial space group operations
 (whereof  8 operations were pure point group operations)
 and found also     1 'primitive' translations


The dynamic configuration has the point symmetry C_4v.
 The point group associated with its full space group is D_4h.
 
 KPOINTS: k-points                                

Automatic generation of k-mesh.
 
 Subroutine IBZKPT returns following result:
 ===========================================
 
 Found      1 irreducible k-points:
 
 Following reciprocal coordinates:
            Coordinates               Weight
  0.000000  0.000000  0.000000      1.000000
 
 Following cartesian coordinates:
            Coordinates               Weight
  0.000000  0.000000  0.000000      1.000000
 
    WAVPRE:  cpu time    0.06: real time    0.06
    FEWALD:  cpu time    0.00: real time    0.00
    ORTHCH:  cpu time    0.15: real time    0.16
     LOOP+:  cpu time   46.37: real time   49.71


----------------------------------------- Iteration   13(   1)  ---------------------------------------


    POTLOK:  cpu time    0.87: real time    0.90
    SETDIJ:  cpu time    0.00: real time    0.00
     EDDAV:  cpu time    1.22: real time    1.24
       DOS:  cpu time    0.00: real time    0.00
    CHARGE:  cpu time    1.46: real time    1.47
    MIXING:  cpu time    0.02: real time    0.02
    --------------------------------------------
      LOOP:  cpu time    3.58: real time    3.63

 eigenvalue-minimisations  :    64
 total energy-change (2. order) :-0.6829556E-02  (-0.4273781E+00)
 number of electron       1.9999992 magnetization 
 augmentation part        0.0449531 magnetization 

 Broyden mixing:
  rms(total) = 0.90061E-01    rms(broyden)= 0.89979E-01
  rms(prec ) = 0.93146E-01
  weight for this iteration     100.00

 Free energy of the ion-electron system (eV)
  ---------------------------------------------------
  alpha Z        PSCENC =         0.00062366
  Ewald energy   TEWEN  =        17.28843940
  -1/2 Hartree   DENC   =       -32.16880394
  -exchange  EXHF       =         0.00000000
  -V(xc)+E(xc)   XCENC  =         5.28517647
  PAW double counting   =        20.76968436      -20.81286755
  entropy T*S    EENTRO =         0.01101221
  eigenvalues    EBANDS =       -22.06496851
  atomic energy  EATOM  =        24.96779543
  ---------------------------------------------------
  free energy    TOTEN  =        -6.72390847 eV

  energy without entropy =       -6.73492068  energy(sigma->0) =       -6.72666153


--------------------------------------------------------------------------------------------------------




----------------------------------------- Iteration   13(   2)  ---------------------------------------


    POTLOK:  cpu time    0.86: real time    0.86
    SETDIJ:  cpu time    0.00: real time    0.00
    EDDIAG:  cpu time    0.28: real time    0.28
  RMM-DIIS:  cpu time    0.86: real time    0.86
    ORTHCH:  cpu time    0.07: real time    0.07
       DOS:  cpu time    0.00: real time    0.00
    CHARGE:  cpu time    1.38: real time    1.39
    MIXING:  cpu time    0.02: real time    0.02
    --------------------------------------------
      LOOP:  cpu time    3.47: real time    3.50

 eigenvalue-minimisations  :    64
 total energy-change (2. order) : 0.1035834E-01  (-0.3126387E-02)
 number of electron       1.9999992 magnetization 
 augmentation part        0.0450230 magnetization 

 Broyden mixing:
  rms(total) = 0.54612E-01    rms(broyden)= 0.54604E-01
  rms(prec ) = 0.56505E-01
  weight for this iteration     100.00

 eigenvalues of (default mixing * dielectric matrix)
  average eigenvalue GAMMA=   2.4999
  2.4999

 Free energy of the ion-electron system (eV)
  ---------------------------------------------------
  alpha Z        PSCENC =         0.00062366
  Ewald energy   TEWEN  =        17.28843940
  -1/2 Hartree   DENC   =       -32.59231029
  -exchange  EXHF       =         0.00000000
  -V(xc)+E(xc)   XCENC  =         5.34446196
  PAW double counting   =        23.55763337      -23.60643434
  entropy T*S    EENTRO =         0.01101221
  eigenvalues    EBANDS =       -21.68477153
  atomic energy  EATOM  =        24.96779543
  ---------------------------------------------------
  free energy    TOTEN  =        -6.71355014 eV

  energy without entropy =       -6.72456234  energy(sigma->0) =       -6.71630319


--------------------------------------------------------------------------------------------------------




----------------------------------------- Iteration   13(   3)  ---------------------------------------


    POTLOK:  cpu time    0.86: real time    0.86
    SETDIJ:  cpu time    0.00: real time    0.00
    EDDIAG:  cpu time    0.28: real time    0.28
  RMM-DIIS:  cpu time    0.85: real time    0.86
    ORTHCH:  cpu time    0.07: real time    0.07
       DOS:  cpu time    0.00: real time    0.00
    CHARGE:  cpu time    1.32: real time    1.33
    MIXING:  cpu time    0.02: real time    0.02
    --------------------------------------------
      LOOP:  cpu time    3.41: real time    3.43

 eigenvalue-minimisations  :    64
 total energy-change (2. order) : 0.6262715E-02  (-0.1981923E-02)
 number of electron       1.9999992 magnetization 
 augmentation part        0.0444849 magnetization 

 Broyden mixing:
  rms(total) = 0.86969E-02    rms(broyden)= 0.86954E-02
  rms(prec ) = 0.90533E-02
  weight for this iteration     100.00

 eigenvalues of (default mixing * dielectric matrix)
  average eigenvalue GAMMA=   1.5537
  2.2899  0.8175

 Free energy of the ion-electron system (eV)
  ---------------------------------------------------
  alpha Z        PSCENC =         0.00062366
  Ewald energy   TEWEN  =        17.28843940
  -1/2 Hartree   DENC   =       -33.25137074
  -exchange  EXHF       =         0.00000000
  -V(xc)+E(xc)   XCENC  =         5.43648240
  PAW double counting   =        27.79529830      -27.85321344
  entropy T*S    EENTRO =         0.01101221
  eigenvalues    EBANDS =       -21.10235463
  atomic energy  EATOM  =        24.96779543
  ---------------------------------------------------
  free energy    TOTEN  =        -6.70728742 eV

  energy without entropy =       -6.71829963  energy(sigma->0) =       -6.71004047


--------------------------------------------------------------------------------------------------------




----------------------------------------- Iteration   13(   4)  ---------------------------------------


    POTLOK:  cpu time    0.86: real time    0.86
    SETDIJ:  cpu time    0.00: real time    0.00
    EDDIAG:  cpu time    0.28: real time    0.29
  RMM-DIIS:  cpu time    0.86: real time    0.86
    ORTHCH:  cpu time    0.07: real time    0.07
       DOS:  cpu time    0.00: real time    0.00
    CHARGE:  cpu time    1.33: real time    1.33
    MIXING:  cpu time    0.02: real time    0.02
    --------------------------------------------
      LOOP:  cpu time    3.43: real time    3.44

 eigenvalue-minimisations  :    64
 total energy-change (2. order) : 0.2815458E-05  (-0.1730475E-04)
 number of electron       1.9999992 magnetization 
 augmentation part        0.0445174 magnetization 

 Broyden mixing:
  rms(total) = 0.38698E-02    rms(broyden)= 0.38697E-02
  rms(prec ) = 0.40885E-02
  weight for this iteration     100.00

 eigenvalues of (default mixing * dielectric matrix)
  average eigenvalue GAMMA=   2.0797
  0.9846  2.5150  2.7397

 Free energy of the ion-electron system (eV)
  ---------------------------------------------------
  alpha Z        PSCENC =         0.00062366
  Ewald energy   TEWEN  =        17.28843940
  -1/2 Hartree   DENC   =       -33.18379778
  -exchange  EXHF       =         0.00000000
  -V(xc)+E(xc)   XCENC  =         5.42653608
  PAW double counting   =        27.42887056      -27.48586323
  entropy T*S    EENTRO =         0.01101221
  eigenvalues    EBANDS =       -21.16090093
  atomic energy  EATOM  =        24.96779543
  ---------------------------------------------------
  free energy    TOTEN  =        -6.70728461 eV

  energy without entropy =       -6.71829681  energy(sigma->0) =       -6.71003766


--------------------------------------------------------------------------------------------------------




----------------------------------------- Iteration   13(   5)  ---------------------------------------


    POTLOK:  cpu time    0.86: real time    0.87
    SETDIJ:  cpu time    0.00: real time    0.00
    EDDIAG:  cpu time    0.28: real time    0.29
  RMM-DIIS:  cpu time    0.87: real time    0.87
    ORTHCH:  cpu time    0.07: real time    0.07
       DOS:  cpu time    0.00: real time    0.00
    CHARGE:  cpu time    1.40: real time    1.42
    MIXING:  cpu time    0.02: real time    0.02
    --------------------------------------------
      LOOP:  cpu time    3.51: real time    3.55

 eigenvalue-minimisations  :    64
 total energy-change (2. order) :-0.9777424E-04  (-0.2415656E-04)
 number of electron       1.9999992 magnetization 
 augmentation part        0.0445654 magnetization 

 Broyden mixing:
  rms(total) = 0.19363E-02    rms(broyden)= 0.19360E-02
  rms(prec ) = 0.20316E-02
  weight for this iteration     100.00

 eigenvalues of (default mixing * dielectric matrix)
  average eigenvalue GAMMA=   1.6800
  2.7125  2.1941  0.9067  0.9067

 Free energy of the ion-electron system (eV)
  ---------------------------------------------------
  alpha Z        PSCENC =         0.00062366
  Ewald energy   TEWEN  =        17.28843940
  -1/2 Hartree   DENC   =       -33.14425212
  -exchange  EXHF       =         0.00000000
  -V(xc)+E(xc)   XCENC  =         5.41967870
  PAW double counting   =        27.38570478      -27.44226968
  entropy T*S    EENTRO =         0.01101221
  eigenvalues    EBANDS =       -21.19411476
  atomic energy  EATOM  =        24.96779543
  ---------------------------------------------------
  free energy    TOTEN  =        -6.70738238 eV

  energy without entropy =       -6.71839459  energy(sigma->0) =       -6.71013543


--------------------------------------------------------------------------------------------------------




----------------------------------------- Iteration   13(   6)  ---------------------------------------


    POTLOK:  cpu time    0.87: real time    0.87
    SETDIJ:  cpu time    0.00: real time    0.00
    EDDIAG:  cpu time    0.28: real time    0.28
  RMM-DIIS:  cpu time    0.84: real time    0.85
    ORTHCH:  cpu time    0.07: real time    0.07
       DOS:  cpu time    0.00: real time    0.00
    CHARGE:  cpu time    1.33: real time    1.33
    MIXING:  cpu time    0.02: real time    0.02
    --------------------------------------------
      LOOP:  cpu time    3.40: real time    3.43

 eigenvalue-minimisations  :    64
 total energy-change (2. order) :-0.1278456E-04  (-0.1546881E-05)
 number of electron       1.9999992 magnetization 
 augmentation part        0.0445530 magnetization 

 Broyden mixing:
  rms(total) = 0.55164E-03    rms(broyden)= 0.55164E-03
  rms(prec ) = 0.63381E-03
  weight for this iteration     100.00

 eigenvalues of (default mixing * dielectric matrix)
  average eigenvalue GAMMA=   2.0834
  3.6189  2.6227  2.1603  1.0074  1.0074

 Free energy of the ion-electron system (eV)
  ---------------------------------------------------
  alpha Z        PSCENC =         0.00062366
  Ewald energy   TEWEN  =        17.28843940
  -1/2 Hartree   DENC   =       -33.16223615
  -exchange  EXHF       =         0.00000000
  -V(xc)+E(xc)   XCENC  =         5.42223029
  PAW double counting   =        27.45174062      -27.50849613
  entropy T*S    EENTRO =         0.01101221
  eigenvalues    EBANDS =       -21.17850449
  atomic energy  EATOM  =        24.96779543
  ---------------------------------------------------
  free energy    TOTEN  =        -6.70739517 eV

  energy without entropy =       -6.71840737  energy(sigma->0) =       -6.71014822


--------------------------------------------------------------------------------------------------------




----------------------------------------- Iteration   13(   7)  ---------------------------------------


    POTLOK:  cpu time    0.86: real time    0.87
    SETDIJ:  cpu time    0.00: real time    0.00
    EDDIAG:  cpu time    0.28: real time    0.28
  RMM-DIIS:  cpu time    0.88: real time    0.88
    ORTHCH:  cpu time    0.07: real time    0.07
       DOS:  cpu time    0.00: real time    0.00
    CHARGE:  cpu time    1.33: real time    1.33
    MIXING:  cpu time    0.05: real time    0.05
    --------------------------------------------
      LOOP:  cpu time    3.47: real time    3.49

 eigenvalue-minimisations  :    64
 total energy-change (2. order) :-0.7326460E-04  (-0.1886803E-05)
 number of electron       1.9999992 magnetization 
 augmentation part        0.0445406 magnetization 

 Broyden mixing:
  rms(total) = 0.35908E-03    rms(broyden)= 0.35900E-03
  rms(prec ) = 0.38837E-03
  weight for this iteration     100.00

 eigenvalues of (default mixing * dielectric matrix)
  average eigenvalue GAMMA=   1.9430
  3.5134  2.6557  1.8937  1.4468  0.9874  1.1610

 Free energy of the ion-electron system (eV)
  ---------------------------------------------------
  alpha Z        PSCENC =         0.00062366
  Ewald energy   TEWEN  =        17.28843940
  -1/2 Hartree   DENC   =       -33.18106352
  -exchange  EXHF       =         0.00000000
  -V(xc)+E(xc)   XCENC  =         5.42438574
  PAW double counting   =        27.46124190      -27.51806305
  entropy T*S    EENTRO =         0.01101221
  eigenvalues    EBANDS =       -21.16184021
  atomic energy  EATOM  =        24.96779543
  ---------------------------------------------------
  free energy    TOTEN  =        -6.70746843 eV

  energy without entropy =       -6.71848064  energy(sigma->0) =       -6.71022148


--------------------------------------------------------------------------------------------------------




----------------------------------------- Iteration   13(   8)  ---------------------------------------


    POTLOK:  cpu time    0.89: real time    0.90
    SETDIJ:  cpu time    0.00: real time    0.00
    EDDIAG:  cpu time    0.28: real time    0.28
  RMM-DIIS:  cpu time    0.86: real time    0.87
    ORTHCH:  cpu time    0.07: real time    0.07
       DOS:  cpu time    0.00: real time    0.00
    CHARGE:  cpu time    1.38: real time    1.38
    MIXING:  cpu time    0.03: real time    0.03
    --------------------------------------------
      LOOP:  cpu time    3.52: real time    3.54

 eigenvalue-minimisations  :    64
 total energy-change (2. order) :-0.1759913E-04  (-0.6447530E-07)
 number of electron       1.9999992 magnetization 
 augmentation part        0.0445420 magnetization 

 Broyden mixing:
  rms(total) = 0.96497E-04    rms(broyden)= 0.96493E-04
  rms(prec ) = 0.13215E-03
  weight for this iteration     100.00

 eigenvalues of (default mixing * dielectric matrix)
  average eigenvalue GAMMA=   2.2128
  4.7442  3.1189  2.6056  1.9333  1.1358  0.9961  0.9560

 Free energy of the ion-electron system (eV)
  ---------------------------------------------------
  alpha Z        PSCENC =         0.00062366
  Ewald energy   TEWEN  =        17.28843940
  -1/2 Hartree   DENC   =       -33.17845844
  -exchange  EXHF       =         0.00000000
  -V(xc)+E(xc)   XCENC  =         5.42390558
  PAW double counting   =        27.45121765      -27.50800507
  entropy T*S    EENTRO =         0.01101221
  eigenvalues    EBANDS =       -21.16401645
  atomic energy  EATOM  =        24.96779543
  ---------------------------------------------------
  free energy    TOTEN  =        -6.70748603 eV

  energy without entropy =       -6.71849824  energy(sigma->0) =       -6.71023908


--------------------------------------------------------------------------------------------------------




----------------------------------------- Iteration   13(   9)  ---------------------------------------


    POTLOK:  cpu time    0.87: real time    0.87
    SETDIJ:  cpu time    0.00: real time    0.00
    EDDIAG:  cpu time    0.28: real time    0.28
  RMM-DIIS:  cpu time    0.86: real time    0.86
    ORTHCH:  cpu time    0.07: real time    0.08
       DOS:  cpu time    0.00: real time    0.00
    CHARGE:  cpu time    1.33: real time    1.33
    MIXING:  cpu time    0.03: real time    0.03
    --------------------------------------------
      LOOP:  cpu time    3.45: real time    3.46

 eigenvalue-minimisations  :    64
 total energy-change (2. order) :-0.3324390E-04  (-0.1923591E-06)
 number of electron       1.9999992 magnetization 
 augmentation part        0.0445427 magnetization 

 Broyden mixing:
  rms(total) = 0.62735E-04    rms(broyden)= 0.62734E-04
  rms(prec ) = 0.74265E-04
  weight for this iteration     100.00

 eigenvalues of (default mixing * dielectric matrix)
  average eigenvalue GAMMA=   2.3609
  5.6531  3.1269  2.6662  2.4329  1.8171  1.2025  0.9942  0.9942

 Free energy of the ion-electron system (eV)
  ---------------------------------------------------
  alpha Z        PSCENC =         0.00062366
  Ewald energy   TEWEN  =        17.28843940
  -1/2 Hartree   DENC   =       -33.17891706
  -exchange  EXHF       =         0.00000000
  -V(xc)+E(xc)   XCENC  =         5.42373613
  PAW double counting   =        27.45447879      -27.51126294
  entropy T*S    EENTRO =         0.01101221
  eigenvalues    EBANDS =       -21.16342489
  atomic energy  EATOM  =        24.96779543
  ---------------------------------------------------
  free energy    TOTEN  =        -6.70751927 eV

  energy without entropy =       -6.71853148  energy(sigma->0) =       -6.71027233


--------------------------------------------------------------------------------------------------------




----------------------------------------- Iteration   13(  10)  ---------------------------------------


    POTLOK:  cpu time    0.97: real time    0.97
    SETDIJ:  cpu time    0.01: real time    0.01
    EDDIAG:  cpu time    0.42: real time    0.42
  RMM-DIIS:  cpu time    0.85: real time    0.92
    ORTHCH:  cpu time    0.10: real time    0.11
       DOS:  cpu time    0.00: real time    0.00
    CHARGE:  cpu time    1.92: real time    1.97
    MIXING:  cpu time    0.07: real time    0.07
    --------------------------------------------
      LOOP:  cpu time    4.32: real time    4.47

 eigenvalue-minimisations  :    64
 total energy-change (2. order) :-0.1397397E-04  (-0.2747013E-07)
 number of electron       1.9999992 magnetization 
 augmentation part        0.0445418 magnetization 

 Broyden mixing:
  rms(total) = 0.36664E-04    rms(broyden)= 0.36661E-04
  rms(prec ) = 0.43507E-04
  weight for this iteration     100.00

 eigenvalues of (default mixing * dielectric matrix)
  average eigenvalue GAMMA=   2.4804
  6.8027  3.9497  2.8768  2.5780  1.9215  0.9890  0.9890  1.1083  1.1083

 Free energy of the ion-electron system (eV)
  ---------------------------------------------------
  alpha Z        PSCENC =         0.00062366
  Ewald energy   TEWEN  =        17.28843940
  -1/2 Hartree   DENC   =       -33.18045720
  -exchange  EXHF       =         0.00000000
  -V(xc)+E(xc)   XCENC  =         5.42389081
  PAW double counting   =        27.45417355      -27.51096292
  entropy T*S    EENTRO =         0.01101221
  eigenvalues    EBANDS =       -21.16204818
  atomic energy  EATOM  =        24.96779543
  ---------------------------------------------------
  free energy    TOTEN  =        -6.70753325 eV

  energy without entropy =       -6.71854545  energy(sigma->0) =       -6.71028630


--------------------------------------------------------------------------------------------------------




----------------------------------------- Iteration   13(  11)  ---------------------------------------


    POTLOK:  cpu time    0.94: real time    1.01
    SETDIJ:  cpu time    0.00: real time    0.00
    EDDIAG:  cpu time    0.27: real time    0.30
  RMM-DIIS:  cpu time    0.74: real time    0.86
    ORTHCH:  cpu time    0.07: real time    0.08
       DOS:  cpu time    0.00: real time    0.00
    CHARGE:  cpu time    1.42: real time    1.56
    MIXING:  cpu time    0.06: real time    0.06
    --------------------------------------------
      LOOP:  cpu time    3.53: real time    3.90

 eigenvalue-minimisations  :    63
 total energy-change (2. order) :-0.8032356E-05  (-0.1440755E-07)
 number of electron       1.9999992 magnetization 
 augmentation part        0.0445418 magnetization 

 Broyden mixing:
  rms(total) = 0.17067E-04    rms(broyden)= 0.17067E-04
  rms(prec ) = 0.20337E-04
  weight for this iteration     100.00

 eigenvalues of (default mixing * dielectric matrix)
  average eigenvalue GAMMA=   2.7696
  8.0097  4.8247  3.4561  2.7795  2.5841  1.8942  1.1756  0.9862  0.9862  0.9995

 Free energy of the ion-electron system (eV)
  ---------------------------------------------------
  alpha Z        PSCENC =         0.00062366
  Ewald energy   TEWEN  =        17.28843940
  -1/2 Hartree   DENC   =       -33.18017348
  -exchange  EXHF       =         0.00000000
  -V(xc)+E(xc)   XCENC  =         5.42381717
  PAW double counting   =        27.45162873      -27.50841289
  entropy T*S    EENTRO =         0.01101221
  eigenvalues    EBANDS =       -21.16227151
  atomic energy  EATOM  =        24.96779543
  ---------------------------------------------------
  free energy    TOTEN  =        -6.70754128 eV

  energy without entropy =       -6.71855349  energy(sigma->0) =       -6.71029433


--------------------------------------------------------------------------------------------------------




----------------------------------------- Iteration   13(  12)  ---------------------------------------


    POTLOK:  cpu time    1.17: real time    1.20
    SETDIJ:  cpu time    0.00: real time    0.00
    EDDIAG:  cpu time    0.39: real time    0.44
  RMM-DIIS:  cpu time    0.88: real time    0.92
    ORTHCH:  cpu time    0.14: real time    0.15
       DOS:  cpu time    0.00: real time    0.00
    CHARGE:  cpu time    2.09: real time    2.23
    MIXING:  cpu time    0.05: real time    0.05
    --------------------------------------------
      LOOP:  cpu time    4.73: real time    4.99

 eigenvalue-minimisations  :    63
 total energy-change (2. order) :-0.4842390E-05  (-0.1035988E-07)
 number of electron       1.9999992 magnetization 
 augmentation part        0.0445421 magnetization 

 Broyden mixing:
  rms(total) = 0.24726E-04    rms(broyden)= 0.24726E-04
  rms(prec ) = 0.25858E-04
  weight for this iteration     100.00

 eigenvalues of (default mixing * dielectric matrix)
  average eigenvalue GAMMA=   2.6231
  8.2312  4.9336  3.3447  2.7800  2.5519  1.8816  0.9999  0.9999  1.1327  1.1010
  0.8975

 Free energy of the ion-electron system (eV)
  ---------------------------------------------------
  alpha Z        PSCENC =         0.00062366
  Ewald energy   TEWEN  =        17.28843940
  -1/2 Hartree   DENC   =       -33.17975283
  -exchange  EXHF       =         0.00000000
  -V(xc)+E(xc)   XCENC  =         5.42373737
  PAW double counting   =        27.45205448      -27.50883684
  entropy T*S    EENTRO =         0.01101221
  eigenvalues    EBANDS =       -21.16261900
  atomic energy  EATOM  =        24.96779543
  ---------------------------------------------------
  free energy    TOTEN  =        -6.70754612 eV

  energy without entropy =       -6.71855833  energy(sigma->0) =       -6.71029917


--------------------------------------------------------------------------------------------------------




----------------------------------------- Iteration   13(  13)  ---------------------------------------


    POTLOK:  cpu time    1.08: real time    1.09
    SETDIJ:  cpu time    0.00: real time    0.00
    EDDIAG:  cpu time    0.28: real time    0.29
  RMM-DIIS:  cpu time    0.87: real time    0.87
    ORTHCH:  cpu time    0.07: real time    0.07
       DOS:  cpu time    0.00: real time    0.00
    --------------------------------------------
      LOOP:  cpu time    2.31: real time    2.32

 eigenvalue-minimisations  :    63
 total energy-change (2. order) :-0.3416093E-06  (-0.5028227E-09)
 number of electron       1.9999992 magnetization 
 augmentation part        0.0445421 magnetization 

 Free energy of the ion-electron system (eV)
  ---------------------------------------------------
  alpha Z        PSCENC =         0.00062366
  Ewald energy   TEWEN  =        17.28843940
  -1/2 Hartree   DENC   =       -33.18003259
  -exchange  EXHF       =         0.00000000
  -V(xc)+E(xc)   XCENC  =         5.42377617
  PAW double counting   =        27.45256342      -27.50934796
  entropy T*S    EENTRO =         0.01101221
  eigenvalues    EBANDS =       -21.16237620
  atomic energy  EATOM  =        24.96779543
  ---------------------------------------------------
  free energy    TOTEN  =        -6.70754646 eV

  energy without entropy =       -6.71855867  energy(sigma->0) =       -6.71029952


--------------------------------------------------------------------------------------------------------




 average (electrostatic) potential at core
  the test charge radii are     0.5201
  (the norm of the test charge is              1.0000)
       1 -41.9997       2 -41.9996
 
 
 
 E-fermi : -10.4546     XC(G=0):  -0.0442     alpha+bet : -0.0035


 k-point   1 :       0.0000    0.0000    0.0000
  band No.  band energies     occupation 
      1     -10.5812      2.00000
      2      -0.0393      0.00000
      3       0.1542      0.00000
      4       0.1728      0.00000
      5       0.2053      0.00000
      6       0.2053      0.00000
      7       0.2193      0.00000
      8       0.2201      0.00000
      9       0.3276      0.00000
     10       0.3879      0.00000
     11       0.4202      0.00000
     12       0.4201      0.00000
     13       0.4536      0.00000
     14       0.4552      0.00000
     15       0.4552      0.00000
     16       0.4578      0.00000
     17       0.4604      0.00000
     18       0.4622      0.00000
     19       0.4622      0.00000
     20       0.4625      0.00000
     21       0.5738      0.00000
     22       0.6633      0.00000
     23       0.6633      0.00000
     24       0.6664      0.00000
     25       0.6919      0.00000
     26       0.6988      0.00000
     27       0.7014      0.00000
     28       0.7013      0.00000
     29       0.7858      0.00000
     30       0.8777      0.00000
     31       0.8777      0.00000
     32       0.9142      0.00000


--------------------------------------------------------------------------------------------------------


 soft charge-density along one line, spin component           1
         0         1         2         3         4         5         6         7         8         9
 total charge-density along one line
 
 pseudopotential strength for first ion, spin component:           1
 -2.347  -4.045  -0.000  -0.002  -0.000
 -4.045  -6.887  -0.000  -0.007  -0.000
 -0.000  -0.000  -0.339  -0.000   0.000
 -0.002  -0.007  -0.000  -0.331  -0.000
 -0.000  -0.000   0.000  -0.000  -0.339
 total augmentation occupancy for first ion, spin component:           1
  3.068  -0.430  -0.000   0.432  -0.000
 -0.430   0.060  -0.000  -0.061  -0.000
 -0.000  -0.000   0.000   0.000   0.000
  0.432  -0.061   0.000   0.061   0.000
 -0.000   0.000   0.000   0.000   0.000


------------------------ aborting loop because EDIFF is reached ----------------------------------------


    CHARGE:  cpu time    1.33: real time    1.33
    FORLOC:  cpu time    0.05: real time    0.05
    FORNL :  cpu time    0.38: real time    0.38
    STRESS:  cpu time    0.99: real time    1.06
    FORHAR:  cpu time    0.26: real time    0.32
    MIXING:  cpu time    0.06: real time    0.06

  Number of pair interactions contributing to Grimme's potential:      19
  Estimated vdW energy (eV):  -0.00002

  FORCE on cell =-STRESS in cart. coord.  units (eV):
  Direction    XX          YY          ZZ          XY          YZ          ZX
  --------------------------------------------------------------------------------------
  Alpha Z     0.00062     0.00062     0.00062
  Ewald      -1.08999    -1.08999    19.46840    -0.00000    -0.00000    -0.00000
  Hartree    10.36268    10.36268    12.45482    -0.00000    -0.00000    -0.00000
  E(xc)      -6.11573    -6.11573    -5.90081    -0.00000    -0.00000    -0.00000
  Local     -19.41204   -19.41204   -32.70791    -0.00000     0.00000     0.00000
  n-local    -5.68762    -5.68762    -6.80953    -0.00000     0.00000     0.00000
  augment     0.29759     0.29759     0.20042     0.00000     0.00000     0.00000
  Kinetic    21.57432    21.57432    14.62762     0.00000    -0.00000    -0.00000
  Fock        0.00000     0.00000     0.00000     0.00000     0.00000     0.00000
  -------------------------------------------------------------------------------------
  Total      -0.07016    -0.07016     1.33365     0.00000     0.00000     0.00000
  in kB      -0.00719    -0.00719     0.13675     0.00000     0.00000     0.00000
  external pressure =        0.04 kB  Pullay stress =        0.00 kB


 VOLUME and BASIS-vectors are now :
 -----------------------------------------------------------------------------
  energy-cutoff  :      450.00
  volume of cell :    15625.00
      direct lattice vectors                 reciprocal lattice vectors
    25.000000000  0.000000000  0.000000000     0.040000000  0.000000000  0.000000000
     0.000000000 25.000000000  0.000000000     0.000000000  0.040000000  0.000000000
     0.000000000  0.000000000 25.000000000     0.000000000  0.000000000  0.040000000

  length of vectors
    25.000000000 25.000000000 25.000000000     0.040000000  0.040000000  0.040000000


 FORCES acting on ions
    electron-ion (+dipol)            ewald-force                    non-local-force                 convergence-correction
 -----------------------------------------------------------------------------------------------
   0.512E-13 0.418E-13 0.215E+02   -.124E-18 -.137E-18 -.293E+02   -.129E-25 0.129E-25 0.581E+01   -.187E-13 -.321E-08 -.214E-04
   0.520E-13 0.110E-12 -.215E+02   0.194E-19 0.107E-18 0.293E+02   0.258E-25 0.646E-26 -.581E+01   -.138E-13 -.238E-08 0.262E-04
 -----------------------------------------------------------------------------------------------
   0.103E-12 0.151E-12 0.101E-04   -.105E-18 -.291E-19 0.000E+00   0.129E-25 0.194E-25 -.178E-14   -.326E-13 -.559E-08 0.478E-05
 
 
 POSITION                                       TOTAL-FORCE (eV/Angst)
 -----------------------------------------------------------------------------------
     12.50000     12.50000     12.42474         0.000000     -0.000000     -2.030147
     12.50000     12.50000     13.12526         0.000000      0.000000      2.030147
 -----------------------------------------------------------------------------------
    total drift:                                0.000000     -0.000000      0.000015


--------------------------------------------------------------------------------------------------------



  FREE ENERGIE OF THE ION-ELECTRON SYSTEM (eV)
  ---------------------------------------------------
  free  energy   TOTEN  =        -6.707567 eV

  energy  without entropy=       -6.718580  energy(sigma->0) =       -6.710320
 
 d Force =-0.2825207E-01[-0.203E+00, 0.147E+00]  d Energy =-0.9537414E-02-0.187E-01
 d Force =-0.2590451E+01[-0.293E+01,-0.225E+01]  d Ewald  =-0.2567558E+01-0.229E-01


--------------------------------------------------------------------------------------------------------


    POTLOK:  cpu time    1.23: real time    1.31


--------------------------------------------------------------------------------------------------------


 stress matrix after NEB project (eV)
     -0.07016      0.00000      0.00000
      0.00000     -0.07016      0.00000
      0.00000      0.00000      1.33365
  FORCES: max atom, RMS     2.030147    2.030147
  FORCE total and by dimension    2.871061    2.030147
  Stress total and by dimension    1.337340    1.333653
 Finite differences progress:
  Degree of freedom:   6/  6
  Displacement:        2/  2
  Total:              12/ 12
 
 SECOND DERIVATIVES (NOT SYMMETRIZED)
 ------------------------------------
               1X          1Y          1Z          2X          2Y          2Z 
  1X    -0.073274    0.000000   -0.000340    0.073274    0.000000    0.000340
  1Y     0.000000   -0.073350    0.000001    0.000000    0.073350   -0.000001
  1Z     0.000000   -0.000000  -34.946262    0.000000    0.000000   34.946262
  2X     0.077587    0.000000   -0.000312   -0.077587    0.000000    0.000312
  2Y     0.000000    0.077614   -0.000002    0.000000   -0.077614    0.000002
  2Z     0.000000   -0.000000   34.952516    0.000000    0.000000  -34.952516
 
 
 Eigenvectors and eigenvalues of the dynamical matrix
 ----------------------------------------------------
 
 
   1 f  =  130.702985 THz   821.231078 2PiTHz 4359.782174 cm-1   540.544292 meV
             X         Y         Z           dx          dy          dz
     12.500000 12.500000 12.424743    -0.000003    0.000000   -0.707075  
     12.500000 12.500000 13.175257    -0.000003   -0.000000    0.707138  
 
   2 f  =    6.074777 THz    38.168952 2PiTHz  202.632759 cm-1    25.123269 meV
             X         Y         Z           dx          dy          dz
     12.500000 12.500000 12.424743    -0.000000   -0.697053   -0.000000  
     12.500000 12.500000 13.175257     0.000000    0.717020    0.000000  
 
   3 f  =    6.072731 THz    38.156094 2PiTHz  202.564494 cm-1    25.114805 meV
             X         Y         Z           dx          dy          dz
     12.500000 12.500000 12.424743    -0.696929    0.000000    0.000000  
     12.500000 12.500000 13.175257     0.717140   -0.000000   -0.000000  
 
   4 f/i=    0.005847 THz     0.036737 2PiTHz    0.195030 cm-1     0.024181 meV
             X         Y         Z           dx          dy          dz
     12.500000 12.500000 12.424743    -0.000341   -0.000001   -0.707138  
     12.500000 12.500000 13.175257    -0.000332   -0.000001   -0.707075  
 
   5 f/i=    0.085777 THz     0.538950 2PiTHz    2.861199 cm-1     0.354744 meV
             X         Y         Z           dx          dy          dz
     12.500000 12.500000 12.424743     0.000003   -0.717020    0.000001  
     12.500000 12.500000 13.175257     0.000002   -0.697053    0.000001  
 
   6 f/i=    0.086796 THz     0.545353 2PiTHz    2.895189 cm-1     0.358958 meV
             X         Y         Z           dx          dy          dz
     12.500000 12.500000 12.424743     0.717140    0.000003   -0.000340  
     12.500000 12.500000 13.175257     0.696929    0.000002   -0.000333  
 
 Finite differences POTIM=  5.000000000000000E-002
  LATTYP: Found a simple cubic cell.
 ALAT       =    25.0000000000
  
  Lattice vectors:
  
 A1 = (  25.0000000000,   0.0000000000,   0.0000000000)
 A2 = (   0.0000000000,  25.0000000000,   0.0000000000)
 A3 = (   0.0000000000,   0.0000000000,  25.0000000000)
 Subroutine PRICEL returns:
 Original cell was already a primitive cell.
 

Analysis of symmetry for initial positions (statically):

 Routine SETGRP: Setting up the symmetry group for a 
 simple cubic supercell.


 Subroutine GETGRP returns: Found 16 space group operations
 (whereof  8 operations were pure point group operations)
 out of a pool of 48 trial point group operations.


The static configuration has the point symmetry C_4v.
 The point group associated with its full space group is D_4h.

Analysis of symmetry for dynamics (positions and initial velocities):

 Subroutine DYNSYM returns: Found 16 space group operations
 (whereof  8 operations were pure point group operations)
 out of a pool of 16 trial space group operations
 (whereof  8 operations were pure point group operations)
 and found also     1 'primitive' translations


The dynamic configuration has the point symmetry C_4v.
 The point group associated with its full space group is D_4h.
 
 KPOINTS: k-points                                

Automatic generation of k-mesh.
 
 Subroutine IBZKPT returns following result:
 ===========================================
 
 Found      1 irreducible k-points:
 
 Following reciprocal coordinates:
            Coordinates               Weight
  0.000000  0.000000  0.000000      1.000000
 
 Following cartesian coordinates:
            Coordinates               Weight
  0.000000  0.000000  0.000000      1.000000
 
 writing wavefunctions
     LOOP+:  cpu time   57.16: real time   61.34
    4ORBIT:  cpu time    0.00: real time    0.00

 total amount of memory used by VASP on root node   214541. kBytes
========================================================================

   base      :      30000. kBytes
   nonlr-proj:        161. kBytes
   fftplans  :      34854. kBytes
   grid      :     144103. kBytes
   one-center:          2. kBytes
   wavefun   :       5421. kBytes
 
  
  
 General timing and accounting informations for this job:
 ========================================================
  
                  Total CPU time used (sec):      774.130
                            User time (sec):      696.491
                          System time (sec):       77.639
                         Elapsed time (sec):      837.245
  
                   Maximum memory used (kb):      648340.
                   Average memory used (kb):           0.
  
                          Minor page faults:      2615560
                          Major page faults:            8
                 Voluntary context switches:        50112
