!pbe ma-def2-SVP opt Freq
%maxcore 3000
%pal
nprocs 4
end
# MECP_BC

*xyz 0 1
H         0.96938193       0.01164066       0.09448295 
F         0.28918192       0.95370877      -0.61299413 
*
