!pbe ma-def2-SVP opt Freq
%maxcore 3000
%pal
nprocs 4
end
# MECP_BC

*xyz 0 1
C         0.96938193       0.01164066       0.09448295 
C         0.28918192       0.95370877      -0.61299413 
H         0.43438190      -0.72932732       0.65093732 
H         2.03938198       0.01164066       0.09448295 
H        -0.78081810       0.95370877      -0.61299413 
H         0.82418191       1.69467676      -1.16944849 
*
