54
Coordinates from ORCA-job job E -3258.184412546467
  N           0.57912883066447      0.55018863582921     -0.40425096918831
  C           1.99216942841287     -0.03746582730475     -0.46239093290170
  C          -0.08079583822429      0.09213923123974      0.89405961816690
  C          -0.20857529015721     -0.07079293316347     -1.56453283089011
  C           2.99811347526807      0.37696174793095      0.60800973837394
  H           2.38931102524068      0.23597849790099     -1.45671858024721
  H           1.83512145269148     -1.13805949266380     -0.44005790752608
  H           3.25927727313653      1.45047247231828      0.50730492264067
  C           4.28317272937282     -0.45634107742706      0.46998919420435
  H           2.58784718057390      0.23312692732516      1.62928723748065
  H           4.68473939125446     -0.34484958162788     -0.56179173589045
  H           4.03357106742035     -1.53406758511210      0.58610657508570
  C           5.36032385738836     -0.06579976812576      1.48335769536688
  H           5.66068492686856      0.99756547015715      1.36914896103714
  H           6.27355895281774     -0.68410123657878      1.36073699247407
  H           5.00459461672878     -0.20067102368123      2.52702791693522
  H           0.49931867478687      0.54801058175768      1.71616680737219
  H           0.08013319586478     -1.00753926190493      0.92514519141947
  C          -1.56558593210732      0.41790395706882      1.05217709993208
  H          -1.77505616627213      1.47667142954988      0.78967734557093
  C          -2.02372238363381      0.15592979365251      2.49518728697123
  H          -2.17582692942806     -0.20617142461107      0.36679975095641
  H          -1.44562287662700      0.80707700723963      3.18770893619543
  H          -1.76878370745547     -0.89037362955835      2.77558509857342
  C          -3.52135672319298      0.38922707385969      2.70028820977103
  H          -3.80640370596720      1.43610560095625      2.46164939262047
  H          -3.82124481364334      0.19434313382951      3.75075817214664
  H          -4.12933237656600     -0.27683614951454      2.05169600268106
  C           0.29897182169224      0.20677839199124     -2.97723794781910
  H          -1.23861157686541      0.31819559057173     -1.46528250013548
  H          -0.22137867706505     -1.16252638008819     -1.35376904101805
  H           0.38875890786625      1.29838965537522     -3.15912134638973
  C          -0.66547804967847     -0.39322434717383     -4.01347150537750
  H           1.30585424375377     -0.23192288183758     -3.13589820208743
  H          -1.67768085086349      0.04576381025364     -3.87005391971354
  H          -0.77503554482113     -1.48384914415730     -3.82274621204473
  C          -0.20810701218888     -0.16883614646023     -5.45566119665533
  H          -0.12473430818195      0.91334507795062     -5.69223648211797
  H          -0.92151238390108     -0.61372873647865     -6.17987836176590
  H           0.78600477993812     -0.62767743051399     -5.64323059799414
  C           0.57619959031731      2.07288641343054     -0.56221591135640
  C           0.80536424669002      2.91210769267446      0.69597680030172
  H          -0.40447662816668      2.32416600788444     -1.00744060272380
  H           1.35279541196291      2.29631135956831     -1.31876571282550
  H          -0.06281143384327      2.82406327545184      1.38224246604154
  C           1.01806146522612      4.39796204649686      0.35090978856301
  H           1.68966669011308      2.55373414361314      1.25463912996147
  C          -0.17004667368211      5.08908660384978     -0.32535191953503
  H           1.92283535630377      4.49805118452386     -0.28960666643061
  H           1.25644342553122      4.92901207404149      1.29727048958129
  H          -0.37801325001489      4.68168845591694     -1.33656858556075
  H           0.02008802380783      6.17559809536697     -0.44633592374321
  H          -1.09772488193253      4.97906439719338      0.27644922653900
  Br          0.47785797278631     -3.61534177878648     -0.09230045502584
