
                                 *****************
                                 * O   R   C   A *
                                 *****************

                                            #,                                       
                                            ###                                      
                                            ####                                     
                                            #####                                    
                                            ######                                   
                                           ########,                                 
                                     ,,################,,,,,                         
                               ,,#################################,,                 
                          ,,##########################################,,             
                       ,#########################################, ''#####,          
                    ,#############################################,,   '####,        
                  ,##################################################,,,,####,       
                ,###########''''           ''''###############################       
              ,#####''   ,,,,##########,,,,          '''####'''          '####       
            ,##' ,,,,###########################,,,                        '##       
           ' ,,###''''                  '''############,,,                           
         ,,##''                                '''############,,,,        ,,,,,,###''
      ,#''                                            '''#######################'''  
     '                                                          ''''####''''         
             ,#######,   #######,   ,#######,      ##                                
            ,#'     '#,  ##    ##  ,#'     '#,    #''#        ,####,   ,####,        
            ##       ##  ##   ,#'  ##            #'  '#       #'       #'  '#        
            ##       ##  #######   ##           ,######,      #####,   #    #        
            '#,     ,#'  ##    ##  '#,     ,#' ,#      #,     #,   #   #,  ,#        
             '#######'   ##     ##  '#######'  #'      '#     '####' # '####'        



                #########################################################
                #                        -***-                          #
                #          Department of theory and spectroscopy        #
                #                                                       #
                #                      Frank Neese                      #
                #                                                       #
                #     Directorship, Architecture, Infrastructure        #
                #                    SHARK, DRIVERS                     #
                #        Core code/Algorithms in most modules           #
                #                                                       #
                #        Max Planck Institute fuer Kohlenforschung      #
                #                Kaiser Wilhelm Platz 1                 #
                #                 D-45470 Muelheim/Ruhr                 #
                #                      Germany                          #
                #                                                       #
                #                  All rights reserved                  #
                #                        -***-                          #
                #########################################################


                         Program Version 6.0.0  -   RELEASE  -


 With contributions from (in alphabetic order):
   Daniel Aravena         : Magnetic Suceptibility
   Michael Atanasov       : Ab Initio Ligand Field Theory (pilot matlab implementation)
   Alexander A. Auer      : GIAO ZORA, VPT2 properties, NMR spectrum
   Ute Becker             : All parallelization in ORCA, NUMFREQ, NUMCALC


                                 *****************
                                 * O   R   C   A *
                                 *****************

                                            #,                                       
                                            ###                                      
                                            ####                                     
                                            #####                                    
                                            ######                                   
                                           ########,                                 
                                     ,,################,,,,,                         
                               ,,#################################,,                 
                          ,,##########################################,,             
                       ,#########################################, ''#####,          
                    ,#############################################,,   '####,        
                  ,##################################################,,,,####,       
                ,###########''''           ''''###############################       
              ,#####''   ,,,,##########,,,,          '''####'''          '####       
            ,##' ,,,,###########################,,,                        '##       
           ' ,,###''''                  '''############,,,                           
         ,,##''                                '''############,,,,        ,,,,,,###''
      ,#''                                            '''#######################'''  
     '                                                          ''''####''''         
             ,#######,   #######,   ,#######,      ##                                
            ,#'     '#,  ##    ##  ,#'     '#,    #''#        ,####,   ,####,        
            ##       ##  ##   ,#'  ##            #'  '#       #'       #'  '#        
            ##       ##  #######   ##           ,######,      #####,   #    #        
            '#,     ,#'  ##    ##  '#,     ,#' ,#      #,     #,   #   #,  ,#        
             '#######'   ##     ##  '#######'  #'      '#     '####' # '####'        



                #########################################################
                #                        -***-                          #
                #          Department of theory and spectroscopy        #
                #                                                       #
                #                      Frank Neese                      #
                #                                                       #
                #     Directorship, Architecture, Infrastructure        #
                #                    SHARK, DRIVERS                     #
                #        Core code/Algorithms in most modules           #
                #                                                       #
                #        Max Planck Institute fuer Kohlenforschung      #
                #                Kaiser Wilhelm Platz 1                 #
                #                 D-45470 Muelheim/Ruhr                 #
                #                      Germany                          #
                #                                                       #
                #                  All rights reserved                  #
                #                        -***-                          #
                #########################################################


                         Program Version 6.0.0  -   RELEASE  -


 With contributions from (in alphabetic order):
   Daniel Aravena         : Magnetic Suceptibility
   Michael Atanasov       : Ab Initio Ligand Field Theory (pilot matlab implementation)
   Alexander A. Auer      : GIAO ZORA, VPT2 properties, NMR spectrum
   Ute Becker             : All parallelization in ORCA, NUMFREQ, NUMCALC
   Giovanni Bistoni       : ED, misc. LED, open-shell LED, HFLD
   Martin Brehm           : Molecular dynamics
   Dmytro Bykov           : pre 5.0 version of the SCF Hessian
   Marcos Casanova-Páez   : Triplet and SCS-CIS(D). UHF-(DLPNO)-IP/EA/STEOM-CCSD. UHF-CVS-IP/STEOM-CCSD
   Vijay G. Chilkuri      : MRCI spin determinant printing, contributions to CSF-ICE
   Pauline Colinet        : FMM embedding
   Dipayan Datta          : RHF DLPNO-CCSD density
   Achintya Kumar Dutta   : EOM-CC, STEOM-CC
   Nicolas Foglia         : Exact transition moments, OPA infrastructure, MCD improvements
   Dmitry Ganyushin       : Spin-Orbit,Spin-Spin,Magnetic field MRCI
   Miquel Garcia          : C-PCM and meta-GGA Hessian, CCSD/C-PCM, Gaussian charge scheme
   Tiago L. C. Gouveia    : GS-ROHF, GS-ROCIS
   Yang Guo               : DLPNO-NEVPT2, F12-NEVPT2, CIM, IAO-localization
   Andreas Hansen         : Spin unrestricted coupled pair/coupled cluster methods
   Ingolf Harden          : AUTO-CI MPn and infrastructure 
   Benjamin Helmich-Paris : MC-RPA, TRAH-(SCF,CASSCF), AVAS, COSX integrals, SCF dyn. polar.
   Lee Huntington         : MR-EOM, pCC
   Robert Izsak           : Overlap fitted RIJCOSX, COSX-SCS-MP3, EOM
   Riya Kayal             : Wick's Theorem for AUTO-CI, AUTO-CI UHF-CCSDT
   Emily Kempfer          : AUTO-CI, RHF CISDT and CCSDT
   Christian Kollmar      : KDIIS, OOCD, Brueckner-CCSD(T), CCSD density, CASPT2, CASPT2-K, improved NEVPT2
   Axel Koslowski         : Symmetry handling
   Simone Kossmann        : Meta GGA functionals, TD-DFT gradient, OOMP2, (MP2 Hessian; deprecated post 5.0)
   Lucas Lang             : DCDCAS
   Marvin Lechner         : AUTO-CI (C++ implementation), FIC-MRCC
   Spencer Leger          : CASSCF response
   Dagmar Lenk            : GEPOL surface, SMD, ORCA-2-JSON
   Dimitrios Liakos       : Extrapolation schemes; Compound Job, initial MDCI parallelization
   Dimitrios Manganas     : Further ROCIS development; embedding schemes. LFT, Crystal Embedding
   Dimitrios Pantazis     : SARC Basis sets
   Anastasios Papadopoulos: AUTO-CI, single reference methods and gradients
   Taras Petrenko         : pre 6.0 DFT Hessian and TD-DFT gradient, (ASA, deprecated), ECA, 1-Electron XAS/XES, NRVS
   Peter Pinski           : DLPNO-MP2, DLPNO-MP2 Gradient
   Christoph Reimann      : Effective Core Potentials
   Marius Retegan         : Local ZFS, SOC
   Christoph Riplinger    : Optimizer, TS searches, QM/MM, DLPNO-CCSD(T), (RO)-DLPNO pert. Triples
   Michael Roemelt        : Original ROCIS implementation
   Masaaki Saitow         : Open-shell DLPNO-CCSD energy and density
   Barbara Sandhoefer     : DKH picture change effects
   Kantharuban Sivalingam : CASSCF convergence/infrastructure, NEVPT2 and variants, FIC-MRCI
   Bernardo de Souza      : ESD, SOC TD-DFT
   Georgi Stoychev        : AutoAux, RI-MP2 NMR, DLPNO-MP2 response, X2C
   Van Anh Tran           : RI-MP2 g-tensors
   Willem Van den Heuvel  : Paramagnetic NMR
   Zikuan Wang            : NOTCH, Electric field optimization 
   Frank Wennmohs         : Technical directorship and infrastructure
   Hang Xu                : AUTO-CI-Response properties 


 We gratefully acknowledge several colleagues who have allowed us to
 interface, adapt or use parts of their codes:
   Stefan Grimme, W. Hujo, H. Kruse, P. Pracht,  : VdW corrections, initial TS optimization,
                  C. Bannwarth, S. Ehlert,         DFT functionals, gCP, sTDA/sTD-DF
                  L. Wittmann, M. Mueller
   Ed Valeev, F. Pavosevic, A. Kumar             : LibInt (2-el integral package), F12 methods
   Garnet Chan, S. Sharma, J. Yang, R. Olivares  : DMRG
   Ulf Ekstrom                                   : XCFun DFT Library
   Mihaly Kallay                                 : mrcc  (arbitrary order and MRCC methods)
   Frank Weinhold                                : gennbo (NPA and NBO analysis)
   Simon Mueller                                 : openCOSMO-RS
   Christopher J. Cramer and Donald G. Truhlar   : smd solvation model
   Giovanni Bistoni       : ED, misc. LED, open-shell LED, HFLD
   Martin Brehm           : Molecular dynamics
   Dmytro Bykov           : pre 5.0 version of the SCF Hessian
   Marcos Casanova-Páez   : Triplet and SCS-CIS(D). UHF-(DLPNO)-IP/EA/STEOM-CCSD. UHF-CVS-IP/STEOM-CCSD
   Vijay G. Chilkuri      : MRCI spin determinant printing, contributions to CSF-ICE
   Pauline Colinet        : FMM embedding
   Dipayan Datta          : RHF DLPNO-CCSD density
   Achintya Kumar Dutta   : EOM-CC, STEOM-CC
   Nicolas Foglia         : Exact transition moments, OPA infrastructure, MCD improvements
   Dmitry Ganyushin       : Spin-Orbit,Spin-Spin,Magnetic field MRCI
   Miquel Garcia          : C-PCM and meta-GGA Hessian, CCSD/C-PCM, Gaussian charge scheme
   Tiago L. C. Gouveia    : GS-ROHF, GS-ROCIS
   Yang Guo               : DLPNO-NEVPT2, F12-NEVPT2, CIM, IAO-localization
   Andreas Hansen         : Spin unrestricted coupled pair/coupled cluster methods
   Ingolf Harden          : AUTO-CI MPn and infrastructure 
   Benjamin Helmich-Paris : MC-RPA, TRAH-(SCF,CASSCF), AVAS, COSX integrals, SCF dyn. polar.
   Lee Huntington         : MR-EOM, pCC
   Robert Izsak           : Overlap fitted RIJCOSX, COSX-SCS-MP3, EOM
   Riya Kayal             : Wick's Theorem for AUTO-CI, AUTO-CI UHF-CCSDT
   Emily Kempfer          : AUTO-CI, RHF CISDT and CCSDT
   Christian Kollmar      : KDIIS, OOCD, Brueckner-CCSD(T), CCSD density, CASPT2, CASPT2-K, improved NEVPT2
   Axel Koslowski         : Symmetry handling
   Simone Kossmann        : Meta GGA functionals, TD-DFT gradient, OOMP2, (MP2 Hessian; deprecated post 5.0)
   Lucas Lang             : DCDCAS
   Marvin Lechner         : AUTO-CI (C++ implementation), FIC-MRCC
   Spencer Leger          : CASSCF response
   Dagmar Lenk            : GEPOL surface, SMD, ORCA-2-JSON
   Dimitrios Liakos       : Extrapolation schemes; Compound Job, initial MDCI parallelization
   Dimitrios Manganas     : Further ROCIS development; embedding schemes. LFT, Crystal Embedding
   Dimitrios Pantazis     : SARC Basis sets
   Anastasios Papadopoulos: AUTO-CI, single reference methods and gradients
   Taras Petrenko         : pre 6.0 DFT Hessian and TD-DFT gradient, (ASA, deprecated), ECA, 1-Electron XAS/XES, NRVS
   Peter Pinski           : DLPNO-MP2, DLPNO-MP2 Gradient
   Christoph Reimann      : Effective Core Potentials
   Marius Retegan         : Local ZFS, SOC
   Christoph Riplinger    : Optimizer, TS searches, QM/MM, DLPNO-CCSD(T), (RO)-DLPNO pert. Triples
   Michael Roemelt        : Original ROCIS implementation
   Masaaki Saitow         : Open-shell DLPNO-CCSD energy and density
   Barbara Sandhoefer     : DKH picture change effects
   Kantharuban Sivalingam : CASSCF convergence/infrastructure, NEVPT2 and variants, FIC-MRCI
   Bernardo de Souza      : ESD, SOC TD-DFT
   Georgi Stoychev        : AutoAux, RI-MP2 NMR, DLPNO-MP2 response, X2C
   Van Anh Tran           : RI-MP2 g-tensors
   Willem Van den Heuvel  : Paramagnetic NMR
   Zikuan Wang            : NOTCH, Electric field optimization 
   Frank Wennmohs         : Technical directorship and infrastructure
   Hang Xu                : AUTO-CI-Response properties 


 We gratefully acknowledge several colleagues who have allowed us to
 interface, adapt or use parts of their codes:
   Stefan Grimme, W. Hujo, H. Kruse, P. Pracht,  : VdW corrections, initial TS optimization,
                  C. Bannwarth, S. Ehlert,         DFT functionals, gCP, sTDA/sTD-DF
                  L. Wittmann, M. Mueller
   Ed Valeev, F. Pavosevic, A. Kumar             : LibInt (2-el integral package), F12 methods
   Garnet Chan, S. Sharma, J. Yang, R. Olivares  : DMRG
   Ulf Ekstrom                                   : XCFun DFT Library
   Mihaly Kallay                                 : mrcc  (arbitrary order and MRCC methods)
   Frank Weinhold                                : gennbo (NPA and NBO analysis)
   Simon Mueller                                 : openCOSMO-RS
   Christopher J. Cramer and Donald G. Truhlar   : smd solvation model
   Lars Goerigk                                  : TD-DFT with DH, B97 family of functionals
   V. Asgeirsson, H. Jonsson                     : NEB implementation
   FAccTs GmbH                                   : IRC, NEB, NEB-TS, DLPNO-Multilevel, CI-OPT
                                                   MM, QMMM, 2- and 3-layer-ONIOM, Crystal-QMMM,
                                                   LR-CPCM, SF, NACMEs, symmetry and pop. for TD-DFT,
                                                   nearIR, NL-DFT gradient (VV10), updates on ESD,
                                                   ML-optimized integration grids, MBIS, APM,
                                                   GOAT, DOCKER, SOLVATOR, interface openCOSMO-RS
   S Lehtola, MJT Oliveira, MAL Marques          : LibXC Library
   Liviu Ungur et al                             : ANISO software


 Your calculation uses the libint2 library for the computation of 2-el integrals
 For citations please refer to: http://libint.valeyev.net

 Your ORCA version has been built with support for libXC version: 6.2.2
 For citations please refer to: https://libxc.gitlab.io

 This ORCA versions uses:
   CBLAS   interface :  Fast vector & matrix operations
   LAPACKE interface :  Fast linear algebra routines
   SCALAPACK package :  Parallel linear algebra routines
   Shared memory     :  Shared parallel matrices
   BLAS/LAPACK       :  OpenBLAS 0.3.27  USE64BITINT DYNAMIC_ARCH NO_AFFINITY Zen SINGLE_THREADED
        Core in use  :  Zen
   Copyright (c) 2011-2014, The OpenBLAS Project


   Lars Goerigk                                  : TD-DFT with DH, B97 family of functionals
   V. Asgeirsson, H. Jonsson                     : NEB implementation
   FAccTs GmbH                                   : IRC, NEB, NEB-TS, DLPNO-Multilevel, CI-OPT
                                                   MM, QMMM, 2- and 3-layer-ONIOM, Crystal-QMMM,
                                                   LR-CPCM, SF, NACMEs, symmetry and pop. for TD-DFT,
                                                   nearIR, NL-DFT gradient (VV10), updates on ESD,
                                                   ML-optimized integration grids, MBIS, APM,
                                                   GOAT, DOCKER, SOLVATOR, interface openCOSMO-RS
   S Lehtola, MJT Oliveira, MAL Marques          : LibXC Library
   Liviu Ungur et al                             : ANISO software


 Your calculation uses the libint2 library for the computation of 2-el integrals
 For citations please refer to: http://libint.valeyev.net

 Your ORCA version has been built with support for libXC version: 6.2.2
 For citations please refer to: https://libxc.gitlab.io

 This ORCA versions uses:
   CBLAS   interface :  Fast vector & matrix operations
   LAPACKE interface :  Fast linear algebra routines
   SCALAPACK package :  Parallel linear algebra routines
   Shared memory     :  Shared parallel matrices
   BLAS/LAPACK       :  OpenBLAS 0.3.27  USE64BITINT DYNAMIC_ARCH NO_AFFINITY Zen SINGLE_THREADED
        Core in use  :  Zen
   Copyright (c) 2011-2014, The OpenBLAS Project


                                 *****************
                                 * O   R   C   A *
                                 *****************

                                            #,                                       
                                            ###                                      
                                            ####                                     
                                            #####                                    
                                            ######                                   
                                           ########,                                 
                                     ,,################,,,,,                         
                               ,,#################################,,                 
                          ,,##########################################,,             
                       ,#########################################, ''#####,          
                    ,#############################################,,   '####,        
                  ,##################################################,,,,####,       
                ,###########''''           ''''###############################       
              ,#####''   ,,,,##########,,,,          '''####'''          '####       
            ,##' ,,,,###########################,,,                        '##       
           ' ,,###''''                  '''############,,,                           
         ,,##''                                '''############,,,,        ,,,,,,###''
      ,#''                                            '''#######################'''  
     '                                                          ''''####''''         
             ,#######,   #######,   ,#######,      ##                                
            ,#'     '#,  ##    ##  ,#'     '#,    #''#        ,####,   ,####,        
            ##       ##  ##   ,#'  ##            #'  '#       #'       #'  '#        
            ##       ##  #######   ##           ,######,      #####,   #    #        
            '#,     ,#'  ##    ##  '#,     ,#' ,#      #,     #,   #   #,  ,#        
             '#######'   ##     ##  '#######'  #'      '#     '####' # '####'        



                #########################################################
                #                        -***-                          #
                #          Department of theory and spectroscopy        #
                #                                                       #
                #                      Frank Neese                      #
                #                                                       #
                #     Directorship, Architecture, Infrastructure        #
                #                    SHARK, DRIVERS                     #
                #        Core code/Algorithms in most modules           #
                #                                                       #
                #        Max Planck Institute fuer Kohlenforschung      #
                #                Kaiser Wilhelm Platz 1                 #
                #                 D-45470 Muelheim/Ruhr                 #
                #                      Germany                          #
                #                                                       #
                #                  All rights reserved                  #
                #                        -***-                          #
                #########################################################


                         Program Version 6.0.0  -   RELEASE  -


 With contributions from (in alphabetic order):
   Daniel Aravena         : Magnetic Suceptibility
   Michael Atanasov       : Ab Initio Ligand Field Theory (pilot matlab implementation)
   Alexander A. Auer      : GIAO ZORA, VPT2 properties, NMR spectrum
   Ute Becker             : All parallelization in ORCA, NUMFREQ, NUMCALC
   Giovanni Bistoni       : ED, misc. LED, open-shell LED, HFLD
   Martin Brehm           : Molecular dynamics
   Dmytro Bykov           : pre 5.0 version of the SCF Hessian
   Marcos Casanova-Páez   : Triplet and SCS-CIS(D). UHF-(DLPNO)-IP/EA/STEOM-CCSD. UHF-CVS-IP/STEOM-CCSD
   Vijay G. Chilkuri      : MRCI spin determinant printing, contributions to CSF-ICE
   Pauline Colinet        : FMM embedding
   Dipayan Datta          : RHF DLPNO-CCSD density
   Achintya Kumar Dutta   : EOM-CC, STEOM-CC
   Nicolas Foglia         : Exact transition moments, OPA infrastructure, MCD improvements
   Dmitry Ganyushin       : Spin-Orbit,Spin-Spin,Magnetic field MRCI
   Miquel Garcia          : C-PCM and meta-GGA Hessian, CCSD/C-PCM, Gaussian charge scheme
   Tiago L. C. Gouveia    : GS-ROHF, GS-ROCIS
   Yang Guo               : DLPNO-NEVPT2, F12-NEVPT2, CIM, IAO-localization
   Andreas Hansen         : Spin unrestricted coupled pair/coupled cluster methods
   Ingolf Harden          : AUTO-CI MPn and infrastructure 
   Benjamin Helmich-Paris : MC-RPA, TRAH-(SCF,CASSCF), AVAS, COSX integrals, SCF dyn. polar.
   Lee Huntington         : MR-EOM, pCC
   Robert Izsak           : Overlap fitted RIJCOSX, COSX-SCS-MP3, EOM
   Riya Kayal             : Wick's Theorem for AUTO-CI, AUTO-CI UHF-CCSDT
   Emily Kempfer          : AUTO-CI, RHF CISDT and CCSDT
   Christian Kollmar      : KDIIS, OOCD, Brueckner-CCSD(T), CCSD density, CASPT2, CASPT2-K, improved NEVPT2
   Axel Koslowski         : Symmetry handling
   Simone Kossmann        : Meta GGA functionals, TD-DFT gradient, OOMP2, (MP2 Hessian; deprecated post 5.0)
   Lucas Lang             : DCDCAS
   Marvin Lechner         : AUTO-CI (C++ implementation), FIC-MRCC
   Spencer Leger          : CASSCF response
   Dagmar Lenk            : GEPOL surface, SMD, ORCA-2-JSON
   Dimitrios Liakos       : Extrapolation schemes; Compound Job, initial MDCI parallelization
   Dimitrios Manganas     : Further ROCIS development; embedding schemes. LFT, Crystal Embedding
   Dimitrios Pantazis     : SARC Basis sets
   Anastasios Papadopoulos: AUTO-CI, single reference methods and gradients
   Taras Petrenko         : pre 6.0 DFT Hessian and TD-DFT gradient, (ASA, deprecated), ECA, 1-Electron XAS/XES, NRVS
   Peter Pinski           : DLPNO-MP2, DLPNO-MP2 Gradient
   Christoph Reimann      : Effective Core Potentials
   Marius Retegan         : Local ZFS, SOC
   Christoph Riplinger    : Optimizer, TS searches, QM/MM, DLPNO-CCSD(T), (RO)-DLPNO pert. Triples
   Michael Roemelt        : Original ROCIS implementation
   Masaaki Saitow         : Open-shell DLPNO-CCSD energy and density
   Barbara Sandhoefer     : DKH picture change effects
   Kantharuban Sivalingam : CASSCF convergence/infrastructure, NEVPT2 and variants, FIC-MRCI
   Bernardo de Souza      : ESD, SOC TD-DFT
   Georgi Stoychev        : AutoAux, RI-MP2 NMR, DLPNO-MP2 response, X2C
   Van Anh Tran           : RI-MP2 g-tensors
   Willem Van den Heuvel  : Paramagnetic NMR
   Zikuan Wang            : NOTCH, Electric field optimization 
   Frank Wennmohs         : Technical directorship and infrastructure
   Hang Xu                : AUTO-CI-Response properties 


 We gratefully acknowledge several colleagues who have allowed us to
 interface, adapt or use parts of their codes:
   Stefan Grimme, W. Hujo, H. Kruse, P. Pracht,  : VdW corrections, initial TS optimization,
                  C. Bannwarth, S. Ehlert,         DFT functionals, gCP, sTDA/sTD-DF
                  L. Wittmann, M. Mueller
   Ed Valeev, F. Pavosevic, A. Kumar             : LibInt (2-el integral package), F12 methods
   Garnet Chan, S. Sharma, J. Yang, R. Olivares  : DMRG
   Ulf Ekstrom                                   : XCFun DFT Library
   Mihaly Kallay                                 : mrcc  (arbitrary order and MRCC methods)
   Frank Weinhold                                : gennbo (NPA and NBO analysis)
   Simon Mueller                                 : openCOSMO-RS

                                 *****************
                                 * O   R   C   A *
                                 *****************

                                            #,                                       
                                            ###                                      
                                            ####                                     
                                            #####                                    
                                            ######                                   
                                           ########,                                 
                                     ,,################,,,,,                         
                               ,,#################################,,                 
                          ,,##########################################,,             
                       ,#########################################, ''#####,          
                    ,#############################################,,   '####,        
                  ,##################################################,,,,####,       
                ,###########''''           ''''###############################       
              ,#####''   ,,,,##########,,,,          '''####'''          '####       
            ,##' ,,,,###########################,,,                        '##       
           ' ,,###''''                  '''############,,,                           
         ,,##''                                '''############,,,,        ,,,,,,###''
      ,#''                                            '''#######################'''  
     '                                                          ''''####''''         
             ,#######,   #######,   ,#######,      ##                                
            ,#'     '#,  ##    ##  ,#'     '#,    #''#        ,####,   ,####,        
            ##       ##  ##   ,#'  ##            #'  '#       #'       #'  '#        
            ##       ##  #######   ##           ,######,      #####,   #    #        
            '#,     ,#'  ##    ##  '#,     ,#' ,#      #,     #,   #   #,  ,#        
             '#######'   ##     ##  '#######'  #'      '#     '####' # '####'        



                #########################################################
                #                        -***-                          #
                #          Department of theory and spectroscopy        #
                #                                                       #
                #                      Frank Neese                      #
                #                                                       #
                #     Directorship, Architecture, Infrastructure        #
                #                    SHARK, DRIVERS                     #
                #        Core code/Algorithms in most modules           #
                #                                                       #
                #        Max Planck Institute fuer Kohlenforschung      #
                #                Kaiser Wilhelm Platz 1                 #
                #                 D-45470 Muelheim/Ruhr                 #
                #                      Germany                          #
                #                                                       #
                #                  All rights reserved                  #
                #                        -***-                          #
                #########################################################


                         Program Version 6.0.0  -   RELEASE  -


 With contributions from (in alphabetic order):
   Daniel Aravena         : Magnetic Suceptibility
   Michael Atanasov       : Ab Initio Ligand Field Theory (pilot matlab implementation)
   Alexander A. Auer      : GIAO ZORA, VPT2 properties, NMR spectrum
   Ute Becker             : All parallelization in ORCA, NUMFREQ, NUMCALC
   Giovanni Bistoni       : ED, misc. LED, open-shell LED, HFLD
   Martin Brehm           : Molecular dynamics
   Dmytro Bykov           : pre 5.0 version of the SCF Hessian
   Marcos Casanova-Páez   : Triplet and SCS-CIS(D). UHF-(DLPNO)-IP/EA/STEOM-CCSD. UHF-CVS-IP/STEOM-CCSD
   Vijay G. Chilkuri      : MRCI spin determinant printing, contributions to CSF-ICE
   Pauline Colinet        : FMM embedding
   Dipayan Datta          : RHF DLPNO-CCSD density
   Achintya Kumar Dutta   : EOM-CC, STEOM-CC
   Nicolas Foglia         : Exact transition moments, OPA infrastructure, MCD improvements
   Dmitry Ganyushin       : Spin-Orbit,Spin-Spin,Magnetic field MRCI
   Miquel Garcia          : C-PCM and meta-GGA Hessian, CCSD/C-PCM, Gaussian charge scheme
   Tiago L. C. Gouveia    : GS-ROHF, GS-ROCIS
   Yang Guo               : DLPNO-NEVPT2, F12-NEVPT2, CIM, IAO-localization
   Andreas Hansen         : Spin unrestricted coupled pair/coupled cluster methods
   Ingolf Harden          : AUTO-CI MPn and infrastructure 
   Benjamin Helmich-Paris : MC-RPA, TRAH-(SCF,CASSCF), AVAS, COSX integrals, SCF dyn. polar.
   Lee Huntington         : MR-EOM, pCC
   Robert Izsak           : Overlap fitted RIJCOSX, COSX-SCS-MP3, EOM
   Riya Kayal             : Wick's Theorem for AUTO-CI, AUTO-CI UHF-CCSDT
   Emily Kempfer          : AUTO-CI, RHF CISDT and CCSDT
   Christian Kollmar      : KDIIS, OOCD, Brueckner-CCSD(T), CCSD density, CASPT2, CASPT2-K, improved NEVPT2
   Axel Koslowski         : Symmetry handling
   Simone Kossmann        : Meta GGA functionals, TD-DFT gradient, OOMP2, (MP2 Hessian; deprecated post 5.0)
   Lucas Lang             : DCDCAS
   Marvin Lechner         : AUTO-CI (C++ implementation), FIC-MRCC
   Spencer Leger          : CASSCF response
   Dagmar Lenk            : GEPOL surface, SMD, ORCA-2-JSON
   Dimitrios Liakos       : Extrapolation schemes; Compound Job, initial MDCI parallelization
   Dimitrios Manganas     : Further ROCIS development; embedding schemes. LFT, Crystal Embedding
   Dimitrios Pantazis     : SARC Basis sets
   Anastasios Papadopoulos: AUTO-CI, single reference methods and gradients
   Taras Petrenko         : pre 6.0 DFT Hessian and TD-DFT gradient, (ASA, deprecated), ECA, 1-Electron XAS/XES, NRVS
   Peter Pinski           : DLPNO-MP2, DLPNO-MP2 Gradient
   Christoph Reimann      : Effective Core Potentials
   Marius Retegan         : Local ZFS, SOC
   Christoph Riplinger    : Optimizer, TS searches, QM/MM, DLPNO-CCSD(T), (RO)-DLPNO pert. Triples
   Michael Roemelt        : Original ROCIS implementation
   Masaaki Saitow         : Open-shell DLPNO-CCSD energy and density
   Barbara Sandhoefer     : DKH picture change effects
   Kantharuban Sivalingam : CASSCF convergence/infrastructure, NEVPT2 and variants, FIC-MRCI
   Bernardo de Souza      : ESD, SOC TD-DFT
   Georgi Stoychev        : AutoAux, RI-MP2 NMR, DLPNO-MP2 response, X2C
   Van Anh Tran           : RI-MP2 g-tensors
   Willem Van den Heuvel  : Paramagnetic NMR
   Zikuan Wang            : NOTCH, Electric field optimization 
   Frank Wennmohs         : Technical directorship and infrastructure
   Hang Xu                : AUTO-CI-Response properties 


 We gratefully acknowledge several colleagues who have allowed us to
 interface, adapt or use parts of their codes:
   Stefan Grimme, W. Hujo, H. Kruse, P. Pracht,  : VdW corrections, initial TS optimization,
                  C. Bannwarth, S. Ehlert,         DFT functionals, gCP, sTDA/sTD-DF
                  L. Wittmann, M. Mueller
   Ed Valeev, F. Pavosevic, A. Kumar             : LibInt (2-el integral package), F12 methods
   Garnet Chan, S. Sharma, J. Yang, R. Olivares  : DMRG
   Ulf Ekstrom                                   : XCFun DFT Library
   Mihaly Kallay                                 : mrcc  (arbitrary order and MRCC methods)
   Frank Weinhold                                : gennbo (NPA and NBO analysis)
   Simon Mueller                                 : openCOSMO-RS
   Christopher J. Cramer and Donald G. Truhlar   : smd solvation model
   Lars Goerigk                                  : TD-DFT with DH, B97 family of functionals
   V. Asgeirsson, H. Jonsson                     : NEB implementation
   FAccTs GmbH                                   : IRC, NEB, NEB-TS, DLPNO-Multilevel, CI-OPT
                                                   MM, QMMM, 2- and 3-layer-ONIOM, Crystal-QMMM,
                                                   LR-CPCM, SF, NACMEs, symmetry and pop. for TD-DFT,
                                                   nearIR, NL-DFT gradient (VV10), updates on ESD,
                                                   ML-optimized integration grids, MBIS, APM,
                                                   GOAT, DOCKER, SOLVATOR, interface openCOSMO-RS
   S Lehtola, MJT Oliveira, MAL Marques          : LibXC Library
   Liviu Ungur et al                             : ANISO software


 Your calculation uses the libint2 library for the computation of 2-el integrals
 For citations please refer to: http://libint.valeyev.net

 Your ORCA version has been built with support for libXC version: 6.2.2
 For citations please refer to: https://libxc.gitlab.io

 This ORCA versions uses:
   CBLAS   interface :  Fast vector & matrix operations
   LAPACKE interface :  Fast linear algebra routines
   SCALAPACK package :  Parallel linear algebra routines
   Shared memory     :  Shared parallel matrices
   BLAS/LAPACK       :  OpenBLAS 0.3.27  USE64BITINT DYNAMIC_ARCH NO_AFFINITY Zen SINGLE_THREADED
        Core in use  :  Zen
   Copyright (c) 2011-2014, The OpenBLAS Project


   Christopher J. Cramer and Donald G. Truhlar   : smd solvation model
   Lars Goerigk                                  : TD-DFT with DH, B97 family of functionals
   V. Asgeirsson, H. Jonsson                     : NEB implementation
   FAccTs GmbH                                   : IRC, NEB, NEB-TS, DLPNO-Multilevel, CI-OPT
                                                   MM, QMMM, 2- and 3-layer-ONIOM, Crystal-QMMM,
                                                   LR-CPCM, SF, NACMEs, symmetry and pop. for TD-DFT,
                                                   nearIR, NL-DFT gradient (VV10), updates on ESD,
                                                   ML-optimized integration grids, MBIS, APM,
                                                   GOAT, DOCKER, SOLVATOR, interface openCOSMO-RS
   S Lehtola, MJT Oliveira, MAL Marques          : LibXC Library
   Liviu Ungur et al                             : ANISO software


 Your calculation uses the libint2 library for the computation of 2-el integrals
 For citations please refer to: http://libint.valeyev.net

 Your ORCA version has been built with support for libXC version: 6.2.2
 For citations please refer to: https://libxc.gitlab.io

 This ORCA versions uses:
   CBLAS   interface :  Fast vector & matrix operations
   LAPACKE interface :  Fast linear algebra routines
   SCALAPACK package :  Parallel linear algebra routines
   Shared memory     :  Shared parallel matrices
   BLAS/LAPACK       :  OpenBLAS 0.3.27  USE64BITINT DYNAMIC_ARCH NO_AFFINITY Zen SINGLE_THREADED
        Core in use  :  Zen
   Copyright (c) 2011-2014, The OpenBLAS Project



                                 *****************
                                 * O   R   C   A *
                                 *****************

                                            #,                                       
                                            ###                                      
                                            ####                                     
                                            #####                                    
                                            ######                                   
                                           ########,                                 
                                     ,,################,,,,,                         
                               ,,#################################,,                 
                          ,,##########################################,,             
                       ,#########################################, ''#####,          
                    ,#############################################,,   '####,        
                  ,##################################################,,,,####,       
                ,###########''''           ''''###############################       
              ,#####''   ,,,,##########,,,,          '''####'''          '####       
            ,##' ,,,,###########################,,,                        '##       
           ' ,,###''''                  '''############,,,                           
         ,,##''                                '''############,,,,        ,,,,,,###''
      ,#''                                            '''#######################'''  
     '                                                          ''''####''''         
             ,#######,   #######,   ,#######,      ##                                
            ,#'     '#,  ##    ##  ,#'     '#,    #''#        ,####,   ,####,        
            ##       ##  ##   ,#'  ##            #'  '#       #'       #'  '#        
            ##       ##  #######   ##           ,######,      #####,   #    #        
            '#,     ,#'  ##    ##  '#,     ,#' ,#      #,     #,   #   #,  ,#        
             '#######'   ##     ##  '#######'  #'      '#     '####' # '####'        



                #########################################################

                                 *****************
                                 * O   R   C   A *
                                 *****************

                                 *****************
                                 * O   R   C   A *
                                 *****************

                                 *****************
                                 * O   R   C   A *
                                 *****************

                                            #,                                       
                                            ###                                      
                                            ####                                     
                                            #####                                    
                                            ######                                   
                                           ########,                                 
                                     ,,################,,,,,                         
                               ,,#################################,,                 
                          ,,##########################################,,             
                       ,#########################################, ''#####,          
                    ,#############################################,,   '####,        
                  ,##################################################,,,,####,       
                ,###########''''           ''''###############################       
              ,#####''   ,,,,##########,,,,          '''####'''          '####       
            ,##' ,,,,###########################,,,                        '##       
           ' ,,###''''                  '''############,,,                           
         ,,##''                                '''############,,,,        ,,,,,,###''
      ,#''                                            '''#######################'''  
     '                                                          ''''####''''         
             ,#######,   #######,   ,#######,      ##                                
            ,#'     '#,  ##    ##  ,#'     '#,    #''#        ,####,   ,####,        
            ##       ##  ##   ,#'  ##            #'  '#       #'       #'  '#        
            ##       ##  #######   ##           ,######,      #####,   #    #        
            '#,     ,#'  ##    ##  '#,     ,#' ,#      #,     #,   #   #,  ,#        
             '#######'   ##     ##  '#######'  #'      '#     '####' # '####'        



                #########################################################
                #                        -***-                          #
                #          Department of theory and spectroscopy        #
                #                                                       #
                #                      Frank Neese                      #
                #                                                       #
                #     Directorship, Architecture, Infrastructure        #
                #                    SHARK, DRIVERS                     #
                #        Core code/Algorithms in most modules           #

                                            #,                                       
                                            ###                                      
                                            ####                                     
                                            #####                                    
                                            ######                                   
                                           ########,                                 
                                     ,,################,,,,,                         
                               ,,#################################,,                 
                          ,,##########################################,,             
                       ,#########################################, ''#####,          
                    ,#############################################,,   '####,        
                  ,##################################################,,,,####,       
                ,###########''''           ''''###############################       
              ,#####''   ,,,,##########,,,,          '''####'''          '####       
            ,##' ,,,,###########################,,,                        '##       
           ' ,,###''''                  '''############,,,                           
         ,,##''                                '''############,,,,        ,,,,,,###''
      ,#''                                            '''#######################'''  
     '                                                          ''''####''''         
             ,#######,   #######,   ,#######,      ##                                
            ,#'     '#,  ##    ##  ,#'     '#,    #''#        ,####,   ,####,        
            ##       ##  ##   ,#'  ##            #'  '#       #'       #'  '#        
            ##       ##  #######   ##           ,######,      #####,   #    #        
            '#,     ,#'  ##    ##  '#,     ,#' ,#      #,     #,   #   #,  ,#        
             '#######'   ##     ##  '#######'  #'      '#     '####' # '####'        



                #########################################################
                #                        -***-                          #
                #          Department of theory and spectroscopy        #
                #                                                       #
                #                      Frank Neese                      #
                #                                                       #
                #     Directorship, Architecture, Infrastructure        #
                #                    SHARK, DRIVERS                     #
                #        Core code/Algorithms in most modules           #
                #                                                       #
                #        Max Planck Institute fuer Kohlenforschung      #
                #                Kaiser Wilhelm Platz 1                 #
                #                 D-45470 Muelheim/Ruhr                 #
                #                      Germany                          #
                #                                                       #
                #                  All rights reserved                  #
                #                        -***-                          #
                #########################################################


                         Program Version 6.0.0  -   RELEASE  -


 With contributions from (in alphabetic order):
   Daniel Aravena         : Magnetic Suceptibility
   Michael Atanasov       : Ab Initio Ligand Field Theory (pilot matlab implementation)
   Alexander A. Auer      : GIAO ZORA, VPT2 properties, NMR spectrum
   Ute Becker             : All parallelization in ORCA, NUMFREQ, NUMCALC
   Giovanni Bistoni       : ED, misc. LED, open-shell LED, HFLD
   Martin Brehm           : Molecular dynamics
   Dmytro Bykov           : pre 5.0 version of the SCF Hessian

                                            #,                                       
                                            ###                                      
                                            ####                                     
                                            #####                                    
                                            ######                                   
                                           ########,                                 
                                     ,,################,,,,,                         
                               ,,#################################,,                 
                          ,,##########################################,,             
                       ,#########################################, ''#####,          
                    ,#############################################,,   '####,        
                  ,##################################################,,,,####,       
                ,###########''''           ''''###############################       
              ,#####''   ,,,,##########,,,,          '''####'''          '####       
            ,##' ,,,,###########################,,,                        '##       
           ' ,,###''''                  '''############,,,                           
         ,,##''                                '''############,,,,        ,,,,,,###''
      ,#''                                            '''#######################'''  
     '                                                          ''''####''''         
             ,#######,   #######,   ,#######,      ##                                
            ,#'     '#,  ##    ##  ,#'     '#,    #''#        ,####,   ,####,        
            ##       ##  ##   ,#'  ##            #'  '#       #'       #'  '#        
            ##       ##  #######   ##           ,######,      #####,   #    #        
            '#,     ,#'  ##    ##  '#,     ,#' ,#      #,     #,   #   #,  ,#        
             '#######'   ##     ##  '#######'  #'      '#     '####' # '####'        



                #########################################################
                #                        -***-                          #
                #          Department of theory and spectroscopy        #
                #                                                       #
                #                      Frank Neese                      #
                #                                                       #
                #     Directorship, Architecture, Infrastructure        #
                #                    SHARK, DRIVERS                     #
                #        Core code/Algorithms in most modules           #
                #                                                       #
                #        Max Planck Institute fuer Kohlenforschung      #
                #                Kaiser Wilhelm Platz 1                 #
                #                 D-45470 Muelheim/Ruhr                 #
                #                      Germany                          #
                #                                                       #
                #                  All rights reserved                  #
                #                        -***-                          #
                #########################################################


                         Program Version 6.0.0  -   RELEASE  -


 With contributions from (in alphabetic order):
   Daniel Aravena         : Magnetic Suceptibility
   Michael Atanasov       : Ab Initio Ligand Field Theory (pilot matlab implementation)
   Alexander A. Auer      : GIAO ZORA, VPT2 properties, NMR spectrum
   Ute Becker             : All parallelization in ORCA, NUMFREQ, NUMCALC
   Giovanni Bistoni       : ED, misc. LED, open-shell LED, HFLD
   Martin Brehm           : Molecular dynamics
   Dmytro Bykov           : pre 5.0 version of the SCF Hessian
                #                                                       #
                #        Max Planck Institute fuer Kohlenforschung      #
                #                Kaiser Wilhelm Platz 1                 #
                #                 D-45470 Muelheim/Ruhr                 #
                #                      Germany                          #
                #                                                       #
                #                  All rights reserved                  #
                #                        -***-                          #
                #########################################################


                         Program Version 6.0.0  -   RELEASE  -


 With contributions from (in alphabetic order):
   Daniel Aravena         : Magnetic Suceptibility
   Michael Atanasov       : Ab Initio Ligand Field Theory (pilot matlab implementation)
   Alexander A. Auer      : GIAO ZORA, VPT2 properties, NMR spectrum
   Ute Becker             : All parallelization in ORCA, NUMFREQ, NUMCALC
   Giovanni Bistoni       : ED, misc. LED, open-shell LED, HFLD
   Martin Brehm           : Molecular dynamics
   Dmytro Bykov           : pre 5.0 version of the SCF Hessian
   Marcos Casanova-Páez   : Triplet and SCS-CIS(D). UHF-(DLPNO)-IP/EA/STEOM-CCSD. UHF-CVS-IP/STEOM-CCSD
   Vijay G. Chilkuri      : MRCI spin determinant printing, contributions to CSF-ICE
   Pauline Colinet        : FMM embedding
   Dipayan Datta          : RHF DLPNO-CCSD density
   Achintya Kumar Dutta   : EOM-CC, STEOM-CC
   Nicolas Foglia         : Exact transition moments, OPA infrastructure, MCD improvements
   Dmitry Ganyushin       : Spin-Orbit,Spin-Spin,Magnetic field MRCI
   Miquel Garcia          : C-PCM and meta-GGA Hessian, CCSD/C-PCM, Gaussian charge scheme
   Tiago L. C. Gouveia    : GS-ROHF, GS-ROCIS
   Yang Guo               : DLPNO-NEVPT2, F12-NEVPT2, CIM, IAO-localization
   Andreas Hansen         : Spin unrestricted coupled pair/coupled cluster methods
   Ingolf Harden          : AUTO-CI MPn and infrastructure 
   Benjamin Helmich-Paris : MC-RPA, TRAH-(SCF,CASSCF), AVAS, COSX integrals, SCF dyn. polar.
   Lee Huntington         : MR-EOM, pCC
   Robert Izsak           : Overlap fitted RIJCOSX, COSX-SCS-MP3, EOM
   Riya Kayal             : Wick's Theorem for AUTO-CI, AUTO-CI UHF-CCSDT
   Emily Kempfer          : AUTO-CI, RHF CISDT and CCSDT
   Christian Kollmar      : KDIIS, OOCD, Brueckner-CCSD(T), CCSD density, CASPT2, CASPT2-K, improved NEVPT2
   Axel Koslowski         : Symmetry handling
   Simone Kossmann        : Meta GGA functionals, TD-DFT gradient, OOMP2, (MP2 Hessian; deprecated post 5.0)
   Lucas Lang             : DCDCAS
   Marvin Lechner         : AUTO-CI (C++ implementation), FIC-MRCC
   Spencer Leger          : CASSCF response
   Dagmar Lenk            : GEPOL surface, SMD, ORCA-2-JSON
   Dimitrios Liakos       : Extrapolation schemes; Compound Job, initial MDCI parallelization
   Dimitrios Manganas     : Further ROCIS development; embedding schemes. LFT, Crystal Embedding
   Dimitrios Pantazis     : SARC Basis sets
   Anastasios Papadopoulos: AUTO-CI, single reference methods and gradients
   Taras Petrenko         : pre 6.0 DFT Hessian and TD-DFT gradient, (ASA, deprecated), ECA, 1-Electron XAS/XES, NRVS
   Peter Pinski           : DLPNO-MP2, DLPNO-MP2 Gradient
   Christoph Reimann      : Effective Core Potentials
   Marius Retegan         : Local ZFS, SOC
   Christoph Riplinger    : Optimizer, TS searches, QM/MM, DLPNO-CCSD(T), (RO)-DLPNO pert. Triples
   Michael Roemelt        : Original ROCIS implementation
   Masaaki Saitow         : Open-shell DLPNO-CCSD energy and density
   Barbara Sandhoefer     : DKH picture change effects
   Kantharuban Sivalingam : CASSCF convergence/infrastructure, NEVPT2 and variants, FIC-MRCI
   Bernardo de Souza      : ESD, SOC TD-DFT
   Georgi Stoychev        : AutoAux, RI-MP2 NMR, DLPNO-MP2 response, X2C
   Van Anh Tran           : RI-MP2 g-tensors
   Willem Van den Heuvel  : Paramagnetic NMR
   Marcos Casanova-Páez   : Triplet and SCS-CIS(D). UHF-(DLPNO)-IP/EA/STEOM-CCSD. UHF-CVS-IP/STEOM-CCSD
   Vijay G. Chilkuri      : MRCI spin determinant printing, contributions to CSF-ICE
   Pauline Colinet        : FMM embedding
   Dipayan Datta          : RHF DLPNO-CCSD density
   Achintya Kumar Dutta   : EOM-CC, STEOM-CC
   Nicolas Foglia         : Exact transition moments, OPA infrastructure, MCD improvements
   Dmitry Ganyushin       : Spin-Orbit,Spin-Spin,Magnetic field MRCI
   Miquel Garcia          : C-PCM and meta-GGA Hessian, CCSD/C-PCM, Gaussian charge scheme
   Tiago L. C. Gouveia    : GS-ROHF, GS-ROCIS
   Yang Guo               : DLPNO-NEVPT2, F12-NEVPT2, CIM, IAO-localization
   Andreas Hansen         : Spin unrestricted coupled pair/coupled cluster methods
   Ingolf Harden          : AUTO-CI MPn and infrastructure 
   Benjamin Helmich-Paris : MC-RPA, TRAH-(SCF,CASSCF), AVAS, COSX integrals, SCF dyn. polar.
   Lee Huntington         : MR-EOM, pCC
   Robert Izsak           : Overlap fitted RIJCOSX, COSX-SCS-MP3, EOM
   Riya Kayal             : Wick's Theorem for AUTO-CI, AUTO-CI UHF-CCSDT
   Emily Kempfer          : AUTO-CI, RHF CISDT and CCSDT
   Christian Kollmar      : KDIIS, OOCD, Brueckner-CCSD(T), CCSD density, CASPT2, CASPT2-K, improved NEVPT2
   Axel Koslowski         : Symmetry handling
   Simone Kossmann        : Meta GGA functionals, TD-DFT gradient, OOMP2, (MP2 Hessian; deprecated post 5.0)
   Lucas Lang             : DCDCAS
   Marvin Lechner         : AUTO-CI (C++ implementation), FIC-MRCC
   Spencer Leger          : CASSCF response
   Dagmar Lenk            : GEPOL surface, SMD, ORCA-2-JSON
   Dimitrios Liakos       : Extrapolation schemes; Compound Job, initial MDCI parallelization
   Dimitrios Manganas     : Further ROCIS development; embedding schemes. LFT, Crystal Embedding
   Dimitrios Pantazis     : SARC Basis sets
   Anastasios Papadopoulos: AUTO-CI, single reference methods and gradients
   Taras Petrenko         : pre 6.0 DFT Hessian and TD-DFT gradient, (ASA, deprecated), ECA, 1-Electron XAS/XES, NRVS
   Peter Pinski           : DLPNO-MP2, DLPNO-MP2 Gradient
   Christoph Reimann      : Effective Core Potentials
   Marius Retegan         : Local ZFS, SOC
   Christoph Riplinger    : Optimizer, TS searches, QM/MM, DLPNO-CCSD(T), (RO)-DLPNO pert. Triples
   Michael Roemelt        : Original ROCIS implementation
   Masaaki Saitow         : Open-shell DLPNO-CCSD energy and density
   Barbara Sandhoefer     : DKH picture change effects
   Kantharuban Sivalingam : CASSCF convergence/infrastructure, NEVPT2 and variants, FIC-MRCI
   Bernardo de Souza      : ESD, SOC TD-DFT
   Georgi Stoychev        : AutoAux, RI-MP2 NMR, DLPNO-MP2 response, X2C
   Van Anh Tran           : RI-MP2 g-tensors
   Willem Van den Heuvel  : Paramagnetic NMR
   Zikuan Wang            : NOTCH, Electric field optimization 
   Frank Wennmohs         : Technical directorship and infrastructure
   Hang Xu                : AUTO-CI-Response properties 


 We gratefully acknowledge several colleagues who have allowed us to
 interface, adapt or use parts of their codes:
   Stefan Grimme, W. Hujo, H. Kruse, P. Pracht,  : VdW corrections, initial TS optimization,
                  C. Bannwarth, S. Ehlert,         DFT functionals, gCP, sTDA/sTD-DF
                  L. Wittmann, M. Mueller
   Ed Valeev, F. Pavosevic, A. Kumar             : LibInt (2-el integral package), F12 methods
   Garnet Chan, S. Sharma, J. Yang, R. Olivares  : DMRG
   Ulf Ekstrom                                   : XCFun DFT Library
   Mihaly Kallay                                 : mrcc  (arbitrary order and MRCC methods)
   Frank Weinhold                                : gennbo (NPA and NBO analysis)
   Simon Mueller                                 : openCOSMO-RS
   Christopher J. Cramer and Donald G. Truhlar   : smd solvation model
   Lars Goerigk                                  : TD-DFT with DH, B97 family of functionals
   V. Asgeirsson, H. Jonsson                     : NEB implementation
   Marcos Casanova-Páez   : Triplet and SCS-CIS(D). UHF-(DLPNO)-IP/EA/STEOM-CCSD. UHF-CVS-IP/STEOM-CCSD
   Vijay G. Chilkuri      : MRCI spin determinant printing, contributions to CSF-ICE
   Pauline Colinet        : FMM embedding
   Dipayan Datta          : RHF DLPNO-CCSD density
   Achintya Kumar Dutta   : EOM-CC, STEOM-CC
   Nicolas Foglia         : Exact transition moments, OPA infrastructure, MCD improvements
   Dmitry Ganyushin       : Spin-Orbit,Spin-Spin,Magnetic field MRCI
   Miquel Garcia          : C-PCM and meta-GGA Hessian, CCSD/C-PCM, Gaussian charge scheme
   Tiago L. C. Gouveia    : GS-ROHF, GS-ROCIS
   Yang Guo               : DLPNO-NEVPT2, F12-NEVPT2, CIM, IAO-localization
   Andreas Hansen         : Spin unrestricted coupled pair/coupled cluster methods
   Ingolf Harden          : AUTO-CI MPn and infrastructure 
   Benjamin Helmich-Paris : MC-RPA, TRAH-(SCF,CASSCF), AVAS, COSX integrals, SCF dyn. polar.
   Lee Huntington         : MR-EOM, pCC
   Robert Izsak           : Overlap fitted RIJCOSX, COSX-SCS-MP3, EOM
   Riya Kayal             : Wick's Theorem for AUTO-CI, AUTO-CI UHF-CCSDT
   Emily Kempfer          : AUTO-CI, RHF CISDT and CCSDT
   Christian Kollmar      : KDIIS, OOCD, Brueckner-CCSD(T), CCSD density, CASPT2, CASPT2-K, improved NEVPT2
   Axel Koslowski         : Symmetry handling
   Simone Kossmann        : Meta GGA functionals, TD-DFT gradient, OOMP2, (MP2 Hessian; deprecated post 5.0)
   Lucas Lang             : DCDCAS
   Marvin Lechner         : AUTO-CI (C++ implementation), FIC-MRCC
   Spencer Leger          : CASSCF response
   Dagmar Lenk            : GEPOL surface, SMD, ORCA-2-JSON
   Dimitrios Liakos       : Extrapolation schemes; Compound Job, initial MDCI parallelization
   Dimitrios Manganas     : Further ROCIS development; embedding schemes. LFT, Crystal Embedding
   Dimitrios Pantazis     : SARC Basis sets
   Anastasios Papadopoulos: AUTO-CI, single reference methods and gradients
   Taras Petrenko         : pre 6.0 DFT Hessian and TD-DFT gradient, (ASA, deprecated), ECA, 1-Electron XAS/XES, NRVS
   Peter Pinski           : DLPNO-MP2, DLPNO-MP2 Gradient
   Christoph Reimann      : Effective Core Potentials
   Marius Retegan         : Local ZFS, SOC
   Christoph Riplinger    : Optimizer, TS searches, QM/MM, DLPNO-CCSD(T), (RO)-DLPNO pert. Triples
   Michael Roemelt        : Original ROCIS implementation
   Masaaki Saitow         : Open-shell DLPNO-CCSD energy and density
   Barbara Sandhoefer     : DKH picture change effects
   Kantharuban Sivalingam : CASSCF convergence/infrastructure, NEVPT2 and variants, FIC-MRCI
   Bernardo de Souza      : ESD, SOC TD-DFT
   Georgi Stoychev        : AutoAux, RI-MP2 NMR, DLPNO-MP2 response, X2C
   Van Anh Tran           : RI-MP2 g-tensors
   Willem Van den Heuvel  : Paramagnetic NMR
   Zikuan Wang            : NOTCH, Electric field optimization 
   Frank Wennmohs         : Technical directorship and infrastructure
   Hang Xu                : AUTO-CI-Response properties 


 We gratefully acknowledge several colleagues who have allowed us to
 interface, adapt or use parts of their codes:
   Stefan Grimme, W. Hujo, H. Kruse, P. Pracht,  : VdW corrections, initial TS optimization,
                  C. Bannwarth, S. Ehlert,         DFT functionals, gCP, sTDA/sTD-DF
                  L. Wittmann, M. Mueller
   Ed Valeev, F. Pavosevic, A. Kumar             : LibInt (2-el integral package), F12 methods
   Garnet Chan, S. Sharma, J. Yang, R. Olivares  : DMRG
   Ulf Ekstrom                                   : XCFun DFT Library
   Mihaly Kallay                                 : mrcc  (arbitrary order and MRCC methods)
   Frank Weinhold                                : gennbo (NPA and NBO analysis)
   Simon Mueller                                 : openCOSMO-RS
   Christopher J. Cramer and Donald G. Truhlar   : smd solvation model
   Lars Goerigk                                  : TD-DFT with DH, B97 family of functionals
   V. Asgeirsson, H. Jonsson                     : NEB implementation
   Zikuan Wang            : NOTCH, Electric field optimization 
   Frank Wennmohs         : Technical directorship and infrastructure
   Hang Xu                : AUTO-CI-Response properties 


 We gratefully acknowledge several colleagues who have allowed us to
 interface, adapt or use parts of their codes:
   Stefan Grimme, W. Hujo, H. Kruse, P. Pracht,  : VdW corrections, initial TS optimization,
                  C. Bannwarth, S. Ehlert,         DFT functionals, gCP, sTDA/sTD-DF
                  L. Wittmann, M. Mueller
   Ed Valeev, F. Pavosevic, A. Kumar             : LibInt (2-el integral package), F12 methods
   Garnet Chan, S. Sharma, J. Yang, R. Olivares  : DMRG
   Ulf Ekstrom                                   : XCFun DFT Library
   Mihaly Kallay                                 : mrcc  (arbitrary order and MRCC methods)
   Frank Weinhold                                : gennbo (NPA and NBO analysis)
   Simon Mueller                                 : openCOSMO-RS
   Christopher J. Cramer and Donald G. Truhlar   : smd solvation model
   Lars Goerigk                                  : TD-DFT with DH, B97 family of functionals
   V. Asgeirsson, H. Jonsson                     : NEB implementation
   FAccTs GmbH                                   : IRC, NEB, NEB-TS, DLPNO-Multilevel, CI-OPT
                                                   MM, QMMM, 2- and 3-layer-ONIOM, Crystal-QMMM,
                                                   LR-CPCM, SF, NACMEs, symmetry and pop. for TD-DFT,
                                                   nearIR, NL-DFT gradient (VV10), updates on ESD,
                                                   ML-optimized integration grids, MBIS, APM,
                                                   GOAT, DOCKER, SOLVATOR, interface openCOSMO-RS
   S Lehtola, MJT Oliveira, MAL Marques          : LibXC Library
   Liviu Ungur et al                             : ANISO software


 Your calculation uses the libint2 library for the computation of 2-el integrals
 For citations please refer to: http://libint.valeyev.net

 Your ORCA version has been built with support for libXC version: 6.2.2
 For citations please refer to: https://libxc.gitlab.io

 This ORCA versions uses:
   CBLAS   interface :  Fast vector & matrix operations
   LAPACKE interface :  Fast linear algebra routines
   SCALAPACK package :  Parallel linear algebra routines
   Shared memory     :  Shared parallel matrices
   BLAS/LAPACK       :  OpenBLAS 0.3.27  USE64BITINT DYNAMIC_ARCH NO_AFFINITY Zen SINGLE_THREADED
        Core in use  :  Zen
   Copyright (c) 2011-2014, The OpenBLAS Project



                                 *****************
                                 * O   R   C   A *
                                 *****************

                                            #,                                       
                                            ###                                      
                                            ####                                     
                                            #####                                    
                                            ######                                   
                                           ########,                                 
                                     ,,################,,,,,                         
                               ,,#################################,,                 
                          ,,##########################################,,             
                       ,#########################################, ''#####,          
                    ,#############################################,,   '####,        
                  ,##################################################,,,,####,       
                ,###########''''           ''''###############################       
              ,#####''   ,,,,##########,,,,          '''####'''          '####       
            ,##' ,,,,###########################,,,                        '##       
           ' ,,###''''                  '''############,,,                           
         ,,##''                                '''############,,,,        ,,,,,,###''
      ,#''                                            '''#######################'''  
     '                                                          ''''####''''         
             ,#######,   #######,   ,#######,      ##                                
            ,#'     '#,  ##    ##  ,#'     '#,    #''#        ,####,   ,####,        
            ##       ##  ##   ,#'  ##            #'  '#       #'       #'  '#        
            ##       ##  #######   ##           ,######,      #####,   #    #        
            '#,     ,#'  ##    ##  '#,     ,#' ,#      #,     #,   #   #,  ,#        
             '#######'   ##     ##  '#######'  #'      '#     '####' # '####'        



                #########################################################
                #                        -***-                          #
                #          Department of theory and spectroscopy        #
                #                                                       #
                #                      Frank Neese                      #
                #                                                       #
                #     Directorship, Architecture, Infrastructure        #
                #                    SHARK, DRIVERS                     #
                #        Core code/Algorithms in most modules           #
                #                                                       #
                #        Max Planck Institute fuer Kohlenforschung      #
                #                Kaiser Wilhelm Platz 1                 #
                #                 D-45470 Muelheim/Ruhr                 #
                #                      Germany                          #
                #                                                       #
                #                  All rights reserved                  #
                #                        -***-                          #
                #########################################################


                         Program Version 6.0.0  -   RELEASE  -


 With contributions from (in alphabetic order):
   Daniel Aravena         : Magnetic Suceptibility
   Michael Atanasov       : Ab Initio Ligand Field Theory (pilot matlab implementation)
   Alexander A. Auer      : GIAO ZORA, VPT2 properties, NMR spectrum
   Ute Becker             : All parallelization in ORCA, NUMFREQ, NUMCALC

                                 *****************
                                 * O   R   C   A *
                                 *****************

                                            #,                                       
                                            ###                                      
                                            ####                                     
                                            #####                                    
                                            ######                                   
                                           ########,                                 
                                     ,,################,,,,,                         
                               ,,#################################,,                 
                          ,,##########################################,,             
                       ,#########################################, ''#####,          
                    ,#############################################,,   '####,        
                  ,##################################################,,,,####,       
                ,###########''''           ''''###############################       
              ,#####''   ,,,,##########,,,,          '''####'''          '####       
            ,##' ,,,,###########################,,,                        '##       
           ' ,,###''''                  '''############,,,                           
         ,,##''                                '''############,,,,        ,,,,,,###''
      ,#''                                            '''#######################'''  
     '                                                          ''''####''''         
             ,#######,   #######,   ,#######,      ##                                
            ,#'     '#,  ##    ##  ,#'     '#,    #''#        ,####,   ,####,        
            ##       ##  ##   ,#'  ##            #'  '#       #'       #'  '#        
            ##       ##  #######   ##           ,######,      #####,   #    #        
            '#,     ,#'  ##    ##  '#,     ,#' ,#      #,     #,   #   #,  ,#        
             '#######'   ##     ##  '#######'  #'      '#     '####' # '####'        



                #########################################################
                #                        -***-                          #
                #          Department of theory and spectroscopy        #
                #                                                       #
                #                      Frank Neese                      #
                #                                                       #
                #     Directorship, Architecture, Infrastructure        #
                #                    SHARK, DRIVERS                     #
                #        Core code/Algorithms in most modules           #
                #                                                       #
                #        Max Planck Institute fuer Kohlenforschung      #
                #                Kaiser Wilhelm Platz 1                 #
                #                 D-45470 Muelheim/Ruhr                 #
                #                      Germany                          #
                #                                                       #
                #                  All rights reserved                  #
                #                        -***-                          #
                #########################################################


                         Program Version 6.0.0  -   RELEASE  -


 With contributions from (in alphabetic order):
   Daniel Aravena         : Magnetic Suceptibility
   Michael Atanasov       : Ab Initio Ligand Field Theory (pilot matlab implementation)
   Alexander A. Auer      : GIAO ZORA, VPT2 properties, NMR spectrum
   Ute Becker             : All parallelization in ORCA, NUMFREQ, NUMCALC
   FAccTs GmbH                                   : IRC, NEB, NEB-TS, DLPNO-Multilevel, CI-OPT
                                                   MM, QMMM, 2- and 3-layer-ONIOM, Crystal-QMMM,
                                                   LR-CPCM, SF, NACMEs, symmetry and pop. for TD-DFT,
                                                   nearIR, NL-DFT gradient (VV10), updates on ESD,
                                                   ML-optimized integration grids, MBIS, APM,
                                                   GOAT, DOCKER, SOLVATOR, interface openCOSMO-RS
   S Lehtola, MJT Oliveira, MAL Marques          : LibXC Library
   Liviu Ungur et al                             : ANISO software


 Your calculation uses the libint2 library for the computation of 2-el integrals
 For citations please refer to: http://libint.valeyev.net

 Your ORCA version has been built with support for libXC version: 6.2.2
 For citations please refer to: https://libxc.gitlab.io

 This ORCA versions uses:
   CBLAS   interface :  Fast vector & matrix operations
   LAPACKE interface :  Fast linear algebra routines
   SCALAPACK package :  Parallel linear algebra routines
   Shared memory     :  Shared parallel matrices
   BLAS/LAPACK       :  OpenBLAS 0.3.27  USE64BITINT DYNAMIC_ARCH NO_AFFINITY Zen SINGLE_THREADED
        Core in use  :  Zen
   Copyright (c) 2011-2014, The OpenBLAS Project


   FAccTs GmbH                                   : IRC, NEB, NEB-TS, DLPNO-Multilevel, CI-OPT
                                                   MM, QMMM, 2- and 3-layer-ONIOM, Crystal-QMMM,
                                                   LR-CPCM, SF, NACMEs, symmetry and pop. for TD-DFT,
                                                   nearIR, NL-DFT gradient (VV10), updates on ESD,
                                                   ML-optimized integration grids, MBIS, APM,
                                                   GOAT, DOCKER, SOLVATOR, interface openCOSMO-RS
   S Lehtola, MJT Oliveira, MAL Marques          : LibXC Library
   Liviu Ungur et al                             : ANISO software


 Your calculation uses the libint2 library for the computation of 2-el integrals
 For citations please refer to: http://libint.valeyev.net

 Your ORCA version has been built with support for libXC version: 6.2.2
 For citations please refer to: https://libxc.gitlab.io

 This ORCA versions uses:
   CBLAS   interface :  Fast vector & matrix operations
   LAPACKE interface :  Fast linear algebra routines
   SCALAPACK package :  Parallel linear algebra routines
   Shared memory     :  Shared parallel matrices
   BLAS/LAPACK       :  OpenBLAS 0.3.27  USE64BITINT DYNAMIC_ARCH NO_AFFINITY Zen SINGLE_THREADED
        Core in use  :  Zen
   Copyright (c) 2011-2014, The OpenBLAS Project


   Giovanni Bistoni       : ED, misc. LED, open-shell LED, HFLD
   Martin Brehm           : Molecular dynamics
   Dmytro Bykov           : pre 5.0 version of the SCF Hessian
   Marcos Casanova-Páez   : Triplet and SCS-CIS(D). UHF-(DLPNO)-IP/EA/STEOM-CCSD. UHF-CVS-IP/STEOM-CCSD
   Vijay G. Chilkuri      : MRCI spin determinant printing, contributions to CSF-ICE
   Pauline Colinet        : FMM embedding
   Dipayan Datta          : RHF DLPNO-CCSD density
   Achintya Kumar Dutta   : EOM-CC, STEOM-CC
   Nicolas Foglia         : Exact transition moments, OPA infrastructure, MCD improvements
   Dmitry Ganyushin       : Spin-Orbit,Spin-Spin,Magnetic field MRCI
   Miquel Garcia          : C-PCM and meta-GGA Hessian, CCSD/C-PCM, Gaussian charge scheme
   Tiago L. C. Gouveia    : GS-ROHF, GS-ROCIS
   Yang Guo               : DLPNO-NEVPT2, F12-NEVPT2, CIM, IAO-localization
   Andreas Hansen         : Spin unrestricted coupled pair/coupled cluster methods
   Ingolf Harden          : AUTO-CI MPn and infrastructure 
   Benjamin Helmich-Paris : MC-RPA, TRAH-(SCF,CASSCF), AVAS, COSX integrals, SCF dyn. polar.
   Lee Huntington         : MR-EOM, pCC
   Robert Izsak           : Overlap fitted RIJCOSX, COSX-SCS-MP3, EOM
   Riya Kayal             : Wick's Theorem for AUTO-CI, AUTO-CI UHF-CCSDT
   Emily Kempfer          : AUTO-CI, RHF CISDT and CCSDT
   Christian Kollmar      : KDIIS, OOCD, Brueckner-CCSD(T), CCSD density, CASPT2, CASPT2-K, improved NEVPT2
   Axel Koslowski         : Symmetry handling
   Simone Kossmann        : Meta GGA functionals, TD-DFT gradient, OOMP2, (MP2 Hessian; deprecated post 5.0)
   Lucas Lang             : DCDCAS
   Marvin Lechner         : AUTO-CI (C++ implementation), FIC-MRCC
   Spencer Leger          : CASSCF response
   Dagmar Lenk            : GEPOL surface, SMD, ORCA-2-JSON
   Dimitrios Liakos       : Extrapolation schemes; Compound Job, initial MDCI parallelization
   Dimitrios Manganas     : Further ROCIS development; embedding schemes. LFT, Crystal Embedding
   Dimitrios Pantazis     : SARC Basis sets
   Anastasios Papadopoulos: AUTO-CI, single reference methods and gradients
   Taras Petrenko         : pre 6.0 DFT Hessian and TD-DFT gradient, (ASA, deprecated), ECA, 1-Electron XAS/XES, NRVS
   Peter Pinski           : DLPNO-MP2, DLPNO-MP2 Gradient
   Christoph Reimann      : Effective Core Potentials
   Marius Retegan         : Local ZFS, SOC
   Christoph Riplinger    : Optimizer, TS searches, QM/MM, DLPNO-CCSD(T), (RO)-DLPNO pert. Triples
   Michael Roemelt        : Original ROCIS implementation
   Masaaki Saitow         : Open-shell DLPNO-CCSD energy and density
   Barbara Sandhoefer     : DKH picture change effects
   Kantharuban Sivalingam : CASSCF convergence/infrastructure, NEVPT2 and variants, FIC-MRCI
   Bernardo de Souza      : ESD, SOC TD-DFT
   Georgi Stoychev        : AutoAux, RI-MP2 NMR, DLPNO-MP2 response, X2C
   Van Anh Tran           : RI-MP2 g-tensors
   Willem Van den Heuvel  : Paramagnetic NMR
   Zikuan Wang            : NOTCH, Electric field optimization 
   Frank Wennmohs         : Technical directorship and infrastructure
   Hang Xu                : AUTO-CI-Response properties 


 We gratefully acknowledge several colleagues who have allowed us to
 interface, adapt or use parts of their codes:
   Stefan Grimme, W. Hujo, H. Kruse, P. Pracht,  : VdW corrections, initial TS optimization,
                  C. Bannwarth, S. Ehlert,         DFT functionals, gCP, sTDA/sTD-DF
                  L. Wittmann, M. Mueller
   Ed Valeev, F. Pavosevic, A. Kumar             : LibInt (2-el integral package), F12 methods
   Garnet Chan, S. Sharma, J. Yang, R. Olivares  : DMRG
   Ulf Ekstrom                                   : XCFun DFT Library
   Mihaly Kallay                                 : mrcc  (arbitrary order and MRCC methods)
   Frank Weinhold                                : gennbo (NPA and NBO analysis)
   Simon Mueller                                 : openCOSMO-RS
   Christopher J. Cramer and Donald G. Truhlar   : smd solvation model
   Giovanni Bistoni       : ED, misc. LED, open-shell LED, HFLD
   Martin Brehm           : Molecular dynamics
   Dmytro Bykov           : pre 5.0 version of the SCF Hessian
   Marcos Casanova-Páez   : Triplet and SCS-CIS(D). UHF-(DLPNO)-IP/EA/STEOM-CCSD. UHF-CVS-IP/STEOM-CCSD
   Vijay G. Chilkuri      : MRCI spin determinant printing, contributions to CSF-ICE
   Pauline Colinet        : FMM embedding
   Dipayan Datta          : RHF DLPNO-CCSD density
   Achintya Kumar Dutta   : EOM-CC, STEOM-CC
   Nicolas Foglia         : Exact transition moments, OPA infrastructure, MCD improvements
   Dmitry Ganyushin       : Spin-Orbit,Spin-Spin,Magnetic field MRCI
   Miquel Garcia          : C-PCM and meta-GGA Hessian, CCSD/C-PCM, Gaussian charge scheme
   Tiago L. C. Gouveia    : GS-ROHF, GS-ROCIS
   Yang Guo               : DLPNO-NEVPT2, F12-NEVPT2, CIM, IAO-localization
   Andreas Hansen         : Spin unrestricted coupled pair/coupled cluster methods
   Ingolf Harden          : AUTO-CI MPn and infrastructure 
   Benjamin Helmich-Paris : MC-RPA, TRAH-(SCF,CASSCF), AVAS, COSX integrals, SCF dyn. polar.
   Lee Huntington         : MR-EOM, pCC
   Robert Izsak           : Overlap fitted RIJCOSX, COSX-SCS-MP3, EOM
   Riya Kayal             : Wick's Theorem for AUTO-CI, AUTO-CI UHF-CCSDT
   Emily Kempfer          : AUTO-CI, RHF CISDT and CCSDT
   Christian Kollmar      : KDIIS, OOCD, Brueckner-CCSD(T), CCSD density, CASPT2, CASPT2-K, improved NEVPT2
   Axel Koslowski         : Symmetry handling
   Simone Kossmann        : Meta GGA functionals, TD-DFT gradient, OOMP2, (MP2 Hessian; deprecated post 5.0)
   Lucas Lang             : DCDCAS
   Marvin Lechner         : AUTO-CI (C++ implementation), FIC-MRCC
   Spencer Leger          : CASSCF response
   Dagmar Lenk            : GEPOL surface, SMD, ORCA-2-JSON
   Dimitrios Liakos       : Extrapolation schemes; Compound Job, initial MDCI parallelization
   Dimitrios Manganas     : Further ROCIS development; embedding schemes. LFT, Crystal Embedding
   Dimitrios Pantazis     : SARC Basis sets
   Anastasios Papadopoulos: AUTO-CI, single reference methods and gradients
   Taras Petrenko         : pre 6.0 DFT Hessian and TD-DFT gradient, (ASA, deprecated), ECA, 1-Electron XAS/XES, NRVS
   Peter Pinski           : DLPNO-MP2, DLPNO-MP2 Gradient
   Christoph Reimann      : Effective Core Potentials
   Marius Retegan         : Local ZFS, SOC
   Christoph Riplinger    : Optimizer, TS searches, QM/MM, DLPNO-CCSD(T), (RO)-DLPNO pert. Triples
   Michael Roemelt        : Original ROCIS implementation
   Masaaki Saitow         : Open-shell DLPNO-CCSD energy and density
   Barbara Sandhoefer     : DKH picture change effects
   Kantharuban Sivalingam : CASSCF convergence/infrastructure, NEVPT2 and variants, FIC-MRCI
   Bernardo de Souza      : ESD, SOC TD-DFT
   Georgi Stoychev        : AutoAux, RI-MP2 NMR, DLPNO-MP2 response, X2C
   Van Anh Tran           : RI-MP2 g-tensors
   Willem Van den Heuvel  : Paramagnetic NMR
   Zikuan Wang            : NOTCH, Electric field optimization 
   Frank Wennmohs         : Technical directorship and infrastructure
   Hang Xu                : AUTO-CI-Response properties 


 We gratefully acknowledge several colleagues who have allowed us to
 interface, adapt or use parts of their codes:
   Stefan Grimme, W. Hujo, H. Kruse, P. Pracht,  : VdW corrections, initial TS optimization,
                  C. Bannwarth, S. Ehlert,         DFT functionals, gCP, sTDA/sTD-DF
                  L. Wittmann, M. Mueller
   Ed Valeev, F. Pavosevic, A. Kumar             : LibInt (2-el integral package), F12 methods
   Garnet Chan, S. Sharma, J. Yang, R. Olivares  : DMRG
   Ulf Ekstrom                                   : XCFun DFT Library
   Mihaly Kallay                                 : mrcc  (arbitrary order and MRCC methods)
   Frank Weinhold                                : gennbo (NPA and NBO analysis)
   Simon Mueller                                 : openCOSMO-RS
   Christopher J. Cramer and Donald G. Truhlar   : smd solvation model
   Lars Goerigk                                  : TD-DFT with DH, B97 family of functionals
   V. Asgeirsson, H. Jonsson                     : NEB implementation
   FAccTs GmbH                                   : IRC, NEB, NEB-TS, DLPNO-Multilevel, CI-OPT
                                                   MM, QMMM, 2- and 3-layer-ONIOM, Crystal-QMMM,
                                                   LR-CPCM, SF, NACMEs, symmetry and pop. for TD-DFT,
                                                   nearIR, NL-DFT gradient (VV10), updates on ESD,
                                                   ML-optimized integration grids, MBIS, APM,
                                                   GOAT, DOCKER, SOLVATOR, interface openCOSMO-RS
   S Lehtola, MJT Oliveira, MAL Marques          : LibXC Library
   Liviu Ungur et al                             : ANISO software


 Your calculation uses the libint2 library for the computation of 2-el integrals
 For citations please refer to: http://libint.valeyev.net

 Your ORCA version has been built with support for libXC version: 6.2.2
 For citations please refer to: https://libxc.gitlab.io

 This ORCA versions uses:
   CBLAS   interface :  Fast vector & matrix operations
   LAPACKE interface :  Fast linear algebra routines
   SCALAPACK package :  Parallel linear algebra routines
   Shared memory     :  Shared parallel matrices
   BLAS/LAPACK       :  OpenBLAS 0.3.27  USE64BITINT DYNAMIC_ARCH NO_AFFINITY Zen SINGLE_THREADED
        Core in use  :  Zen
   Copyright (c) 2011-2014, The OpenBLAS Project


   Lars Goerigk                                  : TD-DFT with DH, B97 family of functionals
   V. Asgeirsson, H. Jonsson                     : NEB implementation
   FAccTs GmbH                                   : IRC, NEB, NEB-TS, DLPNO-Multilevel, CI-OPT
                                                   MM, QMMM, 2- and 3-layer-ONIOM, Crystal-QMMM,
                                                   LR-CPCM, SF, NACMEs, symmetry and pop. for TD-DFT,
                                                   nearIR, NL-DFT gradient (VV10), updates on ESD,
                                                   ML-optimized integration grids, MBIS, APM,
                                                   GOAT, DOCKER, SOLVATOR, interface openCOSMO-RS
   S Lehtola, MJT Oliveira, MAL Marques          : LibXC Library
   Liviu Ungur et al                             : ANISO software


 Your calculation uses the libint2 library for the computation of 2-el integrals
 For citations please refer to: http://libint.valeyev.net

 Your ORCA version has been built with support for libXC version: 6.2.2
 For citations please refer to: https://libxc.gitlab.io

 This ORCA versions uses:
   CBLAS   interface :  Fast vector & matrix operations
   LAPACKE interface :  Fast linear algebra routines
   SCALAPACK package :  Parallel linear algebra routines
   Shared memory     :  Shared parallel matrices
   BLAS/LAPACK       :  OpenBLAS 0.3.27  USE64BITINT DYNAMIC_ARCH NO_AFFINITY Zen SINGLE_THREADED
        Core in use  :  Zen
   Copyright (c) 2011-2014, The OpenBLAS Project


                #                        -***-                          #
                #          Department of theory and spectroscopy        #
                #                                                       #
                #                      Frank Neese                      #
                #                                                       #
                #     Directorship, Architecture, Infrastructure        #
                #                    SHARK, DRIVERS                     #
                #        Core code/Algorithms in most modules           #
                #                                                       #
                #        Max Planck Institute fuer Kohlenforschung      #
                #                Kaiser Wilhelm Platz 1                 #
                #                 D-45470 Muelheim/Ruhr                 #
                #                      Germany                          #
                #                                                       #
                #                  All rights reserved                  #
                #                        -***-                          #
                #########################################################


                         Program Version 6.0.0  -   RELEASE  -


 With contributions from (in alphabetic order):
   Daniel Aravena         : Magnetic Suceptibility
   Michael Atanasov       : Ab Initio Ligand Field Theory (pilot matlab implementation)
   Alexander A. Auer      : GIAO ZORA, VPT2 properties, NMR spectrum
   Ute Becker             : All parallelization in ORCA, NUMFREQ, NUMCALC
   Giovanni Bistoni       : ED, misc. LED, open-shell LED, HFLD
   Martin Brehm           : Molecular dynamics
   Dmytro Bykov           : pre 5.0 version of the SCF Hessian
   Marcos Casanova-Páez   : Triplet and SCS-CIS(D). UHF-(DLPNO)-IP/EA/STEOM-CCSD. UHF-CVS-IP/STEOM-CCSD
   Vijay G. Chilkuri      : MRCI spin determinant printing, contributions to CSF-ICE
   Pauline Colinet        : FMM embedding
   Dipayan Datta          : RHF DLPNO-CCSD density
   Achintya Kumar Dutta   : EOM-CC, STEOM-CC
   Nicolas Foglia         : Exact transition moments, OPA infrastructure, MCD improvements
   Dmitry Ganyushin       : Spin-Orbit,Spin-Spin,Magnetic field MRCI
   Miquel Garcia          : C-PCM and meta-GGA Hessian, CCSD/C-PCM, Gaussian charge scheme
   Tiago L. C. Gouveia    : GS-ROHF, GS-ROCIS
   Yang Guo               : DLPNO-NEVPT2, F12-NEVPT2, CIM, IAO-localization
   Andreas Hansen         : Spin unrestricted coupled pair/coupled cluster methods
   Ingolf Harden          : AUTO-CI MPn and infrastructure 
   Benjamin Helmich-Paris : MC-RPA, TRAH-(SCF,CASSCF), AVAS, COSX integrals, SCF dyn. polar.
   Lee Huntington         : MR-EOM, pCC
   Robert Izsak           : Overlap fitted RIJCOSX, COSX-SCS-MP3, EOM
   Riya Kayal             : Wick's Theorem for AUTO-CI, AUTO-CI UHF-CCSDT
   Emily Kempfer          : AUTO-CI, RHF CISDT and CCSDT
   Christian Kollmar      : KDIIS, OOCD, Brueckner-CCSD(T), CCSD density, CASPT2, CASPT2-K, improved NEVPT2
   Axel Koslowski         : Symmetry handling
   Simone Kossmann        : Meta GGA functionals, TD-DFT gradient, OOMP2, (MP2 Hessian; deprecated post 5.0)
   Lucas Lang             : DCDCAS
   Marvin Lechner         : AUTO-CI (C++ implementation), FIC-MRCC
   Spencer Leger          : CASSCF response
   Dagmar Lenk            : GEPOL surface, SMD, ORCA-2-JSON
   Dimitrios Liakos       : Extrapolation schemes; Compound Job, initial MDCI parallelization
   Dimitrios Manganas     : Further ROCIS development; embedding schemes. LFT, Crystal Embedding
   Dimitrios Pantazis     : SARC Basis sets
   Anastasios Papadopoulos: AUTO-CI, single reference methods and gradients
   Taras Petrenko         : pre 6.0 DFT Hessian and TD-DFT gradient, (ASA, deprecated), ECA, 1-Electron XAS/XES, NRVS
   Peter Pinski           : DLPNO-MP2, DLPNO-MP2 Gradient
   Christoph Reimann      : Effective Core Potentials
   Marius Retegan         : Local ZFS, SOC
   Christoph Riplinger    : Optimizer, TS searches, QM/MM, DLPNO-CCSD(T), (RO)-DLPNO pert. Triples
   Michael Roemelt        : Original ROCIS implementation
   Masaaki Saitow         : Open-shell DLPNO-CCSD energy and density
   Barbara Sandhoefer     : DKH picture change effects
   Kantharuban Sivalingam : CASSCF convergence/infrastructure, NEVPT2 and variants, FIC-MRCI
   Bernardo de Souza      : ESD, SOC TD-DFT
   Georgi Stoychev        : AutoAux, RI-MP2 NMR, DLPNO-MP2 response, X2C
   Van Anh Tran           : RI-MP2 g-tensors
   Willem Van den Heuvel  : Paramagnetic NMR
   Zikuan Wang            : NOTCH, Electric field optimization 
   Frank Wennmohs         : Technical directorship and infrastructure
   Hang Xu                : AUTO-CI-Response properties 


 We gratefully acknowledge several colleagues who have allowed us to
 interface, adapt or use parts of their codes:
   Stefan Grimme, W. Hujo, H. Kruse, P. Pracht,  : VdW corrections, initial TS optimization,
                  C. Bannwarth, S. Ehlert,         DFT functionals, gCP, sTDA/sTD-DF
                  L. Wittmann, M. Mueller
   Ed Valeev, F. Pavosevic, A. Kumar             : LibInt (2-el integral package), F12 methods
   Garnet Chan, S. Sharma, J. Yang, R. Olivares  : DMRG
   Ulf Ekstrom                                   : XCFun DFT Library
   Mihaly Kallay                                 : mrcc  (arbitrary order and MRCC methods)
   Frank Weinhold                                : gennbo (NPA and NBO analysis)
   Simon Mueller                                 : openCOSMO-RS
   Christopher J. Cramer and Donald G. Truhlar   : smd solvation model
   Lars Goerigk                                  : TD-DFT with DH, B97 family of functionals
   V. Asgeirsson, H. Jonsson                     : NEB implementation
   FAccTs GmbH                                   : IRC, NEB, NEB-TS, DLPNO-Multilevel, CI-OPT
                                                   MM, QMMM, 2- and 3-layer-ONIOM, Crystal-QMMM,
                                                   LR-CPCM, SF, NACMEs, symmetry and pop. for TD-DFT,
                                                   nearIR, NL-DFT gradient (VV10), updates on ESD,
                                                   ML-optimized integration grids, MBIS, APM,
                                                   GOAT, DOCKER, SOLVATOR, interface openCOSMO-RS
   S Lehtola, MJT Oliveira, MAL Marques          : LibXC Library
   Liviu Ungur et al                             : ANISO software


 Your calculation uses the libint2 library for the computation of 2-el integrals
 For citations please refer to: http://libint.valeyev.net

 Your ORCA version has been built with support for libXC version: 6.2.2
 For citations please refer to: https://libxc.gitlab.io

 This ORCA versions uses:
   CBLAS   interface :  Fast vector & matrix operations
   LAPACKE interface :  Fast linear algebra routines
   SCALAPACK package :  Parallel linear algebra routines
   Shared memory     :  Shared parallel matrices
   BLAS/LAPACK       :  OpenBLAS 0.3.27  USE64BITINT DYNAMIC_ARCH NO_AFFINITY Zen SINGLE_THREADED
        Core in use  :  Zen
   Copyright (c) 2011-2014, The OpenBLAS Project



                                 *****************
                                 * O   R   C   A *
                                 *****************

                                            #,                                       
                                            ###                                      
                                            ####                                     
                                            #####                                    
                                            ######                                   
                                           ########,                                 
                                     ,,################,,,,,                         
                               ,,#################################,,                 
                          ,,##########################################,,             
                       ,#########################################, ''#####,          
                    ,#############################################,,   '####,        
                  ,##################################################,,,,####,       
                ,###########''''           ''''###############################       
              ,#####''   ,,,,##########,,,,          '''####'''          '####       
            ,##' ,,,,###########################,,,                        '##       
           ' ,,###''''                  '''############,,,                           
         ,,##''                                '''############,,,,        ,,,,,,###''
      ,#''                                            '''#######################'''  
     '                                                          ''''####''''         
             ,#######,   #######,   ,#######,      ##                                
            ,#'     '#,  ##    ##  ,#'     '#,    #''#        ,####,   ,####,        
            ##       ##  ##   ,#'  ##            #'  '#       #'       #'  '#        
            ##       ##  #######   ##           ,######,      #####,   #    #        
            '#,     ,#'  ##    ##  '#,     ,#' ,#      #,     #,   #   #,  ,#        
             '#######'   ##     ##  '#######'  #'      '#     '####' # '####'        



                #########################################################
                #                        -***-                          #
                #          Department of theory and spectroscopy        #
                #                                                       #
                #                      Frank Neese                      #
                #                                                       #
                #     Directorship, Architecture, Infrastructure        #
                #                    SHARK, DRIVERS                     #
                #        Core code/Algorithms in most modules           #
                #                                                       #
                #        Max Planck Institute fuer Kohlenforschung      #
                #                Kaiser Wilhelm Platz 1                 #
                #                 D-45470 Muelheim/Ruhr                 #
                #                      Germany                          #
                #                                                       #
                #                  All rights reserved                  #
                #                        -***-                          #
                #########################################################


                         Program Version 6.0.0  -   RELEASE  -


 With contributions from (in alphabetic order):
   Daniel Aravena         : Magnetic Suceptibility
   Michael Atanasov       : Ab Initio Ligand Field Theory (pilot matlab implementation)
   Alexander A. Auer      : GIAO ZORA, VPT2 properties, NMR spectrum
   Ute Becker             : All parallelization in ORCA, NUMFREQ, NUMCALC

                                 *****************
                                 * O   R   C   A *
                                 *****************

                                            #,                                       
                                            ###                                      
                                            ####                                     
                                            #####                                    
                                            ######                                   
                                           ########,                                 
                                     ,,################,,,,,                         
                               ,,#################################,,                 
                          ,,##########################################,,             
                       ,#########################################, ''#####,          
                    ,#############################################,,   '####,        
                  ,##################################################,,,,####,       
                ,###########''''           ''''###############################       
              ,#####''   ,,,,##########,,,,          '''####'''          '####       
            ,##' ,,,,###########################,,,                        '##       
           ' ,,###''''                  '''############,,,                           
         ,,##''                                '''############,,,,        ,,,,,,###''
      ,#''                                            '''#######################'''  
     '                                                          ''''####''''         
             ,#######,   #######,   ,#######,      ##                                
            ,#'     '#,  ##    ##  ,#'     '#,    #''#        ,####,   ,####,        
            ##       ##  ##   ,#'  ##            #'  '#       #'       #'  '#        
            ##       ##  #######   ##           ,######,      #####,   #    #        
            '#,     ,#'  ##    ##  '#,     ,#' ,#      #,     #,   #   #,  ,#        
             '#######'   ##     ##  '#######'  #'      '#     '####' # '####'        



                #########################################################
                #                        -***-                          #
                #          Department of theory and spectroscopy        #
                #                                                       #
                #                      Frank Neese                      #
                #                                                       #
                #     Directorship, Architecture, Infrastructure        #
                #                    SHARK, DRIVERS                     #
                #        Core code/Algorithms in most modules           #
                #                                                       #
                #        Max Planck Institute fuer Kohlenforschung      #
                #                Kaiser Wilhelm Platz 1                 #
                #                 D-45470 Muelheim/Ruhr                 #
                #                      Germany                          #
                #                                                       #
                #                  All rights reserved                  #
                #                        -***-                          #
                #########################################################


                         Program Version 6.0.0  -   RELEASE  -


 With contributions from (in alphabetic order):
   Daniel Aravena         : Magnetic Suceptibility
   Michael Atanasov       : Ab Initio Ligand Field Theory (pilot matlab implementation)
   Alexander A. Auer      : GIAO ZORA, VPT2 properties, NMR spectrum
   Ute Becker             : All parallelization in ORCA, NUMFREQ, NUMCALC
   Giovanni Bistoni       : ED, misc. LED, open-shell LED, HFLD
   Martin Brehm           : Molecular dynamics
   Dmytro Bykov           : pre 5.0 version of the SCF Hessian
   Marcos Casanova-Páez   : Triplet and SCS-CIS(D). UHF-(DLPNO)-IP/EA/STEOM-CCSD. UHF-CVS-IP/STEOM-CCSD
   Vijay G. Chilkuri      : MRCI spin determinant printing, contributions to CSF-ICE
   Pauline Colinet        : FMM embedding
   Dipayan Datta          : RHF DLPNO-CCSD density
   Achintya Kumar Dutta   : EOM-CC, STEOM-CC
   Nicolas Foglia         : Exact transition moments, OPA infrastructure, MCD improvements
   Dmitry Ganyushin       : Spin-Orbit,Spin-Spin,Magnetic field MRCI
   Miquel Garcia          : C-PCM and meta-GGA Hessian, CCSD/C-PCM, Gaussian charge scheme
   Tiago L. C. Gouveia    : GS-ROHF, GS-ROCIS
   Yang Guo               : DLPNO-NEVPT2, F12-NEVPT2, CIM, IAO-localization
   Andreas Hansen         : Spin unrestricted coupled pair/coupled cluster methods
   Ingolf Harden          : AUTO-CI MPn and infrastructure 
   Benjamin Helmich-Paris : MC-RPA, TRAH-(SCF,CASSCF), AVAS, COSX integrals, SCF dyn. polar.
   Lee Huntington         : MR-EOM, pCC
   Robert Izsak           : Overlap fitted RIJCOSX, COSX-SCS-MP3, EOM
   Riya Kayal             : Wick's Theorem for AUTO-CI, AUTO-CI UHF-CCSDT
   Emily Kempfer          : AUTO-CI, RHF CISDT and CCSDT
   Christian Kollmar      : KDIIS, OOCD, Brueckner-CCSD(T), CCSD density, CASPT2, CASPT2-K, improved NEVPT2
   Axel Koslowski         : Symmetry handling
   Simone Kossmann        : Meta GGA functionals, TD-DFT gradient, OOMP2, (MP2 Hessian; deprecated post 5.0)
   Lucas Lang             : DCDCAS
   Marvin Lechner         : AUTO-CI (C++ implementation), FIC-MRCC
   Spencer Leger          : CASSCF response
   Dagmar Lenk            : GEPOL surface, SMD, ORCA-2-JSON
   Dimitrios Liakos       : Extrapolation schemes; Compound Job, initial MDCI parallelization
   Dimitrios Manganas     : Further ROCIS development; embedding schemes. LFT, Crystal Embedding
   Dimitrios Pantazis     : SARC Basis sets
   Anastasios Papadopoulos: AUTO-CI, single reference methods and gradients
   Taras Petrenko         : pre 6.0 DFT Hessian and TD-DFT gradient, (ASA, deprecated), ECA, 1-Electron XAS/XES, NRVS
   Peter Pinski           : DLPNO-MP2, DLPNO-MP2 Gradient
   Christoph Reimann      : Effective Core Potentials
   Marius Retegan         : Local ZFS, SOC
   Christoph Riplinger    : Optimizer, TS searches, QM/MM, DLPNO-CCSD(T), (RO)-DLPNO pert. Triples
   Michael Roemelt        : Original ROCIS implementation
   Masaaki Saitow         : Open-shell DLPNO-CCSD energy and density
   Barbara Sandhoefer     : DKH picture change effects
   Kantharuban Sivalingam : CASSCF convergence/infrastructure, NEVPT2 and variants, FIC-MRCI
   Bernardo de Souza      : ESD, SOC TD-DFT
   Georgi Stoychev        : AutoAux, RI-MP2 NMR, DLPNO-MP2 response, X2C
   Van Anh Tran           : RI-MP2 g-tensors
   Willem Van den Heuvel  : Paramagnetic NMR
   Zikuan Wang            : NOTCH, Electric field optimization 
   Frank Wennmohs         : Technical directorship and infrastructure
   Hang Xu                : AUTO-CI-Response properties 


 We gratefully acknowledge several colleagues who have allowed us to
 interface, adapt or use parts of their codes:
   Stefan Grimme, W. Hujo, H. Kruse, P. Pracht,  : VdW corrections, initial TS optimization,
                  C. Bannwarth, S. Ehlert,         DFT functionals, gCP, sTDA/sTD-DF
                  L. Wittmann, M. Mueller
   Ed Valeev, F. Pavosevic, A. Kumar             : LibInt (2-el integral package), F12 methods
   Garnet Chan, S. Sharma, J. Yang, R. Olivares  : DMRG
   Ulf Ekstrom                                   : XCFun DFT Library
   Mihaly Kallay                                 : mrcc  (arbitrary order and MRCC methods)
   Frank Weinhold                                : gennbo (NPA and NBO analysis)
   Simon Mueller                                 : openCOSMO-RS
   Christopher J. Cramer and Donald G. Truhlar   : smd solvation model
   Giovanni Bistoni       : ED, misc. LED, open-shell LED, HFLD
   Martin Brehm           : Molecular dynamics
   Dmytro Bykov           : pre 5.0 version of the SCF Hessian
   Marcos Casanova-Páez   : Triplet and SCS-CIS(D). UHF-(DLPNO)-IP/EA/STEOM-CCSD. UHF-CVS-IP/STEOM-CCSD
   Vijay G. Chilkuri      : MRCI spin determinant printing, contributions to CSF-ICE
   Pauline Colinet        : FMM embedding
   Dipayan Datta          : RHF DLPNO-CCSD density
   Achintya Kumar Dutta   : EOM-CC, STEOM-CC
   Nicolas Foglia         : Exact transition moments, OPA infrastructure, MCD improvements
   Dmitry Ganyushin       : Spin-Orbit,Spin-Spin,Magnetic field MRCI
   Miquel Garcia          : C-PCM and meta-GGA Hessian, CCSD/C-PCM, Gaussian charge scheme
   Tiago L. C. Gouveia    : GS-ROHF, GS-ROCIS
   Yang Guo               : DLPNO-NEVPT2, F12-NEVPT2, CIM, IAO-localization
   Andreas Hansen         : Spin unrestricted coupled pair/coupled cluster methods
   Ingolf Harden          : AUTO-CI MPn and infrastructure 
   Benjamin Helmich-Paris : MC-RPA, TRAH-(SCF,CASSCF), AVAS, COSX integrals, SCF dyn. polar.
   Lee Huntington         : MR-EOM, pCC
   Robert Izsak           : Overlap fitted RIJCOSX, COSX-SCS-MP3, EOM
   Riya Kayal             : Wick's Theorem for AUTO-CI, AUTO-CI UHF-CCSDT
   Emily Kempfer          : AUTO-CI, RHF CISDT and CCSDT
   Christian Kollmar      : KDIIS, OOCD, Brueckner-CCSD(T), CCSD density, CASPT2, CASPT2-K, improved NEVPT2
   Axel Koslowski         : Symmetry handling
   Simone Kossmann        : Meta GGA functionals, TD-DFT gradient, OOMP2, (MP2 Hessian; deprecated post 5.0)
   Lucas Lang             : DCDCAS
   Marvin Lechner         : AUTO-CI (C++ implementation), FIC-MRCC
   Spencer Leger          : CASSCF response
   Dagmar Lenk            : GEPOL surface, SMD, ORCA-2-JSON
   Dimitrios Liakos       : Extrapolation schemes; Compound Job, initial MDCI parallelization
   Dimitrios Manganas     : Further ROCIS development; embedding schemes. LFT, Crystal Embedding
   Dimitrios Pantazis     : SARC Basis sets
   Anastasios Papadopoulos: AUTO-CI, single reference methods and gradients
   Taras Petrenko         : pre 6.0 DFT Hessian and TD-DFT gradient, (ASA, deprecated), ECA, 1-Electron XAS/XES, NRVS
   Peter Pinski           : DLPNO-MP2, DLPNO-MP2 Gradient
   Christoph Reimann      : Effective Core Potentials
   Marius Retegan         : Local ZFS, SOC
   Christoph Riplinger    : Optimizer, TS searches, QM/MM, DLPNO-CCSD(T), (RO)-DLPNO pert. Triples
   Michael Roemelt        : Original ROCIS implementation
   Masaaki Saitow         : Open-shell DLPNO-CCSD energy and density
   Barbara Sandhoefer     : DKH picture change effects
   Kantharuban Sivalingam : CASSCF convergence/infrastructure, NEVPT2 and variants, FIC-MRCI
   Bernardo de Souza      : ESD, SOC TD-DFT
   Georgi Stoychev        : AutoAux, RI-MP2 NMR, DLPNO-MP2 response, X2C
   Van Anh Tran           : RI-MP2 g-tensors
   Willem Van den Heuvel  : Paramagnetic NMR
   Zikuan Wang            : NOTCH, Electric field optimization 
   Frank Wennmohs         : Technical directorship and infrastructure
   Hang Xu                : AUTO-CI-Response properties 


 We gratefully acknowledge several colleagues who have allowed us to
 interface, adapt or use parts of their codes:
   Stefan Grimme, W. Hujo, H. Kruse, P. Pracht,  : VdW corrections, initial TS optimization,
                  C. Bannwarth, S. Ehlert,         DFT functionals, gCP, sTDA/sTD-DF
                  L. Wittmann, M. Mueller
   Ed Valeev, F. Pavosevic, A. Kumar             : LibInt (2-el integral package), F12 methods
   Garnet Chan, S. Sharma, J. Yang, R. Olivares  : DMRG
   Ulf Ekstrom                                   : XCFun DFT Library
   Mihaly Kallay                                 : mrcc  (arbitrary order and MRCC methods)
   Frank Weinhold                                : gennbo (NPA and NBO analysis)
   Simon Mueller                                 : openCOSMO-RS
   Christopher J. Cramer and Donald G. Truhlar   : smd solvation model
   Lars Goerigk                                  : TD-DFT with DH, B97 family of functionals
   V. Asgeirsson, H. Jonsson                     : NEB implementation
   FAccTs GmbH                                   : IRC, NEB, NEB-TS, DLPNO-Multilevel, CI-OPT
                                                   MM, QMMM, 2- and 3-layer-ONIOM, Crystal-QMMM,
                                                   LR-CPCM, SF, NACMEs, symmetry and pop. for TD-DFT,
                                                   nearIR, NL-DFT gradient (VV10), updates on ESD,
                                                   ML-optimized integration grids, MBIS, APM,
                                                   GOAT, DOCKER, SOLVATOR, interface openCOSMO-RS
   S Lehtola, MJT Oliveira, MAL Marques          : LibXC Library
   Liviu Ungur et al                             : ANISO software


 Your calculation uses the libint2 library for the computation of 2-el integrals
 For citations please refer to: http://libint.valeyev.net

 Your ORCA version has been built with support for libXC version: 6.2.2
 For citations please refer to: https://libxc.gitlab.io

 This ORCA versions uses:
   CBLAS   interface :  Fast vector & matrix operations
   LAPACKE interface :  Fast linear algebra routines
   SCALAPACK package :  Parallel linear algebra routines
   Shared memory     :  Shared parallel matrices
   BLAS/LAPACK       :  OpenBLAS 0.3.27  USE64BITINT DYNAMIC_ARCH NO_AFFINITY Zen SINGLE_THREADED
        Core in use  :  Zen
   Copyright (c) 2011-2014, The OpenBLAS Project


   Lars Goerigk                                  : TD-DFT with DH, B97 family of functionals
   V. Asgeirsson, H. Jonsson                     : NEB implementation
   FAccTs GmbH                                   : IRC, NEB, NEB-TS, DLPNO-Multilevel, CI-OPT
                                                   MM, QMMM, 2- and 3-layer-ONIOM, Crystal-QMMM,
                                                   LR-CPCM, SF, NACMEs, symmetry and pop. for TD-DFT,
                                                   nearIR, NL-DFT gradient (VV10), updates on ESD,
                                                   ML-optimized integration grids, MBIS, APM,
                                                   GOAT, DOCKER, SOLVATOR, interface openCOSMO-RS
   S Lehtola, MJT Oliveira, MAL Marques          : LibXC Library
   Liviu Ungur et al                             : ANISO software


 Your calculation uses the libint2 library for the computation of 2-el integrals
 For citations please refer to: http://libint.valeyev.net

 Your ORCA version has been built with support for libXC version: 6.2.2
 For citations please refer to: https://libxc.gitlab.io

 This ORCA versions uses:
   CBLAS   interface :  Fast vector & matrix operations
   LAPACKE interface :  Fast linear algebra routines
   SCALAPACK package :  Parallel linear algebra routines
   Shared memory     :  Shared parallel matrices
   BLAS/LAPACK       :  OpenBLAS 0.3.27  USE64BITINT DYNAMIC_ARCH NO_AFFINITY Zen SINGLE_THREADED
        Core in use  :  Zen
   Copyright (c) 2011-2014, The OpenBLAS Project


NOTE: MaxCore=3000 MB was set to SCF,MP2,MDCI,CIPSI,MRCI and CIS
      => If you want to overwrite this, your respective input block should be placed after the MaxCore statement
Your calculation utilizes the SMD solvation module
Please cite in your paper:
A.V. Marenich, C.J. Cramer, D.G. Truhlar J. Phys. Chem. B, 113, (2009), 6378 

Warning: RI is on but no J-basis has been assigned. Assigning Def2/J (nothing to worry about!)
================================================================================

----- Orbital basis set information -----
Your calculation utilizes the basis: ma-def2-SVP
   F. Weigend and R. Ahlrichs, Phys. Chem. Chem. Phys. 7, 3297 (2005).
   J. Zheng, X. Xu and D. G. Truhlar, Theor. Chem. Acc. 128, 295 (2011).

----- AuxJ basis set information -----
Your calculation utilizes the auxiliary basis: def2/J
   F. Weigend, Phys. Chem. Chem. Phys. 8, 1057 (2006).

NOTE: MaxCore=3000 MB was set to SCF,MP2,MDCI,CIPSI,MRCI and CIS
      => If you want to overwrite this, your respective input block should be placed after the MaxCore statement
NOTE: MaxCore=3000 MB was set to SCF,MP2,MDCI,CIPSI,MRCI and CIS
      => If you want to overwrite this, your respective input block should be placed after the MaxCore statement
Your calculation utilizes the SMD solvation module
Please cite in your paper:
A.V. Marenich, C.J. Cramer, D.G. Truhlar J. Phys. Chem. B, 113, (2009), 6378 

Warning: RI is on but no J-basis has been assigned. Assigning Def2/J (nothing to worry about!)
Your calculation utilizes the SMD solvation module
Please cite in your paper:
A.V. Marenich, C.J. Cramer, D.G. Truhlar J. Phys. Chem. B, 113, (2009), 6378 

Warning: RI is on but no J-basis has been assigned. Assigning Def2/J (nothing to worry about!)

                                 *****************
                                 * O   R   C   A *
                                 *****************

                                            #,                                       
                                            ###                                      
                                            ####                                     
                                            #####                                    
                                            ######                                   
                                           ########,                                 
                                     ,,################,,,,,                         
                               ,,#################################,,                 
                          ,,##########################################,,             
                       ,#########################################, ''#####,          
                    ,#############################################,,   '####,        
                  ,##################################################,,,,####,       
                ,###########''''           ''''###############################       
              ,#####''   ,,,,##########,,,,          '''####'''          '####       
            ,##' ,,,,###########################,,,                        '##       
           ' ,,###''''                  '''############,,,                           
         ,,##''                                '''############,,,,        ,,,,,,###''
      ,#''                                            '''#######################'''  
     '                                                          ''''####''''         
             ,#######,   #######,   ,#######,      ##                                
            ,#'     '#,  ##    ##  ,#'     '#,    #''#        ,####,   ,####,        
            ##       ##  ##   ,#'  ##            #'  '#       #'       #'  '#        
            ##       ##  #######   ##           ,######,      #####,   #    #        
            '#,     ,#'  ##    ##  '#,     ,#' ,#      #,     #,   #   #,  ,#        
             '#######'   ##     ##  '#######'  #'      '#     '####' # '####'        



                #########################################################
                #                        -***-                          #
                #          Department of theory and spectroscopy        #
                #                                                       #
                #                      Frank Neese                      #
                #                                                       #
                #     Directorship, Architecture, Infrastructure        #
                #                    SHARK, DRIVERS                     #
                #        Core code/Algorithms in most modules           #
                #                                                       #
                #        Max Planck Institute fuer Kohlenforschung      #
                #                Kaiser Wilhelm Platz 1                 #
                #                 D-45470 Muelheim/Ruhr                 #
                #                      Germany                          #
                #                                                       #
                #                  All rights reserved                  #
                #                        -***-                          #
                #########################################################


                         Program Version 6.0.0  -   RELEASE  -


 With contributions from (in alphabetic order):
   Daniel Aravena         : Magnetic Suceptibility
   Michael Atanasov       : Ab Initio Ligand Field Theory (pilot matlab implementation)
   Alexander A. Auer      : GIAO ZORA, VPT2 properties, NMR spectrum
   Ute Becker             : All parallelization in ORCA, NUMFREQ, NUMCALC
   Giovanni Bistoni       : ED, misc. LED, open-shell LED, HFLD
   Martin Brehm           : Molecular dynamics
   Dmytro Bykov           : pre 5.0 version of the SCF Hessian
   Marcos Casanova-Páez   : Triplet and SCS-CIS(D). UHF-(DLPNO)-IP/EA/STEOM-CCSD. UHF-CVS-IP/STEOM-CCSD
   Vijay G. Chilkuri      : MRCI spin determinant printing, contributions to CSF-ICE
   Pauline Colinet        : FMM embedding
   Dipayan Datta          : RHF DLPNO-CCSD density
   Achintya Kumar Dutta   : EOM-CC, STEOM-CC
   Nicolas Foglia         : Exact transition moments, OPA infrastructure, MCD improvements
   Dmitry Ganyushin       : Spin-Orbit,Spin-Spin,Magnetic field MRCI
   Miquel Garcia          : C-PCM and meta-GGA Hessian, CCSD/C-PCM, Gaussian charge scheme
   Tiago L. C. Gouveia    : GS-ROHF, GS-ROCIS
   Yang Guo               : DLPNO-NEVPT2, F12-NEVPT2, CIM, IAO-localization
   Andreas Hansen         : Spin unrestricted coupled pair/coupled cluster methods
   Ingolf Harden          : AUTO-CI MPn and infrastructure 
   Benjamin Helmich-Paris : MC-RPA, TRAH-(SCF,CASSCF), AVAS, COSX integrals, SCF dyn. polar.
   Lee Huntington         : MR-EOM, pCC
   Robert Izsak           : Overlap fitted RIJCOSX, COSX-SCS-MP3, EOM
   Riya Kayal             : Wick's Theorem for AUTO-CI, AUTO-CI UHF-CCSDT
   Emily Kempfer          : AUTO-CI, RHF CISDT and CCSDT
   Christian Kollmar      : KDIIS, OOCD, Brueckner-CCSD(T), CCSD density, CASPT2, CASPT2-K, improved NEVPT2
   Axel Koslowski         : Symmetry handling
   Simone Kossmann        : Meta GGA functionals, TD-DFT gradient, OOMP2, (MP2 Hessian; deprecated post 5.0)
   Lucas Lang             : DCDCAS
   Marvin Lechner         : AUTO-CI (C++ implementation), FIC-MRCC
   Spencer Leger          : CASSCF response
   Dagmar Lenk            : GEPOL surface, SMD, ORCA-2-JSON
   Dimitrios Liakos       : Extrapolation schemes; Compound Job, initial MDCI parallelization
   Dimitrios Manganas     : Further ROCIS development; embedding schemes. LFT, Crystal Embedding
   Dimitrios Pantazis     : SARC Basis sets
   Anastasios Papadopoulos: AUTO-CI, single reference methods and gradients
   Taras Petrenko         : pre 6.0 DFT Hessian and TD-DFT gradient, (ASA, deprecated), ECA, 1-Electron XAS/XES, NRVS
   Peter Pinski           : DLPNO-MP2, DLPNO-MP2 Gradient
   Christoph Reimann      : Effective Core Potentials
   Marius Retegan         : Local ZFS, SOC
   Christoph Riplinger    : Optimizer, TS searches, QM/MM, DLPNO-CCSD(T), (RO)-DLPNO pert. Triples
   Michael Roemelt        : Original ROCIS implementation
   Masaaki Saitow         : Open-shell DLPNO-CCSD energy and density
   Barbara Sandhoefer     : DKH picture change effects
   Kantharuban Sivalingam : CASSCF convergence/infrastructure, NEVPT2 and variants, FIC-MRCI
   Bernardo de Souza      : ESD, SOC TD-DFT
   Georgi Stoychev        : AutoAux, RI-MP2 NMR, DLPNO-MP2 response, X2C
   Van Anh Tran           : RI-MP2 g-tensors
   Willem Van den Heuvel  : Paramagnetic NMR
   Zikuan Wang            : NOTCH, Electric field optimization 
   Frank Wennmohs         : Technical directorship and infrastructure
   Hang Xu                : AUTO-CI-Response properties 


 We gratefully acknowledge several colleagues who have allowed us to
 interface, adapt or use parts of their codes:
   Stefan Grimme, W. Hujo, H. Kruse, P. Pracht,  : VdW corrections, initial TS optimization,
                  C. Bannwarth, S. Ehlert,         DFT functionals, gCP, sTDA/sTD-DF
                  L. Wittmann, M. Mueller
   Ed Valeev, F. Pavosevic, A. Kumar             : LibInt (2-el integral package), F12 methods
   Garnet Chan, S. Sharma, J. Yang, R. Olivares  : DMRG
   Ulf Ekstrom                                   : XCFun DFT Library
   Mihaly Kallay                                 : mrcc  (arbitrary order and MRCC methods)
   Frank Weinhold                                : gennbo (NPA and NBO analysis)
   Simon Mueller                                 : openCOSMO-RS
   Christopher J. Cramer and Donald G. Truhlar   : smd solvation model
   Lars Goerigk                                  : TD-DFT with DH, B97 family of functionals
   V. Asgeirsson, H. Jonsson                     : NEB implementation
   FAccTs GmbH                                   : IRC, NEB, NEB-TS, DLPNO-Multilevel, CI-OPT
                                                   MM, QMMM, 2- and 3-layer-ONIOM, Crystal-QMMM,
                                                   LR-CPCM, SF, NACMEs, symmetry and pop. for TD-DFT,
                                                   nearIR, NL-DFT gradient (VV10), updates on ESD,
                                                   ML-optimized integration grids, MBIS, APM,
                                                   GOAT, DOCKER, SOLVATOR, interface openCOSMO-RS
   S Lehtola, MJT Oliveira, MAL Marques          : LibXC Library
   Liviu Ungur et al                             : ANISO software


 Your calculation uses the libint2 library for the computation of 2-el integrals
 For citations please refer to: http://libint.valeyev.net

 Your ORCA version has been built with support for libXC version: 6.2.2
 For citations please refer to: https://libxc.gitlab.io

 This ORCA versions uses:
   CBLAS   interface :  Fast vector & matrix operations
   LAPACKE interface :  Fast linear algebra routines
   SCALAPACK package :  Parallel linear algebra routines
   Shared memory     :  Shared parallel matrices
   BLAS/LAPACK       :  OpenBLAS 0.3.27  USE64BITINT DYNAMIC_ARCH NO_AFFINITY Zen SINGLE_THREADED
        Core in use  :  Zen
   Copyright (c) 2011-2014, The OpenBLAS Project


================================================================================

----- Orbital basis set information -----
Your calculation utilizes the basis: ma-def2-SVP
   F. Weigend and R. Ahlrichs, Phys. Chem. Chem. Phys. 7, 3297 (2005).
   J. Zheng, X. Xu and D. G. Truhlar, Theor. Chem. Acc. 128, 295 (2011).

----- AuxJ basis set information -----
Your calculation utilizes the auxiliary basis: def2/J
   F. Weigend, Phys. Chem. Chem. Phys. 8, 1057 (2006).

================================================================================

----- Orbital basis set information -----
Your calculation utilizes the basis: ma-def2-SVP
   F. Weigend and R. Ahlrichs, Phys. Chem. Chem. Phys. 7, 3297 (2005).
   J. Zheng, X. Xu and D. G. Truhlar, Theor. Chem. Acc. 128, 295 (2011).

----- AuxJ basis set information -----
Your calculation utilizes the auxiliary basis: def2/J
   F. Weigend, Phys. Chem. Chem. Phys. 8, 1057 (2006).

NOTE: MaxCore=3000 MB was set to SCF,MP2,MDCI,CIPSI,MRCI and CIS
NOTE: MaxCore=3000 MB was set to SCF,MP2,MDCI,CIPSI,MRCI and CIS
      => If you want to overwrite this, your respective input block should be placed after the MaxCore statement
NOTE: MaxCore=3000 MB was set to SCF,MP2,MDCI,CIPSI,MRCI and CIS
      => If you want to overwrite this, your respective input block should be placed after the MaxCore statement
NOTE: MaxCore=3000 MB was set to SCF,MP2,MDCI,CIPSI,MRCI and CIS
      => If you want to overwrite this, your respective input block should be placed after the MaxCore statement

                                 *****************
                                 * O   R   C   A *
                                 *****************

                                            #,                                       
                                            ###                                      
                                            ####                                     
                                            #####                                    
                                            ######                                   
                                           ########,                                 
                                     ,,################,,,,,                         
                               ,,#################################,,                 
                          ,,##########################################,,             
                       ,#########################################, ''#####,          
                    ,#############################################,,   '####,        
                  ,##################################################,,,,####,       
                ,###########''''           ''''###############################       
              ,#####''   ,,,,##########,,,,          '''####'''          '####       
            ,##' ,,,,###########################,,,                        '##       
           ' ,,###''''                  '''############,,,                           
         ,,##''                                '''############,,,,        ,,,,,,###''
      ,#''                                            '''#######################'''  
     '                                                          ''''####''''         
             ,#######,   #######,   ,#######,      ##                                
            ,#'     '#,  ##    ##  ,#'     '#,    #''#        ,####,   ,####,        
            ##       ##  ##   ,#'  ##            #'  '#       #'       #'  '#        
            ##       ##  #######   ##           ,######,      #####,   #    #        
            '#,     ,#'  ##    ##  '#,     ,#' ,#      #,     #,   #   #,  ,#        
             '#######'   ##     ##  '#######'  #'      '#     '####' # '####'        



                #########################################################
                #                        -***-                          #
                #          Department of theory and spectroscopy        #
                #                                                       #
                #                      Frank Neese                      #
                #                                                       #
                #     Directorship, Architecture, Infrastructure        #
                #                    SHARK, DRIVERS                     #
                #        Core code/Algorithms in most modules           #
                #                                                       #
                #        Max Planck Institute fuer Kohlenforschung      #
                #                Kaiser Wilhelm Platz 1                 #
                #                 D-45470 Muelheim/Ruhr                 #
                #                      Germany                          #
                #                                                       #
                #                  All rights reserved                  #
                #                        -***-                          #
                #########################################################


                         Program Version 6.0.0  -   RELEASE  -


 With contributions from (in alphabetic order):
   Daniel Aravena         : Magnetic Suceptibility
   Michael Atanasov       : Ab Initio Ligand Field Theory (pilot matlab implementation)
   Alexander A. Auer      : GIAO ZORA, VPT2 properties, NMR spectrum
   Ute Becker             : All parallelization in ORCA, NUMFREQ, NUMCALC

                                 *****************
                                 * O   R   C   A *
                                 *****************

                                            #,                                       
                                            ###                                      
                                            ####                                     
                                            #####                                    
                                            ######                                   
                                           ########,                                 
                                     ,,################,,,,,                         
                               ,,#################################,,                 
                          ,,##########################################,,             
                       ,#########################################, ''#####,          
                    ,#############################################,,   '####,        
                  ,##################################################,,,,####,       
                ,###########''''           ''''###############################       
              ,#####''   ,,,,##########,,,,          '''####'''          '####       
            ,##' ,,,,###########################,,,                        '##       
           ' ,,###''''                  '''############,,,                           
         ,,##''                                '''############,,,,        ,,,,,,###''
      ,#''                                            '''#######################'''  
     '                                                          ''''####''''         
             ,#######,   #######,   ,#######,      ##                                
            ,#'     '#,  ##    ##  ,#'     '#,    #''#        ,####,   ,####,        
            ##       ##  ##   ,#'  ##            #'  '#       #'       #'  '#        
            ##       ##  #######   ##           ,######,      #####,   #    #        
            '#,     ,#'  ##    ##  '#,     ,#' ,#      #,     #,   #   #,  ,#        
             '#######'   ##     ##  '#######'  #'      '#     '####' # '####'        



                #########################################################
                #                        -***-                          #
                #          Department of theory and spectroscopy        #
                #                                                       #
                #                      Frank Neese                      #
                #                                                       #
                #     Directorship, Architecture, Infrastructure        #
                #                    SHARK, DRIVERS                     #
                #        Core code/Algorithms in most modules           #
                #                                                       #
                #        Max Planck Institute fuer Kohlenforschung      #
                #                Kaiser Wilhelm Platz 1                 #
                #                 D-45470 Muelheim/Ruhr                 #
                #                      Germany                          #
                #                                                       #
                #                  All rights reserved                  #
                #                        -***-                          #
                #########################################################


                         Program Version 6.0.0  -   RELEASE  -


 With contributions from (in alphabetic order):
   Daniel Aravena         : Magnetic Suceptibility
   Michael Atanasov       : Ab Initio Ligand Field Theory (pilot matlab implementation)
   Alexander A. Auer      : GIAO ZORA, VPT2 properties, NMR spectrum
   Ute Becker             : All parallelization in ORCA, NUMFREQ, NUMCALC
   Giovanni Bistoni       : ED, misc. LED, open-shell LED, HFLD
   Martin Brehm           : Molecular dynamics
   Dmytro Bykov           : pre 5.0 version of the SCF Hessian
   Marcos Casanova-Páez   : Triplet and SCS-CIS(D). UHF-(DLPNO)-IP/EA/STEOM-CCSD. UHF-CVS-IP/STEOM-CCSD
   Vijay G. Chilkuri      : MRCI spin determinant printing, contributions to CSF-ICE
   Pauline Colinet        : FMM embedding
   Dipayan Datta          : RHF DLPNO-CCSD density
   Achintya Kumar Dutta   : EOM-CC, STEOM-CC
   Nicolas Foglia         : Exact transition moments, OPA infrastructure, MCD improvements
   Dmitry Ganyushin       : Spin-Orbit,Spin-Spin,Magnetic field MRCI
   Miquel Garcia          : C-PCM and meta-GGA Hessian, CCSD/C-PCM, Gaussian charge scheme
   Tiago L. C. Gouveia    : GS-ROHF, GS-ROCIS
   Yang Guo               : DLPNO-NEVPT2, F12-NEVPT2, CIM, IAO-localization
   Andreas Hansen         : Spin unrestricted coupled pair/coupled cluster methods
   Ingolf Harden          : AUTO-CI MPn and infrastructure 
   Benjamin Helmich-Paris : MC-RPA, TRAH-(SCF,CASSCF), AVAS, COSX integrals, SCF dyn. polar.
   Lee Huntington         : MR-EOM, pCC
   Robert Izsak           : Overlap fitted RIJCOSX, COSX-SCS-MP3, EOM
   Riya Kayal             : Wick's Theorem for AUTO-CI, AUTO-CI UHF-CCSDT
   Emily Kempfer          : AUTO-CI, RHF CISDT and CCSDT
   Christian Kollmar      : KDIIS, OOCD, Brueckner-CCSD(T), CCSD density, CASPT2, CASPT2-K, improved NEVPT2
   Axel Koslowski         : Symmetry handling
   Simone Kossmann        : Meta GGA functionals, TD-DFT gradient, OOMP2, (MP2 Hessian; deprecated post 5.0)
   Lucas Lang             : DCDCAS
   Marvin Lechner         : AUTO-CI (C++ implementation), FIC-MRCC
   Spencer Leger          : CASSCF response
   Dagmar Lenk            : GEPOL surface, SMD, ORCA-2-JSON
   Dimitrios Liakos       : Extrapolation schemes; Compound Job, initial MDCI parallelization
   Dimitrios Manganas     : Further ROCIS development; embedding schemes. LFT, Crystal Embedding
   Dimitrios Pantazis     : SARC Basis sets
   Anastasios Papadopoulos: AUTO-CI, single reference methods and gradients
   Taras Petrenko         : pre 6.0 DFT Hessian and TD-DFT gradient, (ASA, deprecated), ECA, 1-Electron XAS/XES, NRVS
   Peter Pinski           : DLPNO-MP2, DLPNO-MP2 Gradient
   Christoph Reimann      : Effective Core Potentials
   Marius Retegan         : Local ZFS, SOC
   Christoph Riplinger    : Optimizer, TS searches, QM/MM, DLPNO-CCSD(T), (RO)-DLPNO pert. Triples
   Michael Roemelt        : Original ROCIS implementation
   Masaaki Saitow         : Open-shell DLPNO-CCSD energy and density
   Barbara Sandhoefer     : DKH picture change effects
   Kantharuban Sivalingam : CASSCF convergence/infrastructure, NEVPT2 and variants, FIC-MRCI
   Bernardo de Souza      : ESD, SOC TD-DFT
   Georgi Stoychev        : AutoAux, RI-MP2 NMR, DLPNO-MP2 response, X2C
   Van Anh Tran           : RI-MP2 g-tensors
   Willem Van den Heuvel  : Paramagnetic NMR
   Zikuan Wang            : NOTCH, Electric field optimization 
   Frank Wennmohs         : Technical directorship and infrastructure
   Hang Xu                : AUTO-CI-Response properties 


 We gratefully acknowledge several colleagues who have allowed us to
 interface, adapt or use parts of their codes:
   Stefan Grimme, W. Hujo, H. Kruse, P. Pracht,  : VdW corrections, initial TS optimization,
                  C. Bannwarth, S. Ehlert,         DFT functionals, gCP, sTDA/sTD-DF
                  L. Wittmann, M. Mueller
   Ed Valeev, F. Pavosevic, A. Kumar             : LibInt (2-el integral package), F12 methods
   Garnet Chan, S. Sharma, J. Yang, R. Olivares  : DMRG
   Ulf Ekstrom                                   : XCFun DFT Library
   Mihaly Kallay                                 : mrcc  (arbitrary order and MRCC methods)
   Frank Weinhold                                : gennbo (NPA and NBO analysis)
   Simon Mueller                                 : openCOSMO-RS
   Christopher J. Cramer and Donald G. Truhlar   : smd solvation model
   Giovanni Bistoni       : ED, misc. LED, open-shell LED, HFLD
   Martin Brehm           : Molecular dynamics
   Dmytro Bykov           : pre 5.0 version of the SCF Hessian
   Marcos Casanova-Páez   : Triplet and SCS-CIS(D). UHF-(DLPNO)-IP/EA/STEOM-CCSD. UHF-CVS-IP/STEOM-CCSD
   Vijay G. Chilkuri      : MRCI spin determinant printing, contributions to CSF-ICE
   Pauline Colinet        : FMM embedding
   Dipayan Datta          : RHF DLPNO-CCSD density
   Achintya Kumar Dutta   : EOM-CC, STEOM-CC
   Nicolas Foglia         : Exact transition moments, OPA infrastructure, MCD improvements
   Dmitry Ganyushin       : Spin-Orbit,Spin-Spin,Magnetic field MRCI
   Miquel Garcia          : C-PCM and meta-GGA Hessian, CCSD/C-PCM, Gaussian charge scheme
   Tiago L. C. Gouveia    : GS-ROHF, GS-ROCIS
   Yang Guo               : DLPNO-NEVPT2, F12-NEVPT2, CIM, IAO-localization
   Andreas Hansen         : Spin unrestricted coupled pair/coupled cluster methods
   Ingolf Harden          : AUTO-CI MPn and infrastructure 
   Benjamin Helmich-Paris : MC-RPA, TRAH-(SCF,CASSCF), AVAS, COSX integrals, SCF dyn. polar.
   Lee Huntington         : MR-EOM, pCC
   Robert Izsak           : Overlap fitted RIJCOSX, COSX-SCS-MP3, EOM
   Riya Kayal             : Wick's Theorem for AUTO-CI, AUTO-CI UHF-CCSDT
   Emily Kempfer          : AUTO-CI, RHF CISDT and CCSDT
   Christian Kollmar      : KDIIS, OOCD, Brueckner-CCSD(T), CCSD density, CASPT2, CASPT2-K, improved NEVPT2
   Axel Koslowski         : Symmetry handling
   Simone Kossmann        : Meta GGA functionals, TD-DFT gradient, OOMP2, (MP2 Hessian; deprecated post 5.0)
   Lucas Lang             : DCDCAS
   Marvin Lechner         : AUTO-CI (C++ implementation), FIC-MRCC
   Spencer Leger          : CASSCF response
   Dagmar Lenk            : GEPOL surface, SMD, ORCA-2-JSON
   Dimitrios Liakos       : Extrapolation schemes; Compound Job, initial MDCI parallelization
   Dimitrios Manganas     : Further ROCIS development; embedding schemes. LFT, Crystal Embedding
   Dimitrios Pantazis     : SARC Basis sets
   Anastasios Papadopoulos: AUTO-CI, single reference methods and gradients
   Taras Petrenko         : pre 6.0 DFT Hessian and TD-DFT gradient, (ASA, deprecated), ECA, 1-Electron XAS/XES, NRVS
   Peter Pinski           : DLPNO-MP2, DLPNO-MP2 Gradient
   Christoph Reimann      : Effective Core Potentials
   Marius Retegan         : Local ZFS, SOC
   Christoph Riplinger    : Optimizer, TS searches, QM/MM, DLPNO-CCSD(T), (RO)-DLPNO pert. Triples
   Michael Roemelt        : Original ROCIS implementation
   Masaaki Saitow         : Open-shell DLPNO-CCSD energy and density
   Barbara Sandhoefer     : DKH picture change effects
   Kantharuban Sivalingam : CASSCF convergence/infrastructure, NEVPT2 and variants, FIC-MRCI
   Bernardo de Souza      : ESD, SOC TD-DFT
   Georgi Stoychev        : AutoAux, RI-MP2 NMR, DLPNO-MP2 response, X2C
   Van Anh Tran           : RI-MP2 g-tensors
   Willem Van den Heuvel  : Paramagnetic NMR
   Zikuan Wang            : NOTCH, Electric field optimization 
   Frank Wennmohs         : Technical directorship and infrastructure
   Hang Xu                : AUTO-CI-Response properties 


 We gratefully acknowledge several colleagues who have allowed us to
 interface, adapt or use parts of their codes:
   Stefan Grimme, W. Hujo, H. Kruse, P. Pracht,  : VdW corrections, initial TS optimization,
                  C. Bannwarth, S. Ehlert,         DFT functionals, gCP, sTDA/sTD-DF
                  L. Wittmann, M. Mueller
   Ed Valeev, F. Pavosevic, A. Kumar             : LibInt (2-el integral package), F12 methods
   Garnet Chan, S. Sharma, J. Yang, R. Olivares  : DMRG
   Ulf Ekstrom                                   : XCFun DFT Library
   Mihaly Kallay                                 : mrcc  (arbitrary order and MRCC methods)
   Frank Weinhold                                : gennbo (NPA and NBO analysis)
   Simon Mueller                                 : openCOSMO-RS
   Christopher J. Cramer and Donald G. Truhlar   : smd solvation model
Your calculation utilizes the SMD solvation module
Please cite in your paper:
A.V. Marenich, C.J. Cramer, D.G. Truhlar J. Phys. Chem. B, 113, (2009), 6378 

Warning: RI is on but no J-basis has been assigned. Assigning Def2/J (nothing to worry about!)
NOTE: MaxCore=3000 MB was set to SCF,MP2,MDCI,CIPSI,MRCI and CIS
      => If you want to overwrite this, your respective input block should be placed after the MaxCore statement
   Lars Goerigk                                  : TD-DFT with DH, B97 family of functionals
   V. Asgeirsson, H. Jonsson                     : NEB implementation
   FAccTs GmbH                                   : IRC, NEB, NEB-TS, DLPNO-Multilevel, CI-OPT
                                                   MM, QMMM, 2- and 3-layer-ONIOM, Crystal-QMMM,
                                                   LR-CPCM, SF, NACMEs, symmetry and pop. for TD-DFT,
                                                   nearIR, NL-DFT gradient (VV10), updates on ESD,
                                                   ML-optimized integration grids, MBIS, APM,
                                                   GOAT, DOCKER, SOLVATOR, interface openCOSMO-RS
   S Lehtola, MJT Oliveira, MAL Marques          : LibXC Library
   Liviu Ungur et al                             : ANISO software


 Your calculation uses the libint2 library for the computation of 2-el integrals
 For citations please refer to: http://libint.valeyev.net

 Your ORCA version has been built with support for libXC version: 6.2.2
 For citations please refer to: https://libxc.gitlab.io

 This ORCA versions uses:
   CBLAS   interface :  Fast vector & matrix operations
   LAPACKE interface :  Fast linear algebra routines
   SCALAPACK package :  Parallel linear algebra routines
   Shared memory     :  Shared parallel matrices
   BLAS/LAPACK       :  OpenBLAS 0.3.27  USE64BITINT DYNAMIC_ARCH NO_AFFINITY Zen SINGLE_THREADED
        Core in use  :  Zen
   Copyright (c) 2011-2014, The OpenBLAS Project


   Lars Goerigk                                  : TD-DFT with DH, B97 family of functionals
   V. Asgeirsson, H. Jonsson                     : NEB implementation
   FAccTs GmbH                                   : IRC, NEB, NEB-TS, DLPNO-Multilevel, CI-OPT
                                                   MM, QMMM, 2- and 3-layer-ONIOM, Crystal-QMMM,
                                                   LR-CPCM, SF, NACMEs, symmetry and pop. for TD-DFT,
                                                   nearIR, NL-DFT gradient (VV10), updates on ESD,
                                                   ML-optimized integration grids, MBIS, APM,
                                                   GOAT, DOCKER, SOLVATOR, interface openCOSMO-RS
   S Lehtola, MJT Oliveira, MAL Marques          : LibXC Library
   Liviu Ungur et al                             : ANISO software


 Your calculation uses the libint2 library for the computation of 2-el integrals
 For citations please refer to: http://libint.valeyev.net

 Your ORCA version has been built with support for libXC version: 6.2.2
 For citations please refer to: https://libxc.gitlab.io

 This ORCA versions uses:
   CBLAS   interface :  Fast vector & matrix operations
   LAPACKE interface :  Fast linear algebra routines
   SCALAPACK package :  Parallel linear algebra routines
   Shared memory     :  Shared parallel matrices
   BLAS/LAPACK       :  OpenBLAS 0.3.27  USE64BITINT DYNAMIC_ARCH NO_AFFINITY Zen SINGLE_THREADED
        Core in use  :  Zen
   Copyright (c) 2011-2014, The OpenBLAS Project


Your calculation utilizes the SMD solvation module
Please cite in your paper:
A.V. Marenich, C.J. Cramer, D.G. Truhlar J. Phys. Chem. B, 113, (2009), 6378 

Warning: RI is on but no J-basis has been assigned. Assigning Def2/J (nothing to worry about!)
Your calculation utilizes the SMD solvation module
Please cite in your paper:
A.V. Marenich, C.J. Cramer, D.G. Truhlar J. Phys. Chem. B, 113, (2009), 6378 

Warning: RI is on but no J-basis has been assigned. Assigning Def2/J (nothing to worry about!)
Your calculation utilizes the SMD solvation module
Please cite in your paper:
A.V. Marenich, C.J. Cramer, D.G. Truhlar J. Phys. Chem. B, 113, (2009), 6378 

Warning: RI is on but no J-basis has been assigned. Assigning Def2/J (nothing to worry about!)
      => If you want to overwrite this, your respective input block should be placed after the MaxCore statement
Your calculation utilizes the SMD solvation module
Please cite in your paper:
A.V. Marenich, C.J. Cramer, D.G. Truhlar J. Phys. Chem. B, 113, (2009), 6378 

Warning: RI is on but no J-basis has been assigned. Assigning Def2/J (nothing to worry about!)
================================================================================
================================================================================

================================================================================

================================================================================

----- Orbital basis set information -----
Your calculation utilizes the basis: ma-def2-SVP
   F. Weigend and R. Ahlrichs, Phys. Chem. Chem. Phys. 7, 3297 (2005).
   J. Zheng, X. Xu and D. G. Truhlar, Theor. Chem. Acc. 128, 295 (2011).

----- AuxJ basis set information -----
Your calculation utilizes the auxiliary basis: def2/J
   F. Weigend, Phys. Chem. Chem. Phys. 8, 1057 (2006).

----- Orbital basis set information -----
Your calculation utilizes the basis: ma-def2-SVP
   F. Weigend and R. Ahlrichs, Phys. Chem. Chem. Phys. 7, 3297 (2005).
   J. Zheng, X. Xu and D. G. Truhlar, Theor. Chem. Acc. 128, 295 (2011).

----- AuxJ basis set information -----
Your calculation utilizes the auxiliary basis: def2/J
   F. Weigend, Phys. Chem. Chem. Phys. 8, 1057 (2006).

----- Orbital basis set information -----
Your calculation utilizes the basis: ma-def2-SVP
   F. Weigend and R. Ahlrichs, Phys. Chem. Chem. Phys. 7, 3297 (2005).
   J. Zheng, X. Xu and D. G. Truhlar, Theor. Chem. Acc. 128, 295 (2011).

----- AuxJ basis set information -----
Your calculation utilizes the auxiliary basis: def2/J
   F. Weigend, Phys. Chem. Chem. Phys. 8, 1057 (2006).


----- Orbital basis set information -----
Your calculation utilizes the basis: ma-def2-SVP
   F. Weigend and R. Ahlrichs, Phys. Chem. Chem. Phys. 7, 3297 (2005).
   J. Zheng, X. Xu and D. G. Truhlar, Theor. Chem. Acc. 128, 295 (2011).

----- AuxJ basis set information -----
Your calculation utilizes the auxiliary basis: def2/J
   F. Weigend, Phys. Chem. Chem. Phys. 8, 1057 (2006).

================================================================================

----- Orbital basis set information -----
Your calculation utilizes the basis: ma-def2-SVP
   F. Weigend and R. Ahlrichs, Phys. Chem. Chem. Phys. 7, 3297 (2005).
   J. Zheng, X. Xu and D. G. Truhlar, Theor. Chem. Acc. 128, 295 (2011).

----- AuxJ basis set information -----
Your calculation utilizes the auxiliary basis: def2/J
   F. Weigend, Phys. Chem. Chem. Phys. 8, 1057 (2006).


                                 *****************
                                 * O   R   C   A *
                                 *****************

                                            #,                                       
                                            ###                                      
                                            ####                                     
                                            #####                                    
                                            ######                                   
                                           ########,                                 
                                     ,,################,,,,,                         
                               ,,#################################,,                 
                          ,,##########################################,,             
                       ,#########################################, ''#####,          
                    ,#############################################,,   '####,        
                  ,##################################################,,,,####,       
                ,###########''''           ''''###############################       
              ,#####''   ,,,,##########,,,,          '''####'''          '####       
            ,##' ,,,,###########################,,,                        '##       
           ' ,,###''''                  '''############,,,                           
         ,,##''                                '''############,,,,        ,,,,,,###''
      ,#''                                            '''#######################'''  
     '                                                          ''''####''''         
             ,#######,   #######,   ,#######,      ##                                
            ,#'     '#,  ##    ##  ,#'     '#,    #''#        ,####,   ,####,        
            ##       ##  ##   ,#'  ##            #'  '#       #'       #'  '#        
            ##       ##  #######   ##           ,######,      #####,   #    #        
            '#,     ,#'  ##    ##  '#,     ,#' ,#      #,     #,   #   #,  ,#        
             '#######'   ##     ##  '#######'  #'      '#     '####' # '####'        



                #########################################################
                #                        -***-                          #
                #          Department of theory and spectroscopy        #
                #                                                       #
                #                      Frank Neese                      #
                #                                                       #
                #     Directorship, Architecture, Infrastructure        #
                #                    SHARK, DRIVERS                     #
                #        Core code/Algorithms in most modules           #
                #                                                       #
                #        Max Planck Institute fuer Kohlenforschung      #
                #                Kaiser Wilhelm Platz 1                 #
                #                 D-45470 Muelheim/Ruhr                 #
                #                      Germany                          #
                #                                                       #
                #                  All rights reserved                  #
                #                        -***-                          #
                #########################################################


                         Program Version 6.0.0  -   RELEASE  -


 With contributions from (in alphabetic order):
   Daniel Aravena         : Magnetic Suceptibility
   Michael Atanasov       : Ab Initio Ligand Field Theory (pilot matlab implementation)
   Alexander A. Auer      : GIAO ZORA, VPT2 properties, NMR spectrum
   Ute Becker             : All parallelization in ORCA, NUMFREQ, NUMCALC
   Giovanni Bistoni       : ED, misc. LED, open-shell LED, HFLD
   Martin Brehm           : Molecular dynamics
   Dmytro Bykov           : pre 5.0 version of the SCF Hessian
   Marcos Casanova-Páez   : Triplet and SCS-CIS(D). UHF-(DLPNO)-IP/EA/STEOM-CCSD. UHF-CVS-IP/STEOM-CCSD
   Vijay G. Chilkuri      : MRCI spin determinant printing, contributions to CSF-ICE
   Pauline Colinet        : FMM embedding
   Dipayan Datta          : RHF DLPNO-CCSD density
   Achintya Kumar Dutta   : EOM-CC, STEOM-CC
   Nicolas Foglia         : Exact transition moments, OPA infrastructure, MCD improvements
   Dmitry Ganyushin       : Spin-Orbit,Spin-Spin,Magnetic field MRCI
   Miquel Garcia          : C-PCM and meta-GGA Hessian, CCSD/C-PCM, Gaussian charge scheme
   Tiago L. C. Gouveia    : GS-ROHF, GS-ROCIS
   Yang Guo               : DLPNO-NEVPT2, F12-NEVPT2, CIM, IAO-localization
   Andreas Hansen         : Spin unrestricted coupled pair/coupled cluster methods
   Ingolf Harden          : AUTO-CI MPn and infrastructure 
   Benjamin Helmich-Paris : MC-RPA, TRAH-(SCF,CASSCF), AVAS, COSX integrals, SCF dyn. polar.
   Lee Huntington         : MR-EOM, pCC
   Robert Izsak           : Overlap fitted RIJCOSX, COSX-SCS-MP3, EOM
   Riya Kayal             : Wick's Theorem for AUTO-CI, AUTO-CI UHF-CCSDT
   Emily Kempfer          : AUTO-CI, RHF CISDT and CCSDT
   Christian Kollmar      : KDIIS, OOCD, Brueckner-CCSD(T), CCSD density, CASPT2, CASPT2-K, improved NEVPT2
   Axel Koslowski         : Symmetry handling
   Simone Kossmann        : Meta GGA functionals, TD-DFT gradient, OOMP2, (MP2 Hessian; deprecated post 5.0)
   Lucas Lang             : DCDCAS
   Marvin Lechner         : AUTO-CI (C++ implementation), FIC-MRCC
   Spencer Leger          : CASSCF response
   Dagmar Lenk            : GEPOL surface, SMD, ORCA-2-JSON
   Dimitrios Liakos       : Extrapolation schemes; Compound Job, initial MDCI parallelization
   Dimitrios Manganas     : Further ROCIS development; embedding schemes. LFT, Crystal Embedding
   Dimitrios Pantazis     : SARC Basis sets
   Anastasios Papadopoulos: AUTO-CI, single reference methods and gradients
   Taras Petrenko         : pre 6.0 DFT Hessian and TD-DFT gradient, (ASA, deprecated), ECA, 1-Electron XAS/XES, NRVS
   Peter Pinski           : DLPNO-MP2, DLPNO-MP2 Gradient
   Christoph Reimann      : Effective Core Potentials
   Marius Retegan         : Local ZFS, SOC
   Christoph Riplinger    : Optimizer, TS searches, QM/MM, DLPNO-CCSD(T), (RO)-DLPNO pert. Triples
   Michael Roemelt        : Original ROCIS implementation
   Masaaki Saitow         : Open-shell DLPNO-CCSD energy and density
   Barbara Sandhoefer     : DKH picture change effects
   Kantharuban Sivalingam : CASSCF convergence/infrastructure, NEVPT2 and variants, FIC-MRCI
   Bernardo de Souza      : ESD, SOC TD-DFT
   Georgi Stoychev        : AutoAux, RI-MP2 NMR, DLPNO-MP2 response, X2C
   Van Anh Tran           : RI-MP2 g-tensors
   Willem Van den Heuvel  : Paramagnetic NMR
   Zikuan Wang            : NOTCH, Electric field optimization 
   Frank Wennmohs         : Technical directorship and infrastructure
   Hang Xu                : AUTO-CI-Response properties 


 We gratefully acknowledge several colleagues who have allowed us to
 interface, adapt or use parts of their codes:
   Stefan Grimme, W. Hujo, H. Kruse, P. Pracht,  : VdW corrections, initial TS optimization,
                  C. Bannwarth, S. Ehlert,         DFT functionals, gCP, sTDA/sTD-DF
                  L. Wittmann, M. Mueller
   Ed Valeev, F. Pavosevic, A. Kumar             : LibInt (2-el integral package), F12 methods
   Garnet Chan, S. Sharma, J. Yang, R. Olivares  : DMRG
   Ulf Ekstrom                                   : XCFun DFT Library
   Mihaly Kallay                                 : mrcc  (arbitrary order and MRCC methods)
   Frank Weinhold                                : gennbo (NPA and NBO analysis)
   Simon Mueller                                 : openCOSMO-RS
   Christopher J. Cramer and Donald G. Truhlar   : smd solvation model
   Lars Goerigk                                  : TD-DFT with DH, B97 family of functionals
   V. Asgeirsson, H. Jonsson                     : NEB implementation
   FAccTs GmbH                                   : IRC, NEB, NEB-TS, DLPNO-Multilevel, CI-OPT
                                                   MM, QMMM, 2- and 3-layer-ONIOM, Crystal-QMMM,
                                                   LR-CPCM, SF, NACMEs, symmetry and pop. for TD-DFT,
                                                   nearIR, NL-DFT gradient (VV10), updates on ESD,
                                                   ML-optimized integration grids, MBIS, APM,
                                                   GOAT, DOCKER, SOLVATOR, interface openCOSMO-RS
   S Lehtola, MJT Oliveira, MAL Marques          : LibXC Library
   Liviu Ungur et al                             : ANISO software


 Your calculation uses the libint2 library for the computation of 2-el integrals
 For citations please refer to: http://libint.valeyev.net

 Your ORCA version has been built with support for libXC version: 6.2.2
 For citations please refer to: https://libxc.gitlab.io

 This ORCA versions uses:
   CBLAS   interface :  Fast vector & matrix operations
   LAPACKE interface :  Fast linear algebra routines
   SCALAPACK package :  Parallel linear algebra routines
   Shared memory     :  Shared parallel matrices
   BLAS/LAPACK       :  OpenBLAS 0.3.27  USE64BITINT DYNAMIC_ARCH NO_AFFINITY Zen SINGLE_THREADED
        Core in use  :  Zen
   Copyright (c) 2011-2014, The OpenBLAS Project


NOTE: MaxCore=3000 MB was set to SCF,MP2,MDCI,CIPSI,MRCI and CIS
      => If you want to overwrite this, your respective input block should be placed after the MaxCore statement
NOTE: MaxCore=3000 MB was set to SCF,MP2,MDCI,CIPSI,MRCI and CIS
      => If you want to overwrite this, your respective input block should be placed after the MaxCore statement
Your calculation utilizes the SMD solvation module
Please cite in your paper:
A.V. Marenich, C.J. Cramer, D.G. Truhlar J. Phys. Chem. B, 113, (2009), 6378 

Warning: RI is on but no J-basis has been assigned. Assigning Def2/J (nothing to worry about!)
Your calculation utilizes the SMD solvation module
Please cite in your paper:
A.V. Marenich, C.J. Cramer, D.G. Truhlar J. Phys. Chem. B, 113, (2009), 6378 

Warning: RI is on but no J-basis has been assigned. Assigning Def2/J (nothing to worry about!)
================================================================================

----- Orbital basis set information -----
Your calculation utilizes the basis: ma-def2-SVP
   F. Weigend and R. Ahlrichs, Phys. Chem. Chem. Phys. 7, 3297 (2005).
   J. Zheng, X. Xu and D. G. Truhlar, Theor. Chem. Acc. 128, 295 (2011).

----- AuxJ basis set information -----
Your calculation utilizes the auxiliary basis: def2/J
   F. Weigend, Phys. Chem. Chem. Phys. 8, 1057 (2006).

================================================================================

----- Orbital basis set information -----
Your calculation utilizes the basis: ma-def2-SVP
   F. Weigend and R. Ahlrichs, Phys. Chem. Chem. Phys. 7, 3297 (2005).
   J. Zheng, X. Xu and D. G. Truhlar, Theor. Chem. Acc. 128, 295 (2011).

----- AuxJ basis set information -----
Your calculation utilizes the auxiliary basis: def2/J
   F. Weigend, Phys. Chem. Chem. Phys. 8, 1057 (2006).

NOTE: MaxCore=3000 MB was set to SCF,MP2,MDCI,CIPSI,MRCI and CIS
      => If you want to overwrite this, your respective input block should be placed after the MaxCore statement
Your calculation utilizes the SMD solvation module
Please cite in your paper:
A.V. Marenich, C.J. Cramer, D.G. Truhlar J. Phys. Chem. B, 113, (2009), 6378 

Warning: RI is on but no J-basis has been assigned. Assigning Def2/J (nothing to worry about!)
================================================================================

----- Orbital basis set information -----
Your calculation utilizes the basis: ma-def2-SVP
   F. Weigend and R. Ahlrichs, Phys. Chem. Chem. Phys. 7, 3297 (2005).
   J. Zheng, X. Xu and D. G. Truhlar, Theor. Chem. Acc. 128, 295 (2011).

----- AuxJ basis set information -----
Your calculation utilizes the auxiliary basis: def2/J
   F. Weigend, Phys. Chem. Chem. Phys. 8, 1057 (2006).

================================================================================
                                        WARNINGS
                       Please study these warnings very carefully!
================================================================================


WARNING: Geometry Optimization
  ===> : Switching off AutoStart
         For restart on a previous wavefunction, please use MOREAD

================================================================================
                                        WARNINGS
                       Please study these warnings very carefully!
================================================================================


WARNING: Geometry Optimization
  ===> : Switching off AutoStart
         For restart on a previous wavefunction, please use MOREAD

================================================================================
                                       INPUT FILE
================================================================================
NOTE: MaxCore=3000 MB was set to SCF,MP2,MDCI,CIPSI,MRCI and CIS
      => If you want to overwrite this, your respective input block should be placed after the MaxCore statement
NAME = job.inp
|  1> !pbe ma-def2-SVP SMD(2-methyl-2-propanol) opt SMD(Acetonitrile)  Freq
|  2> %maxcore 3000
|  3> %pal
|  4> nprocs 4
|  5> end
|  6> # MECP_BC
|  7> 
|  8> *xyz 0 1
|  9> C        -3.18487978      -0.14288142      -1.34349167 
| 10> H        -3.17290330       0.96414232      -1.25197160 
| 11> H        -2.25873280      -0.54331577      -0.89021522 
| 12> C        -4.40115023      -0.65094733      -0.63850391 
| 13> H        -4.55397224      -0.47761500       0.38279983 
Your calculation utilizes the SMD solvation module
Please cite in your paper:
A.V. Marenich, C.J. Cramer, D.G. Truhlar J. Phys. Chem. B, 113, (2009), 6378 

Warning: RI is on but no J-basis has been assigned. Assigning Def2/J (nothing to worry about!)
| 14> Br        -4.56901789      -2.28783512      -0.75909281 
| 15> H        -5.51952171      -0.41288137      -1.22487378 
| 16> H        -3.19422030      -0.41149530      -2.41660070 
| 17> *
| 18> 
| 19>                          ****END OF INPUT****
================================================================================
================================================================================

----- Orbital basis set information -----
Your calculation utilizes the basis: ma-def2-SVP
   F. Weigend and R. Ahlrichs, Phys. Chem. Chem. Phys. 7, 3297 (2005).
   J. Zheng, X. Xu and D. G. Truhlar, Theor. Chem. Acc. 128, 295 (2011).

----- AuxJ basis set information -----
Your calculation utilizes the auxiliary basis: def2/J
   F. Weigend, Phys. Chem. Chem. Phys. 8, 1057 (2006).


                       *****************************
                       * Geometry Optimization Run *
                       *****************************

Geometry optimization settings:
Update method            Update   .... BFGS
Choice of coordinates    CoordSys .... (2022) Redundant Internals
Initial Hessian          InHess   .... Almloef's Model
Max. no of cycles        MaxIter  .... 50

Convergence Tolerances:
Energy Change            TolE     ....  5.0000e-06 Eh
Max. Gradient            TolMAXG  ....  3.0000e-04 Eh/bohr
RMS Gradient             TolRMSG  ....  1.0000e-04 Eh/bohr
Max. Displacement        TolMAXD  ....  4.0000e-03 bohr
RMS Displacement         TolRMSD  ....  2.0000e-03 bohr
Strict Convergence                .... False

NOTE: MaxCore=3000 MB was set to SCF,MP2,MDCI,CIPSI,MRCI and CIS
      => If you want to overwrite this, your respective input block should be placed after the MaxCore statement
Your calculation utilizes the SMD solvation module
Please cite in your paper:
A.V. Marenich, C.J. Cramer, D.G. Truhlar J. Phys. Chem. B, 113, (2009), 6378 

Warning: RI is on but no J-basis has been assigned. Assigning Def2/J (nothing to worry about!)
------------------------------------------------------------------------------
                        ORCA OPTIMIZATION COORDINATE SETUP
------------------------------------------------------------------------------

The optimization will be done in redundant internal coordinates (2022)
================================================================================

----- Orbital basis set information -----
Your calculation utilizes the basis: ma-def2-SVP
   F. Weigend and R. Ahlrichs, Phys. Chem. Chem. Phys. 7, 3297 (2005).
   J. Zheng, X. Xu and D. G. Truhlar, Theor. Chem. Acc. 128, 295 (2011).

----- AuxJ basis set information -----
Your calculation utilizes the auxiliary basis: def2/J
   F. Weigend, Phys. Chem. Chem. Phys. 8, 1057 (2006).

Making redundant internal coordinates   ...  (2022 redundants) done
Evaluating the initial hessian          ...  (Almloef) done
Evaluating the coordinates              ...  done
Calculating the B-matrix                .... done
Calculating the G-matrix                .... done
Diagonalizing the G-matrix              .... done
NOTE: MaxCore=3000 MB was set to SCF,MP2,MDCI,CIPSI,MRCI and CIS
      => If you want to overwrite this, your respective input block should be placed after the MaxCore statement
NOTE: MaxCore=3000 MB was set to SCF,MP2,MDCI,CIPSI,MRCI and CIS
      => If you want to overwrite this, your respective input block should be placed after the MaxCore statement
The first mode is                       ....    7
The number of degrees of freedom        ....   18
Your calculation utilizes the SMD solvation module
Please cite in your paper:
A.V. Marenich, C.J. Cramer, D.G. Truhlar J. Phys. Chem. B, 113, (2009), 6378 

Your calculation utilizes the SMD solvation module
Please cite in your paper:
A.V. Marenich, C.J. Cramer, D.G. Truhlar J. Phys. Chem. B, 113, (2009), 6378 

Warning: RI is on but no J-basis has been assigned. Assigning Def2/J (nothing to worry about!)
Warning: RI is on but no J-basis has been assigned. Assigning Def2/J (nothing to worry about!)

    -----------------------------------------------------------------
                    Redundant Internal Coordinates


    -----------------------------------------------------------------
         Definition                    Initial Value    Approx d2E/dq
    -----------------------------------------------------------------
      1. B(H   1,C   0)                  1.1109         0.333530   
      2. B(H   2,C   0)                  1.1061         0.339364   
      3. B(C   3,C   0)                  1.4948         0.425131   
      4. B(H   4,C   3)                  1.0471         0.421537   
      5. B(Br  5,C   3)                  1.6499         0.808354   
      6. B(H   6,C   3)                  1.2850         0.175910   
      7. B(H   7,C   0)                  1.1063         0.339224   
      8. A(H   1,C   0,H   7)          108.7829         0.284705   
      9. A(H   1,C   0,C   3)          107.9766         0.327139   
     10. A(C   3,C   0,H   7)          111.5981         0.328053   
     11. A(H   2,C   0,H   7)          108.4617         0.285474   
     12. A(H   2,C   0,C   3)          111.4048         0.328075   
     13. A(H   1,C   0,H   2)          108.5402         0.284723   
     14. A(C   0,C   3,H   6)          115.4656         0.295036   
     15. A(H   4,C   3,Br  5)          102.7482         0.404086   
     16. A(C   0,C   3,Br  5)          112.6763         0.454009   
     17. A(Br  5,C   3,H   6)           93.5490         0.347538   
     18. A(H   4,C   3,H   6)          106.7011         0.266856   
     19. A(C   0,C   3,H   4)          121.4990         0.340101   
     20. D(H   4,C   3,C   0,H   2)     59.0519         0.014293   
     21. D(H   4,C   3,C   0,H   7)   -179.5487         0.014293   
     22. D(Br  5,C   3,C   0,H   1)    177.5110         0.014293   
     23. D(Br  5,C   3,C   0,H   2)    -63.3949         0.014293   
     24. D(Br  5,C   3,C   0,H   7)     58.0045         0.014293   
     25. D(H   4,C   3,C   0,H   1)    -60.0422         0.014293   
    -----------------------------------------------------------------

Number of atoms                         .... 8
Number of degrees of freedom            .... 25


         *************************************************************
         *                GEOMETRY OPTIMIZATION CYCLE   1            *
         *************************************************************
================================================================================
================================================================================

----- Orbital basis set information -----
Your calculation utilizes the basis: ma-def2-SVP
   F. Weigend and R. Ahlrichs, Phys. Chem. Chem. Phys. 7, 3297 (2005).
   J. Zheng, X. Xu and D. G. Truhlar, Theor. Chem. Acc. 128, 295 (2011).

----- AuxJ basis set information -----
Your calculation utilizes the auxiliary basis: def2/J
   F. Weigend, Phys. Chem. Chem. Phys. 8, 1057 (2006).


----- Orbital basis set information -----
Your calculation utilizes the basis: ma-def2-SVP
   F. Weigend and R. Ahlrichs, Phys. Chem. Chem. Phys. 7, 3297 (2005).
   J. Zheng, X. Xu and D. G. Truhlar, Theor. Chem. Acc. 128, 295 (2011).

----- AuxJ basis set information -----
Your calculation utilizes the auxiliary basis: def2/J
   F. Weigend, Phys. Chem. Chem. Phys. 8, 1057 (2006).

================================================================================
                                        WARNINGS
                       Please study these warnings very carefully!
================================================================================


WARNING: Geometry Optimization
  ===> : Switching off AutoStart
         For restart on a previous wavefunction, please use MOREAD
NOTE: MaxCore=3000 MB was set to SCF,MP2,MDCI,CIPSI,MRCI and CIS
      => If you want to overwrite this, your respective input block should be placed after the MaxCore statement

================================================================================
                                        WARNINGS
                       Please study these warnings very carefully!
================================================================================


WARNING: Geometry Optimization
  ===> : Switching off AutoStart
         For restart on a previous wavefunction, please use MOREAD

Your calculation utilizes the SMD solvation module
Please cite in your paper:
A.V. Marenich, C.J. Cramer, D.G. Truhlar J. Phys. Chem. B, 113, (2009), 6378 

Warning: RI is on but no J-basis has been assigned. Assigning Def2/J (nothing to worry about!)
---------------------------------
CARTESIAN COORDINATES (ANGSTROEM)
---------------------------------
  C     -3.184880   -0.142881   -1.343492
  H     -3.172903    0.964142   -1.251972
  H     -2.258733   -0.543316   -0.890215
  C     -4.401150   -0.650947   -0.638504
  H     -4.553972   -0.477615    0.382800
  Br    -4.569018   -2.287835   -0.759093
  H     -5.519522   -0.412881   -1.224874
  H     -3.194220   -0.411495   -2.416601

----------------------------
CARTESIAN COORDINATES (A.U.)
----------------------------
  NO LB      ZA    FRAG     MASS         X           Y           Z
   0 C     6.0000    0    12.011   -6.018551   -0.270007   -2.538831
   1 H     1.0000    0     1.008   -5.995918    1.821965   -2.365883
   2 H     1.0000    0     1.008   -4.268386   -1.026718   -1.682263
   3 C     6.0000    0    12.011   -8.316969   -1.230112   -1.206598
   4 H     1.0000    0     1.008   -8.605760   -0.902562    0.723387
   5 Br   35.0000    0    79.900   -8.634193   -4.323382   -1.434478
   6 H     1.0000    0     1.008  -10.430384   -0.780233   -2.314676
   7 H     1.0000    0     1.008   -6.036202   -0.777613   -4.566713

--------------------------------
INTERNAL COORDINATES (ANGSTROEM)
--------------------------------
 C      0   0   0     0.000000000000     0.00000000     0.00000000
 H      1   0   0     1.110864942380     0.00000000     0.00000000
 H      1   2   0     1.106144401671   108.54021445     0.00000000
 C      1   2   3     1.494808522252   107.97660176   120.89774898
 H      4   1   2     1.047119855939   121.49904282   299.95782861
 Br     4   1   2     1.649885714566   112.67632493   177.51103310
 H      4   1   2     1.285013538073   115.46558618    71.65085454
 H      1   2   3     1.106256594154   108.78286008   242.16981992

---------------------------
INTERNAL COORDINATES (A.U.)
---------------------------
 C      0   0   0     0.000000000000     0.00000000     0.00000000
 H      1   0   0     2.099230512873     0.00000000     0.00000000
 H      1   2   0     2.090309983728   108.54021445     0.00000000
 C      1   2   3     2.824778729708   107.97660176   120.89774898
 H      4   1   2     1.978769757116   121.49904282   299.95782861
 Br     4   1   2     3.117832152798   112.67632493   177.51103310
 H      4   1   2     2.428323665340   115.46558618    71.65085454
 H      1   2   3     2.090521996796   108.78286008   242.16981992

---------------------
BASIS SET INFORMATION
---------------------
There are 3 groups of distinct atoms

 Group   1 Type C   : 8s5p1d contracted to 4s3p1d pattern {5111/311/1}
 Group   2 Type H   : 4s1p contracted to 2s1p pattern {31/1}
 Group   3 Type Br  : 15s11p6d contracted to 6s5p3d pattern {633111/53111/411}

Atom   0C    basis set group =>   1
Atom   1H    basis set group =>   2
Atom   2H    basis set group =>   2
Atom   3C    basis set group =>   1
Atom   4H    basis set group =>   2
Atom   5Br   basis set group =>   3
Atom   6H    basis set group =>   2
Atom   7H    basis set group =>   2
---------------------------------
AUXILIARY/J BASIS SET INFORMATION
---------------------------------
There are 3 groups of distinct atoms

 Group   1 Type C   : 12s5p4d2f1g contracted to 6s4p3d1f1g pattern {711111/2111/211/2/1}
 Group   2 Type H   : 5s2p1d contracted to 3s1p1d pattern {311/2/1}
 Group   3 Type Br  : 19s5p5d3f1g contracted to 8s4p3d2f1g pattern {121111111/2111/311/21/1}

Atom   0C    basis set group =>   1
Atom   1H    basis set group =>   2
Atom   2H    basis set group =>   2
Atom   3C    basis set group =>   1
Atom   4H    basis set group =>   2
Atom   5Br   basis set group =>   3
Atom   6H    basis set group =>   2
Atom   7H    basis set group =>   2
================================================================================

----- Orbital basis set information -----
Your calculation utilizes the basis: ma-def2-SVP
   F. Weigend and R. Ahlrichs, Phys. Chem. Chem. Phys. 7, 3297 (2005).
   J. Zheng, X. Xu and D. G. Truhlar, Theor. Chem. Acc. 128, 295 (2011).

----- AuxJ basis set information -----
Your calculation utilizes the auxiliary basis: def2/J
   F. Weigend, Phys. Chem. Chem. Phys. 8, 1057 (2006).

================================================================================
                                       INPUT FILE
================================================================================
NAME = job.inp
|  1> !pbe ma-def2-SVP SMD(2-methyl-2-propanol) opt SMD(Acetonitrile)  Freq
|  2> %maxcore 3000
|  3> %pal
|  4> nprocs 4
|  5> end
|  6> # MECP_BC
|  7> 
|  8> *xyz 0 1
|  9> C        -3.18487978      -0.14288142      -1.34349167 
| 10> H        -3.17290330       0.96414232      -1.25197160 
| 11> H        -2.25873280      -0.54331577      -0.89021522 
| 12> C        -4.40115023      -0.65094733      -0.63850391 
| 13> H        -4.55397224      -0.47761500       0.38279983 
| 14> Br        -4.56901789      -2.28783512      -0.75909281 
| 15> H        -5.51952171      -0.41288137      -1.22487378 
| 16> H        -3.19422030      -0.41149530      -2.41660070 
| 17> *
| 18> 
| 19>                          ****END OF INPUT****
================================================================================

                       *****************************
                       * Geometry Optimization Run *
                       *****************************

Geometry optimization settings:
Update method            Update   .... BFGS
Choice of coordinates    CoordSys .... (2022) Redundant Internals
Initial Hessian          InHess   .... Almloef's Model
Max. no of cycles        MaxIter  .... 50

Convergence Tolerances:
Energy Change            TolE     ....  5.0000e-06 Eh
Max. Gradient            TolMAXG  ....  3.0000e-04 Eh/bohr
RMS Gradient             TolRMSG  ....  1.0000e-04 Eh/bohr
Max. Displacement        TolMAXD  ....  4.0000e-03 bohr
RMS Displacement         TolRMSD  ....  2.0000e-03 bohr
Strict Convergence                .... False

================================================================================
                                        WARNINGS
                       Please study these warnings very carefully!
================================================================================


WARNING: Geometry Optimization
  ===> : Switching off AutoStart
         For restart on a previous wavefunction, please use MOREAD

================================================================================
                                       INPUT FILE
================================================================================
NAME = job.inp
|  1> !pbe ma-def2-SVP SMD(2-methyl-2-propanol) opt SMD(Acetonitrile)  Freq
|  2> %maxcore 3000
|  3> %pal
|  4> nprocs 4
|  5> end
|  6> # MECP_BC
|  7> 
|  8> *xyz 0 1
|  9> C        -3.18487978      -0.14288142      -1.34349167 
| 10> H        -3.17290330       0.96414232      -1.25197160 
| 11> H        -2.25873280      -0.54331577      -0.89021522 
| 12> C        -4.40115023      -0.65094733      -0.63850391 
| 13> H        -4.55397224      -0.47761500       0.38279983 
| 14> Br        -4.56901789      -2.28783512      -0.75909281 
| 15> H        -5.51952171      -0.41288137      -1.22487378 
| 16> H        -3.19422030      -0.41149530      -2.41660070 
| 17> *
| 18> 
| 19>                          ****END OF INPUT****
================================================================================
------------------------------------------------------------------------------
                        ORCA OPTIMIZATION COORDINATE SETUP
------------------------------------------------------------------------------

The optimization will be done in redundant internal coordinates (2022)
================================================================================
                                        WARNINGS
                       Please study these warnings very carefully!
================================================================================


WARNING: Geometry Optimization
  ===> : Switching off AutoStart
         For restart on a previous wavefunction, please use MOREAD

================================================================================
                                        WARNINGS
                       Please study these warnings very carefully!
================================================================================


WARNING: Geometry Optimization
  ===> : Switching off AutoStart
         For restart on a previous wavefunction, please use MOREAD


                       *****************************
                       * Geometry Optimization Run *
                       *****************************

Geometry optimization settings:
Update method            Update   .... BFGS
Choice of coordinates    CoordSys .... (2022) Redundant Internals
Initial Hessian          InHess   .... Almloef's Model
Max. no of cycles        MaxIter  .... 50

Convergence Tolerances:
Energy Change            TolE     ....  5.0000e-06 Eh
Max. Gradient            TolMAXG  ....  3.0000e-04 Eh/bohr
RMS Gradient             TolRMSG  ....  1.0000e-04 Eh/bohr
Max. Displacement        TolMAXD  ....  4.0000e-03 bohr
RMS Displacement         TolRMSD  ....  2.0000e-03 bohr
Strict Convergence                .... False

Making redundant internal coordinates   ...  (2022 redundants) done
Evaluating the initial hessian          ...  (Almloef) done
Evaluating the coordinates              ...  done
Calculating the B-matrix                .... done
Calculating the G-matrix                .... done
Diagonalizing the G-matrix              .... done
================================================================================
                                       INPUT FILE
================================================================================
NAME = job.inp
|  1> !pbe ma-def2-SVP SMD(2-methyl-2-propanol) opt SMD(Acetonitrile)  Freq
|  2> %maxcore 3000
|  3> %pal
|  4> nprocs 4
The first mode is                       ....    7
The number of degrees of freedom        ....   18
|  5> end
|  6> # MECP_BC
|  7> 
|  8> *xyz 0 1
|  9> C        -3.18487978      -0.14288142      -1.34349167 
================================================================================
                                        WARNINGS
                       Please study these warnings very carefully!
================================================================================

| 10> H        -3.17290330       0.96414232      -1.25197160 
| 11> H        -2.25873280      -0.54331577      -0.89021522 

WARNING: Geometry Optimization
  ===> : Switching off AutoStart
         For restart on a previous wavefunction, please use MOREAD

    -----------------------------------------------------------------
                    Redundant Internal Coordinates


    -----------------------------------------------------------------
         Definition                    Initial Value    Approx d2E/dq
    -----------------------------------------------------------------
      1. B(H   1,C   0)                  1.1109         0.333530   
      2. B(H   2,C   0)                  1.1061         0.339364   
| 12> C        -4.40115023      -0.65094733      -0.63850391 
      3. B(C   3,C   0)                  1.4948         0.425131   
      4. B(H   4,C   3)                  1.0471         0.421537   
      5. B(Br  5,C   3)                  1.6499         0.808354   
      6. B(H   6,C   3)                  1.2850         0.175910   
      7. B(H   7,C   0)                  1.1063         0.339224   
      8. A(H   1,C   0,H   7)          108.7829         0.284705   
      9. A(H   1,C   0,C   3)          107.9766         0.327139   
     10. A(C   3,C   0,H   7)          111.5981         0.328053   
| 13> H        -4.55397224      -0.47761500       0.38279983 

     11. A(H   2,C   0,H   7)          108.4617         0.285474   
     12. A(H   2,C   0,C   3)          111.4048         0.328075   
     13. A(H   1,C   0,H   2)          108.5402         0.284723   
     14. A(C   0,C   3,H   6)          115.4656         0.295036   
     15. A(H   4,C   3,Br  5)          102.7482         0.404086   
     16. A(C   0,C   3,Br  5)          112.6763         0.454009   
     17. A(Br  5,C   3,H   6)           93.5490         0.347538   
     18. A(H   4,C   3,H   6)          106.7011         0.266856   
     19. A(C   0,C   3,H   4)          121.4990         0.340101   
     20. D(H   4,C   3,C   0,H   2)     59.0519         0.014293   
     21. D(H   4,C   3,C   0,H   7)   -179.5487         0.014293   
     22. D(Br  5,C   3,C   0,H   1)    177.5110         0.014293   
     23. D(Br  5,C   3,C   0,H   2)    -63.3949         0.014293   
     24. D(Br  5,C   3,C   0,H   7)     58.0045         0.014293   
     25. D(H   4,C   3,C   0,H   1)    -60.0422         0.014293   
    -----------------------------------------------------------------

| 14> Br        -4.56901789      -2.28783512      -0.75909281 
Number of atoms                         .... 8
Number of degrees of freedom            .... 25

| 15> H        -5.51952171      -0.41288137      -1.22487378 

         *************************************************************
         *                GEOMETRY OPTIMIZATION CYCLE   1            *
         *************************************************************
| 16> H        -3.19422030      -0.41149530      -2.41660070 
| 17> *
| 18> 
| 19>                          ****END OF INPUT****
================================================================================
------------------------------------------------------------------------------
                        ORCA OPTIMIZATION COORDINATE SETUP
------------------------------------------------------------------------------

---------------------------------
CARTESIAN COORDINATES (ANGSTROEM)
---------------------------------
  C     -3.184880   -0.142881   -1.343492
  H     -3.172903    0.964142   -1.251972
  H     -2.258733   -0.543316   -0.890215
  C     -4.401150   -0.650947   -0.638504
  H     -4.553972   -0.477615    0.382800
  Br    -4.569018   -2.287835   -0.759093
  H     -5.519522   -0.412881   -1.224874
  H     -3.194220   -0.411495   -2.416601

----------------------------
CARTESIAN COORDINATES (A.U.)
----------------------------
  NO LB      ZA    FRAG     MASS         X           Y           Z
   0 C     6.0000    0    12.011   -6.018551   -0.270007   -2.538831
The optimization will be done in redundant internal coordinates (2022)
   1 H     1.0000    0     1.008   -5.995918    1.821965   -2.365883
   2 H     1.0000    0     1.008   -4.268386   -1.026718   -1.682263
   3 C     6.0000    0    12.011   -8.316969   -1.230112   -1.206598
   4 H     1.0000    0     1.008   -8.605760   -0.902562    0.723387
   5 Br   35.0000    0    79.900   -8.634193   -4.323382   -1.434478
   6 H     1.0000    0     1.008  -10.430384   -0.780233   -2.314676
   7 H     1.0000    0     1.008   -6.036202   -0.777613   -4.566713

--------------------------------
INTERNAL COORDINATES (ANGSTROEM)
--------------------------------
 C      0   0   0     0.000000000000     0.00000000     0.00000000
 H      1   0   0     1.110864942380     0.00000000     0.00000000
 H      1   2   0     1.106144401671   108.54021445     0.00000000
 C      1   2   3     1.494808522252   107.97660176   120.89774898
 H      4   1   2     1.047119855939   121.49904282   299.95782861
 Br     4   1   2     1.649885714566   112.67632493   177.51103310
 H      4   1   2     1.285013538073   115.46558618    71.65085454
 H      1   2   3     1.106256594154   108.78286008   242.16981992

---------------------------
INTERNAL COORDINATES (A.U.)
---------------------------
 C      0   0   0     0.000000000000     0.00000000     0.00000000
 H      1   0   0     2.099230512873     0.00000000     0.00000000
 H      1   2   0     2.090309983728   108.54021445     0.00000000
 C      1   2   3     2.824778729708   107.97660176   120.89774898
 H      4   1   2     1.978769757116   121.49904282   299.95782861
 Br     4   1   2     3.117832152798   112.67632493   177.51103310
 H      4   1   2     2.428323665340   115.46558618    71.65085454
 H      1   2   3     2.090521996796   108.78286008   242.16981992

================================================================================
                                        WARNINGS
                       Please study these warnings very carefully!
================================================================================


WARNING: Geometry Optimization
  ===> : Switching off AutoStart
         For restart on a previous wavefunction, please use MOREAD

---------------------
BASIS SET INFORMATION
---------------------
There are 3 groups of distinct atoms

================================================================================
                                       INPUT FILE
================================================================================
NAME = job.inp
 Group   1 Type C   : 8s5p1d contracted to 4s3p1d pattern {5111/311/1}
 Group   2 Type H   : 4s1p contracted to 2s1p pattern {31/1}
 Group   3 Type Br  : 15s11p6d contracted to 6s5p3d pattern {633111/53111/411}

Atom   0C    basis set group =>   1
Atom   1H    basis set group =>   2
Atom   2H    basis set group =>   2
Atom   3C    basis set group =>   1
Atom   4H    basis set group =>   2
Atom   5Br   basis set group =>   3
Atom   6H    basis set group =>   2
Atom   7H    basis set group =>   2
---------------------------------
AUXILIARY/J BASIS SET INFORMATION
---------------------------------
There are 3 groups of distinct atoms

|  1> !pbe ma-def2-SVP SMD(2-methyl-2-propanol) opt SMD(Acetonitrile)  Freq
|  2> %maxcore 3000
|  3> %pal
|  4> nprocs 4
|  5> end
 Group   1 Type C   : 12s5p4d2f1g contracted to 6s4p3d1f1g pattern {711111/2111/211/2/1}
 Group   2 Type H   : 5s2p1d contracted to 3s1p1d pattern {311/2/1}
|  6> # MECP_BC
|  7> 
|  8> *xyz 0 1
 Group   3 Type Br  : 19s5p5d3f1g contracted to 8s4p3d2f1g pattern {121111111/2111/311/21/1}

Atom   0C    basis set group =>   1
Atom   1H    basis set group =>   2
Atom   2H    basis set group =>   2
Atom   3C    basis set group =>   1
Atom   4H    basis set group =>   2
Atom   5Br   basis set group =>   3
Atom   6H    basis set group =>   2
Atom   7H    basis set group =>   2
|  9> C        -3.18487978      -0.14288142      -1.34349167 
| 10> H        -3.17290330       0.96414232      -1.25197160 
| 11> H        -2.25873280      -0.54331577      -0.89021522 
| 12> C        -4.40115023      -0.65094733      -0.63850391 

                       *****************************
                       * Geometry Optimization Run *
                       *****************************

| 13> H        -4.55397224      -0.47761500       0.38279983 
Geometry optimization settings:
Update method            Update   .... BFGS
Choice of coordinates    CoordSys .... (2022) Redundant Internals
Initial Hessian          InHess   .... Almloef's Model
Max. no of cycles        MaxIter  .... 50

Convergence Tolerances:
Energy Change            TolE     ....  5.0000e-06 Eh
Max. Gradient            TolMAXG  ....  3.0000e-04 Eh/bohr
RMS Gradient             TolRMSG  ....  1.0000e-04 Eh/bohr
Max. Displacement        TolMAXD  ....  4.0000e-03 bohr
| 14> Br        -4.56901789      -2.28783512      -0.75909281 
RMS Displacement         TolRMSD  ....  2.0000e-03 bohr
Strict Convergence                .... False

| 15> H        -5.51952171      -0.41288137      -1.22487378 
| 16> H        -3.19422030      -0.41149530      -2.41660070 
| 17> *
| 18> 
| 19>                          ****END OF INPUT****
================================================================================
================================================================================
                                       INPUT FILE
================================================================================
NAME = job.inp
|  1> !pbe ma-def2-SVP SMD(2-methyl-2-propanol) opt SMD(Acetonitrile)  Freq
|  2> %maxcore 3000
|  3> %pal
|  4> nprocs 4
|  5> end
|  6> # MECP_BC
|  7> 
|  8> *xyz 0 1
|  9> C        -3.18487978      -0.14288142      -1.34349167 
| 10> H        -3.17290330       0.96414232      -1.25197160 
| 11> H        -2.25873280      -0.54331577      -0.89021522 
| 12> C        -4.40115023      -0.65094733      -0.63850391 
| 13> H        -4.55397224      -0.47761500       0.38279983 
| 14> Br        -4.56901789      -2.28783512      -0.75909281 
| 15> H        -5.51952171      -0.41288137      -1.22487378 
| 16> H        -3.19422030      -0.41149530      -2.41660070 
| 17> *
| 18> 
| 19>                          ****END OF INPUT****
================================================================================

                       *****************************
                       * Geometry Optimization Run *
                       *****************************

Geometry optimization settings:
Update method            Update   .... BFGS
Choice of coordinates    CoordSys .... (2022) Redundant Internals
Initial Hessian          InHess   .... Almloef's Model
Max. no of cycles        MaxIter  .... 50

Convergence Tolerances:
Energy Change            TolE     ....  5.0000e-06 Eh
Max. Gradient            TolMAXG  ....  3.0000e-04 Eh/bohr
RMS Gradient             TolRMSG  ....  1.0000e-04 Eh/bohr
Max. Displacement        TolMAXD  ....  4.0000e-03 bohr
RMS Displacement         TolRMSD  ....  2.0000e-03 bohr
Strict Convergence                .... False

Making redundant internal coordinates   ...  (2022 redundants) done
Evaluating the initial hessian          ...  (Almloef) done
Evaluating the coordinates              ...  done
Calculating the B-matrix                .... done


WARNING!!!!!!!
Your GBWFile is either corrupt or from a different ORCA version!
Please be VERY careful with your calculation results!!!

Data_size, sizeof( TOrcaInfo ): 0, 871248

                       *****************************
                       * Geometry Optimization Run *
                       *****************************

Geometry optimization settings:
Update method            Update   .... BFGS
Choice of coordinates    CoordSys .... (2022) Redundant Internals
Initial Hessian          InHess   .... Almloef's Model
Max. no of cycles        MaxIter  .... 50

Convergence Tolerances:
Energy Change            TolE     ....  5.0000e-06 Eh
Max. Gradient            TolMAXG  ....  3.0000e-04 Eh/bohr
RMS Gradient             TolRMSG  ....  1.0000e-04 Eh/bohr
Max. Displacement        TolMAXD  ....  4.0000e-03 bohr
RMS Displacement         TolRMSD  ....  2.0000e-03 bohr
Strict Convergence                .... False

Calculating the G-matrix                .... done
Diagonalizing the G-matrix              .... done
The first mode is                       ....    7
The number of degrees of freedom        ....   18

    -----------------------------------------------------------------
                    Redundant Internal Coordinates


    -----------------------------------------------------------------
         Definition                    Initial Value    Approx d2E/dq
    -----------------------------------------------------------------
      1. B(H   1,C   0)                  1.1109         0.333530   
      2. B(H   2,C   0)                  1.1061         0.339364   
      3. B(C   3,C   0)                  1.4948         0.425131   
      4. B(H   4,C   3)                  1.0471         0.421537   
      5. B(Br  5,C   3)                  1.6499         0.808354   
      6. B(H   6,C   3)                  1.2850         0.175910   
      7. B(H   7,C   0)                  1.1063         0.339224   
      8. A(H   1,C   0,H   7)          108.7829         0.284705   
      9. A(H   1,C   0,C   3)          107.9766         0.327139   
     10. A(C   3,C   0,H   7)          111.5981         0.328053   
     11. A(H   2,C   0,H   7)          108.4617         0.285474   
     12. A(H   2,C   0,C   3)          111.4048         0.328075   
     13. A(H   1,C   0,H   2)          108.5402         0.284723   
     14. A(C   0,C   3,H   6)          115.4656         0.295036   
     15. A(H   4,C   3,Br  5)          102.7482         0.404086   
     16. A(C   0,C   3,Br  5)          112.6763         0.454009   
     17. A(Br  5,C   3,H   6)           93.5490         0.347538   
     18. A(H   4,C   3,H   6)          106.7011         0.266856   
     19. A(C   0,C   3,H   4)          121.4990         0.340101   
     20. D(H   4,C   3,C   0,H   2)     59.0519         0.014293   
     21. D(H   4,C   3,C   0,H   7)   -179.5487         0.014293   
     22. D(Br  5,C   3,C   0,H   1)    177.5110         0.014293   
     23. D(Br  5,C   3,C   0,H   2)    -63.3949         0.014293   
     24. D(Br  5,C   3,C   0,H   7)     58.0045         0.014293   
     25. D(H   4,C   3,C   0,H   1)    -60.0422         0.014293   
    -----------------------------------------------------------------

Number of atoms                         .... 8
Number of degrees of freedom            .... 25



WARNING!!!!!!!
Your GBWFile is either corrupt or from a different ORCA version!
Please be VERY careful with your calculation results!!!

Data_size, sizeof( TOrcaInfo ): 0, 871248
[file orca_tools/Tool-ORCAData/qcinpdat.cpp, line 2838]: Error: GBW file contains no geometry information job.gbw

[file orca_main/main_driver_opt1.cpp, line 1412]: Cannot read GBW-INFO

================================================================================
                                        WARNINGS
                       Please study these warnings very carefully!
================================================================================


WARNING: Geometry Optimization
  ===> : Switching off AutoStart
         For restart on a previous wavefunction, please use MOREAD

================================================================================
                                       INPUT FILE
================================================================================
NAME = job.inp
|  1> !pbe ma-def2-SVP SMD(2-methyl-2-propanol) opt SMD(Acetonitrile)  Freq
|  2> %maxcore 3000
|  3> %pal
|  4> nprocs 4
|  5> end
|  6> # MECP_BC
|  7> 
|  8> *xyz 0 1
|  9> C        -3.18487978      -0.14288142      -1.34349167 
------------------------------------------------------------------------------
                        ORCA OPTIMIZATION COORDINATE SETUP
------------------------------------------------------------------------------

The optimization will be done in redundant internal coordinates (2022)
| 10> H        -3.17290330       0.96414232      -1.25197160 
| 11> H        -2.25873280      -0.54331577      -0.89021522 
| 12> C        -4.40115023      -0.65094733      -0.63850391 
| 13> H        -4.55397224      -0.47761500       0.38279983 
| 14> Br        -4.56901789      -2.28783512      -0.75909281 
| 15> H        -5.51952171      -0.41288137      -1.22487378 
| 16> H        -3.19422030      -0.41149530      -2.41660070 
| 17> *
| 18> 
| 19>                          ****END OF INPUT****
================================================================================

                       *****************************
                       * Geometry Optimization Run *
                       *****************************

Geometry optimization settings:
Update method            Update   .... BFGS
Choice of coordinates    CoordSys .... (2022) Redundant Internals
Initial Hessian          InHess   .... Almloef's Model
Max. no of cycles        MaxIter  .... 50

Convergence Tolerances:
Energy Change            TolE     ....  5.0000e-06 Eh
Max. Gradient            TolMAXG  ....  3.0000e-04 Eh/bohr
RMS Gradient             TolRMSG  ....  1.0000e-04 Eh/bohr
Max. Displacement        TolMAXD  ....  4.0000e-03 bohr
RMS Displacement         TolRMSD  ....  2.0000e-03 bohr
Strict Convergence                .... False

Making redundant internal coordinates   ...  (2022 redundants) done
Evaluating the initial hessian          ...  (Almloef) done
Evaluating the coordinates              ...  done
Calculating the B-matrix                .... done
Calculating the G-matrix                .... done
Diagonalizing the G-matrix              .... done
The first mode is                       ....    7
The number of degrees of freedom        ....   18

    -----------------------------------------------------------------
                    Redundant Internal Coordinates


    -----------------------------------------------------------------
         Definition                    Initial Value    Approx d2E/dq
    -----------------------------------------------------------------
      1. B(H   1,C   0)                  1.1109         0.333530   
      2. B(H   2,C   0)                  1.1061         0.339364   
      3. B(C   3,C   0)                  1.4948         0.425131   
      4. B(H   4,C   3)                  1.0471         0.421537   
      5. B(Br  5,C   3)                  1.6499         0.808354   
      6. B(H   6,C   3)                  1.2850         0.175910   
      7. B(H   7,C   0)                  1.1063         0.339224   
      8. A(H   1,C   0,H   7)          108.7829         0.284705   
      9. A(H   1,C   0,C   3)          107.9766         0.327139   
     10. A(C   3,C   0,H   7)          111.5981         0.328053   
     11. A(H   2,C   0,H   7)          108.4617         0.285474   
     12. A(H   2,C   0,C   3)          111.4048         0.328075   
     13. A(H   1,C   0,H   2)          108.5402         0.284723   
     14. A(C   0,C   3,H   6)          115.4656         0.295036   
     15. A(H   4,C   3,Br  5)          102.7482         0.404086   
     16. A(C   0,C   3,Br  5)          112.6763         0.454009   
     17. A(Br  5,C   3,H   6)           93.5490         0.347538   
     18. A(H   4,C   3,H   6)          106.7011         0.266856   
     19. A(C   0,C   3,H   4)          121.4990         0.340101   
     20. D(H   4,C   3,C   0,H   2)     59.0519         0.014293   
     21. D(H   4,C   3,C   0,H   7)   -179.5487         0.014293   
     22. D(Br  5,C   3,C   0,H   1)    177.5110         0.014293   
     23. D(Br  5,C   3,C   0,H   2)    -63.3949         0.014293   
     24. D(Br  5,C   3,C   0,H   7)     58.0045         0.014293   
     25. D(H   4,C   3,C   0,H   1)    -60.0422         0.014293   
    -----------------------------------------------------------------

Number of atoms                         .... 8
Number of degrees of freedom            .... 25


         *************************************************************
         *                GEOMETRY OPTIMIZATION CYCLE   1            *
         *************************************************************
------------------------------------------------------------------------------
                        ORCA OPTIMIZATION COORDINATE SETUP
------------------------------------------------------------------------------

The optimization will be done in redundant internal coordinates (2022)
---------------------------------
CARTESIAN COORDINATES (ANGSTROEM)
---------------------------------
  C     -3.184880   -0.142881   -1.343492
  H     -3.172903    0.964142   -1.251972
  H     -2.258733   -0.543316   -0.890215
  C     -4.401150   -0.650947   -0.638504
  H     -4.553972   -0.477615    0.382800
  Br    -4.569018   -2.287835   -0.759093
  H     -5.519522   -0.412881   -1.224874
  H     -3.194220   -0.411495   -2.416601

----------------------------
CARTESIAN COORDINATES (A.U.)
----------------------------
  NO LB      ZA    FRAG     MASS         X           Y           Z
   0 C     6.0000    0    12.011   -6.018551   -0.270007   -2.538831
   1 H     1.0000    0     1.008   -5.995918    1.821965   -2.365883
   2 H     1.0000    0     1.008   -4.268386   -1.026718   -1.682263
   3 C     6.0000    0    12.011   -8.316969   -1.230112   -1.206598
   4 H     1.0000    0     1.008   -8.605760   -0.902562    0.723387
   5 Br   35.0000    0    79.900   -8.634193   -4.323382   -1.434478
   6 H     1.0000    0     1.008  -10.430384   -0.780233   -2.314676
   7 H     1.0000    0     1.008   -6.036202   -0.777613   -4.566713

--------------------------------
INTERNAL COORDINATES (ANGSTROEM)
--------------------------------
 C      0   0   0     0.000000000000     0.00000000     0.00000000
 H      1   0   0     1.110864942380     0.00000000     0.00000000
 H      1   2   0     1.106144401671   108.54021445     0.00000000
 C      1   2   3     1.494808522252   107.97660176   120.89774898
 H      4   1   2     1.047119855939   121.49904282   299.95782861
 Br     4   1   2     1.649885714566   112.67632493   177.51103310
 H      4   1   2     1.285013538073   115.46558618    71.65085454
 H      1   2   3     1.106256594154   108.78286008   242.16981992

---------------------------
INTERNAL COORDINATES (A.U.)
---------------------------
 C      0   0   0     0.000000000000     0.00000000     0.00000000
 H      1   0   0     2.099230512873     0.00000000     0.00000000
 H      1   2   0     2.090309983728   108.54021445     0.00000000
 C      1   2   3     2.824778729708   107.97660176   120.89774898
 H      4   1   2     1.978769757116   121.49904282   299.95782861
 Br     4   1   2     3.117832152798   112.67632493   177.51103310
 H      4   1   2     2.428323665340   115.46558618    71.65085454
 H      1   2   3     2.090521996796   108.78286008   242.16981992

---------------------
BASIS SET INFORMATION
---------------------
There are 3 groups of distinct atoms

 Group   1 Type C   : 8s5p1d contracted to 4s3p1d pattern {5111/311/1}
 Group   2 Type H   : 4s1p contracted to 2s1p pattern {31/1}
 Group   3 Type Br  : 15s11p6d contracted to 6s5p3d pattern {633111/53111/411}

Atom   0C    basis set group =>   1
Atom   1H    basis set group =>   2
Atom   2H    basis set group =>   2
Atom   3C    basis set group =>   1
Atom   4H    basis set group =>   2
Atom   5Br   basis set group =>   3
Atom   6H    basis set group =>   2
Atom   7H    basis set group =>   2
---------------------------------
AUXILIARY/J BASIS SET INFORMATION
---------------------------------
There are 3 groups of distinct atoms

 Group   1 Type C   : 12s5p4d2f1g contracted to 6s4p3d1f1g pattern {711111/2111/211/2/1}
 Group   2 Type H   : 5s2p1d contracted to 3s1p1d pattern {311/2/1}
 Group   3 Type Br  : 19s5p5d3f1g contracted to 8s4p3d2f1g pattern {121111111/2111/311/21/1}

Atom   0C    basis set group =>   1
Atom   1H    basis set group =>   2
Atom   2H    basis set group =>   2
Atom   3C    basis set group =>   1
Atom   4H    basis set group =>   2
Atom   5Br   basis set group =>   3
Atom   6H    basis set group =>   2
Atom   7H    basis set group =>   2
Making redundant internal coordinates   ...  (2022 redundants) done
Evaluating the initial hessian          ...  (Almloef) done
Evaluating the coordinates              ...  done
Calculating the B-matrix                .... done
Calculating the G-matrix                .... done
Diagonalizing the G-matrix              .... done
The first mode is                       ....    7
The number of degrees of freedom        ....   18

    -----------------------------------------------------------------
                    Redundant Internal Coordinates


    -----------------------------------------------------------------
         Definition                    Initial Value    Approx d2E/dq
    -----------------------------------------------------------------
      1. B(H   1,C   0)                  1.1109         0.333530   
      2. B(H   2,C   0)                  1.1061         0.339364   
      3. B(C   3,C   0)                  1.4948         0.425131   
      4. B(H   4,C   3)                  1.0471         0.421537   
      5. B(Br  5,C   3)                  1.6499         0.808354   
      6. B(H   6,C   3)                  1.2850         0.175910   
      7. B(H   7,C   0)                  1.1063         0.339224   
      8. A(H   1,C   0,H   7)          108.7829         0.284705   
      9. A(H   1,C   0,C   3)          107.9766         0.327139   
     10. A(C   3,C   0,H   7)          111.5981         0.328053   
     11. A(H   2,C   0,H   7)          108.4617         0.285474   
     12. A(H   2,C   0,C   3)          111.4048         0.328075   
     13. A(H   1,C   0,H   2)          108.5402         0.284723   
     14. A(C   0,C   3,H   6)          115.4656         0.295036   
     15. A(H   4,C   3,Br  5)          102.7482         0.404086   
     16. A(C   0,C   3,Br  5)          112.6763         0.454009   
     17. A(Br  5,C   3,H   6)           93.5490         0.347538   
     18. A(H   4,C   3,H   6)          106.7011         0.266856   
     19. A(C   0,C   3,H   4)          121.4990         0.340101   
     20. D(H   4,C   3,C   0,H   2)     59.0519         0.014293   
     21. D(H   4,C   3,C   0,H   7)   -179.5487         0.014293   
     22. D(Br  5,C   3,C   0,H   1)    177.5110         0.014293   
     23. D(Br  5,C   3,C   0,H   2)    -63.3949         0.014293   
     24. D(Br  5,C   3,C   0,H   7)     58.0045         0.014293   
     25. D(H   4,C   3,C   0,H   1)    -60.0422         0.014293   
    -----------------------------------------------------------------

Number of atoms                         .... 8
Number of degrees of freedom            .... 25


         *************************************************************
         *                GEOMETRY OPTIMIZATION CYCLE   1            *
         *************************************************************
---------------------------------
CARTESIAN COORDINATES (ANGSTROEM)
---------------------------------
  C     -3.184880   -0.142881   -1.343492
  H     -3.172903    0.964142   -1.251972
  H     -2.258733   -0.543316   -0.890215
  C     -4.401150   -0.650947   -0.638504
  H     -4.553972   -0.477615    0.382800
  Br    -4.569018   -2.287835   -0.759093
  H     -5.519522   -0.412881   -1.224874
  H     -3.194220   -0.411495   -2.416601

----------------------------
CARTESIAN COORDINATES (A.U.)
----------------------------
  NO LB      ZA    FRAG     MASS         X           Y           Z
   0 C     6.0000    0    12.011   -6.018551   -0.270007   -2.538831
   1 H     1.0000    0     1.008   -5.995918    1.821965   -2.365883
   2 H     1.0000    0     1.008   -4.268386   -1.026718   -1.682263
   3 C     6.0000    0    12.011   -8.316969   -1.230112   -1.206598
   4 H     1.0000    0     1.008   -8.605760   -0.902562    0.723387
   5 Br   35.0000    0    79.900   -8.634193   -4.323382   -1.434478
   6 H     1.0000    0     1.008  -10.430384   -0.780233   -2.314676
   7 H     1.0000    0     1.008   -6.036202   -0.777613   -4.566713

--------------------------------
INTERNAL COORDINATES (ANGSTROEM)
--------------------------------
 C      0   0   0     0.000000000000     0.00000000     0.00000000
 H      1   0   0     1.110864942380     0.00000000     0.00000000
 H      1   2   0     1.106144401671   108.54021445     0.00000000
 C      1   2   3     1.494808522252   107.97660176   120.89774898
 H      4   1   2     1.047119855939   121.49904282   299.95782861
 Br     4   1   2     1.649885714566   112.67632493   177.51103310
 H      4   1   2     1.285013538073   115.46558618    71.65085454
 H      1   2   3     1.106256594154   108.78286008   242.16981992

---------------------------
INTERNAL COORDINATES (A.U.)
---------------------------
 C      0   0   0     0.000000000000     0.00000000     0.00000000
 H      1   0   0     2.099230512873     0.00000000     0.00000000
 H      1   2   0     2.090309983728   108.54021445     0.00000000
 C      1   2   3     2.824778729708   107.97660176   120.89774898
 H      4   1   2     1.978769757116   121.49904282   299.95782861
 Br     4   1   2     3.117832152798   112.67632493   177.51103310
 H      4   1   2     2.428323665340   115.46558618    71.65085454
 H      1   2   3     2.090521996796   108.78286008   242.16981992

---------------------
BASIS SET INFORMATION
---------------------
There are 3 groups of distinct atoms

 Group   1 Type C   : 8s5p1d contracted to 4s3p1d pattern {5111/311/1}
 Group   2 Type H   : 4s1p contracted to 2s1p pattern {31/1}
 Group   3 Type Br  : 15s11p6d contracted to 6s5p3d pattern {633111/53111/411}

Atom   0C    basis set group =>   1
Atom   1H    basis set group =>   2
Atom   2H    basis set group =>   2
Atom   3C    basis set group =>   1
Atom   4H    basis set group =>   2
Atom   5Br   basis set group =>   3
Atom   6H    basis set group =>   2
Atom   7H    basis set group =>   2
---------------------------------
AUXILIARY/J BASIS SET INFORMATION
---------------------------------
There are 3 groups of distinct atoms

 Group   1 Type C   : 12s5p4d2f1g contracted to 6s4p3d1f1g pattern {711111/2111/211/2/1}
 Group   2 Type H   : 5s2p1d contracted to 3s1p1d pattern {311/2/1}
 Group   3 Type Br  : 19s5p5d3f1g contracted to 8s4p3d2f1g pattern {121111111/2111/311/21/1}

Atom   0C    basis set group =>   1
Atom   1H    basis set group =>   2
Atom   2H    basis set group =>   2
Atom   3C    basis set group =>   1
Atom   4H    basis set group =>   2
Atom   5Br   basis set group =>   3
Atom   6H    basis set group =>   2
Atom   7H    basis set group =>   2
================================================================================
                                        WARNINGS
                       Please study these warnings very carefully!
================================================================================


WARNING: Geometry Optimization
  ===> : Switching off AutoStart
         For restart on a previous wavefunction, please use MOREAD

================================================================================
                                        WARNINGS
                       Please study these warnings very carefully!
================================================================================


WARNING: Geometry Optimization
  ===> : Switching off AutoStart
         For restart on a previous wavefunction, please use MOREAD

================================================================================
                                        WARNINGS
                       Please study these warnings very carefully!
================================================================================


WARNING: Geometry Optimization
  ===> : Switching off AutoStart
         For restart on a previous wavefunction, please use MOREAD

================================================================================
                                        WARNINGS
                       Please study these warnings very carefully!
================================================================================


WARNING: Geometry Optimization
  ===> : Switching off AutoStart
         For restart on a previous wavefunction, please use MOREAD
================================================================================
                                        WARNINGS
                       Please study these warnings very carefully!
================================================================================


WARNING: Geometry Optimization
  ===> : Switching off AutoStart
         For restart on a previous wavefunction, please use MOREAD


================================================================================
                                        WARNINGS
                       Please study these warnings very carefully!
================================================================================


WARNING: Geometry Optimization
  ===> : Switching off AutoStart
         For restart on a previous wavefunction, please use MOREAD

================================================================================
                                       INPUT FILE
================================================================================
NAME = job.inp
|  1> !pbe ma-def2-SVP SMD(2-methyl-2-propanol) opt SMD(Acetonitrile)  Freq
|  2> %maxcore 3000
|  3> %pal
|  4> nprocs 4
|  5> end
|  6> # MECP_BC
|  7> 
|  8> *xyz 0 1
|  9> C        -3.18487978      -0.14288142      -1.34349167 
| 10> H        -3.17290330       0.96414232      -1.25197160 
| 11> H        -2.25873280      -0.54331577      -0.89021522 
| 12> C        -4.40115023      -0.65094733      -0.63850391 
| 13> H        -4.55397224      -0.47761500       0.38279983 
| 14> Br        -4.56901789      -2.28783512      -0.75909281 
| 15> H        -5.51952171      -0.41288137      -1.22487378 
| 16> H        -3.19422030      -0.41149530      -2.41660070 
| 17> *
| 18> 
| 19>                          ****END OF INPUT****
================================================================================

                       *****************************
                       * Geometry Optimization Run *
                       *****************************

Geometry optimization settings:
Update method            Update   .... BFGS
Choice of coordinates    CoordSys .... (2022) Redundant Internals
Initial Hessian          InHess   .... Almloef's Model
Max. no of cycles        MaxIter  .... 50

Convergence Tolerances:
Energy Change            TolE     ....  5.0000e-06 Eh
Max. Gradient            TolMAXG  ....  3.0000e-04 Eh/bohr
RMS Gradient             TolRMSG  ....  1.0000e-04 Eh/bohr
Max. Displacement        TolMAXD  ....  4.0000e-03 bohr
RMS Displacement         TolRMSD  ....  2.0000e-03 bohr
Strict Convergence                .... False

------------------------------------------------------------------------------
                        ORCA OPTIMIZATION COORDINATE SETUP
------------------------------------------------------------------------------

The optimization will be done in redundant internal coordinates (2022)
Making redundant internal coordinates   ...  (2022 redundants) done
Evaluating the initial hessian          ...  (Almloef) done
Evaluating the coordinates              ...  done
Calculating the B-matrix                .... done
Calculating the G-matrix                .... done
Diagonalizing the G-matrix              .... done
The first mode is                       ....    7
The number of degrees of freedom        ....   18

    -----------------------------------------------------------------
                    Redundant Internal Coordinates


    -----------------------------------------------------------------
         Definition                    Initial Value    Approx d2E/dq
    -----------------------------------------------------------------
      1. B(H   1,C   0)                  1.1109         0.333530   
      2. B(H   2,C   0)                  1.1061         0.339364   
      3. B(C   3,C   0)                  1.4948         0.425131   
      4. B(H   4,C   3)                  1.0471         0.421537   
      5. B(Br  5,C   3)                  1.6499         0.808354   
      6. B(H   6,C   3)                  1.2850         0.175910   
      7. B(H   7,C   0)                  1.1063         0.339224   
      8. A(H   1,C   0,H   7)          108.7829         0.284705   
      9. A(H   1,C   0,C   3)          107.9766         0.327139   
     10. A(C   3,C   0,H   7)          111.5981         0.328053   
     11. A(H   2,C   0,H   7)          108.4617         0.285474   
     12. A(H   2,C   0,C   3)          111.4048         0.328075   
     13. A(H   1,C   0,H   2)          108.5402         0.284723   
     14. A(C   0,C   3,H   6)          115.4656         0.295036   
     15. A(H   4,C   3,Br  5)          102.7482         0.404086   
     16. A(C   0,C   3,Br  5)          112.6763         0.454009   
     17. A(Br  5,C   3,H   6)           93.5490         0.347538   
     18. A(H   4,C   3,H   6)          106.7011         0.266856   
     19. A(C   0,C   3,H   4)          121.4990         0.340101   
     20. D(H   4,C   3,C   0,H   2)     59.0519         0.014293   
     21. D(H   4,C   3,C   0,H   7)   -179.5487         0.014293   
     22. D(Br  5,C   3,C   0,H   1)    177.5110         0.014293   
     23. D(Br  5,C   3,C   0,H   2)    -63.3949         0.014293   
     24. D(Br  5,C   3,C   0,H   7)     58.0045         0.014293   
     25. D(H   4,C   3,C   0,H   1)    -60.0422         0.014293   
    -----------------------------------------------------------------

Number of atoms                         .... 8
Number of degrees of freedom            .... 25


         *************************************************************
         *                GEOMETRY OPTIMIZATION CYCLE   1            *
         *************************************************************
---------------------------------
CARTESIAN COORDINATES (ANGSTROEM)
---------------------------------
  C     -3.184880   -0.142881   -1.343492
  H     -3.172903    0.964142   -1.251972
  H     -2.258733   -0.543316   -0.890215
  C     -4.401150   -0.650947   -0.638504
  H     -4.553972   -0.477615    0.382800
  Br    -4.569018   -2.287835   -0.759093
  H     -5.519522   -0.412881   -1.224874
  H     -3.194220   -0.411495   -2.416601

----------------------------
CARTESIAN COORDINATES (A.U.)
----------------------------
  NO LB      ZA    FRAG     MASS         X           Y           Z
   0 C     6.0000    0    12.011   -6.018551   -0.270007   -2.538831
   1 H     1.0000    0     1.008   -5.995918    1.821965   -2.365883
   2 H     1.0000    0     1.008   -4.268386   -1.026718   -1.682263
   3 C     6.0000    0    12.011   -8.316969   -1.230112   -1.206598
   4 H     1.0000    0     1.008   -8.605760   -0.902562    0.723387
   5 Br   35.0000    0    79.900   -8.634193   -4.323382   -1.434478
   6 H     1.0000    0     1.008  -10.430384   -0.780233   -2.314676
   7 H     1.0000    0     1.008   -6.036202   -0.777613   -4.566713

--------------------------------
INTERNAL COORDINATES (ANGSTROEM)
--------------------------------
 C      0   0   0     0.000000000000     0.00000000     0.00000000
 H      1   0   0     1.110864942380     0.00000000     0.00000000
 H      1   2   0     1.106144401671   108.54021445     0.00000000
 C      1   2   3     1.494808522252   107.97660176   120.89774898
 H      4   1   2     1.047119855939   121.49904282   299.95782861
 Br     4   1   2     1.649885714566   112.67632493   177.51103310
 H      4   1   2     1.285013538073   115.46558618    71.65085454
 H      1   2   3     1.106256594154   108.78286008   242.16981992

---------------------------
INTERNAL COORDINATES (A.U.)
---------------------------
 C      0   0   0     0.000000000000     0.00000000     0.00000000
 H      1   0   0     2.099230512873     0.00000000     0.00000000
 H      1   2   0     2.090309983728   108.54021445     0.00000000
 C      1   2   3     2.824778729708   107.97660176   120.89774898
 H      4   1   2     1.978769757116   121.49904282   299.95782861
 Br     4   1   2     3.117832152798   112.67632493   177.51103310
 H      4   1   2     2.428323665340   115.46558618    71.65085454
 H      1   2   3     2.090521996796   108.78286008   242.16981992

---------------------
BASIS SET INFORMATION
---------------------
There are 3 groups of distinct atoms

 Group   1 Type C   : 8s5p1d contracted to 4s3p1d pattern {5111/311/1}
 Group   2 Type H   : 4s1p contracted to 2s1p pattern {31/1}
 Group   3 Type Br  : 15s11p6d contracted to 6s5p3d pattern {633111/53111/411}

Atom   0C    basis set group =>   1
Atom   1H    basis set group =>   2
Atom   2H    basis set group =>   2
Atom   3C    basis set group =>   1
Atom   4H    basis set group =>   2
Atom   5Br   basis set group =>   3
Atom   6H    basis set group =>   2
Atom   7H    basis set group =>   2
---------------------------------
AUXILIARY/J BASIS SET INFORMATION
---------------------------------
There are 3 groups of distinct atoms

 Group   1 Type C   : 12s5p4d2f1g contracted to 6s4p3d1f1g pattern {711111/2111/211/2/1}
 Group   2 Type H   : 5s2p1d contracted to 3s1p1d pattern {311/2/1}
 Group   3 Type Br  : 19s5p5d3f1g contracted to 8s4p3d2f1g pattern {121111111/2111/311/21/1}

Atom   0C    basis set group =>   1
Atom   1H    basis set group =>   2
Atom   2H    basis set group =>   2
Atom   3C    basis set group =>   1
Atom   4H    basis set group =>   2
Atom   5Br   basis set group =>   3
Atom   6H    basis set group =>   2
Atom   7H    basis set group =>   2


           ************************************************************
           *        Program running with 4 parallel MPI-processes     *
           *              working on a common directory               *
           ************************************************************
------------------------------------------------------------------------------
                             ORCA STARTUP CALCULATIONS
                           -- RI-GTO INTEGRALS CHOSEN --
------------------------------------------------------------------------------
------------------------------------------------------------------------------
                   ___                                                        
                  /   \      - P O W E R E D   B Y -                         
                 /     \                                                     
                 |  |  |   _    _      __       _____    __    __             
                 |  |  |  | |  | |    /  \     |  _  \  |  |  /  |          
                  \  \/   | |  | |   /    \    | | | |  |  | /  /          
                 / \  \   | |__| |  /  /\  \   | |_| |  |  |/  /          
                |  |  |   |  __  | /  /__\  \  |    /   |      \           
                |  |  |   | |  | | |   __   |  |    \   |  |\   \          
                \     /   | |  | | |  |  |  |  | |\  \  |  | \   \       
                 \___/    |_|  |_| |__|  |__|  |_| \__\ |__|  \__/        
                                                                              
                      - O R C A' S   B I G   F R I E N D -                    
                                      &                                       
                       - I N T E G R A L  F E E D E R -                       
                                                                              
 v1 FN, 2020, v2 2021, v3 2022-2024                                           
------------------------------------------------------------------------------


----------------------
SHARK INTEGRAL PACKAGE
----------------------

Number of atoms                             ...      8
Number of basis functions                   ...     97
Number of shells                            ...     45
Maximum angular momentum                    ...      2
Integral batch strategy                     ... SHARK/LIBINT Hybrid
RI-J (if used) integral strategy            ... SPLIT-RIJ (Revised 2003 algorithm where possible)
Printlevel                                  ...      1
Contraction scheme used                     ... SEGMENTED contraction
Prescreening option                         ... SCHWARTZ
   Thresh                                   ... 2.500e-11
   Tcut                                     ... 2.500e-12
   Tpresel                                  ... 2.500e-12 
Coulomb Range Separation                    ... NOT USED
Exchange Range Separation                   ... NOT USED
Multipole approximations                    ... NOT USED
Finite Nucleus Model                        ... NOT USED
CABS basis                                  ... NOT available
Auxiliary Coulomb fitting basis             ... AVAILABLE
   # of basis functions in Aux-J            ...    211
   # of shells in Aux-J                     ...     73
   Maximum angular momentum in Aux-J        ...      4
Auxiliary J/K fitting basis                 ... NOT available
Auxiliary Correlation fitting basis         ... NOT available
Auxiliary 'external' fitting basis          ... NOT available

Checking pre-screening integrals            ... done (  0.0 sec) Dimension = 45
Check shell pair data                       ... done (  0.0 sec)
Shell pair information
Shell pair cut-off parameter TPreSel        ...   2.5e-12
Total number of shell pairs                 ...      1035
Shell pairs after pre-screening             ...      1024
Total number of primitive shell pairs       ...      3736
Primitive shell pairs kept                  ...      3102
          la=0 lb=0:    295 shell pairs
          la=1 lb=0:    380 shell pairs
          la=1 lb=1:    135 shell pairs
          la=2 lb=0:    119 shell pairs
          la=2 lb=1:     80 shell pairs
          la=2 lb=2:     15 shell pairs

Calculating one electron integrals          ... done (  0.0 sec)
Calculating RI/J V-Matrix + Cholesky decomp.... done (  0.0 sec)
Calculating Nuclear repulsion               ... done (  0.0 sec) ENN=    181.458895596464 Eh

Diagonalization of the overlap matrix:
Smallest eigenvalue                        ... 3.442e-04
Time for diagonalization                   ...    0.001 sec
Threshold for overlap eigenvalues          ... 1.000e-07
Number of eigenvalues below threshold      ... 0
Time for construction of square roots      ...    0.004 sec
Total time needed                          ...    0.005 sec

-------------------
DFT GRID GENERATION
-------------------

General Integration Accuracy     IntAcc      ... 4.388
Radial Grid Type                 RadialGrid  ... OptM3 with GC (2021)
Angular Grid (max. ang.)         AngularGrid ... 4 (Lebedev-302)
Angular grid pruning method      GridPruning ... 4 (adaptive)
Weight generation scheme         WeightScheme... mBecke (2022)
Basis function cutoff            BFCut       ... 1.0000e-11
Integration weight cutoff        WCut        ... 1.0000e-14
Partially contracted basis set               ... off
Rotationally invariant grid construction     ... off
Angular grids for H and He will be reduced by one unit
Diffuse basis detected: some atoms will have their outermost
                        angular grid increased by 1.
Core-polarized basis detected: some atoms will have their core
                               angular grid increased.



           ************************************************************
           *        Program running with 4 parallel MPI-processes     *
           *              working on a common directory               *
           ************************************************************
------------------------------------------------------------------------------
                             ORCA STARTUP CALCULATIONS
                           -- RI-GTO INTEGRALS CHOSEN --
------------------------------------------------------------------------------
------------------------------------------------------------------------------
                   ___                                                        
                  /   \      - P O W E R E D   B Y -                         
                 /     \                                                     
                 |  |  |   _    _      __       _____    __    __             
                 |  |  |  | |  | |    /  \     |  _  \  |  |  /  |          
                  \  \/   | |  | |   /    \    | | | |  |  | /  /          
                 / \  \   | |__| |  /  /\  \   | |_| |  |  |/  /          
                |  |  |   |  __  | /  /__\  \  |    /   |      \           
                |  |  |   | |  | | |   __   |  |    \   |  |\   \          
                \     /   | |  | | |  |  |  |  | |\  \  |  | \   \       
                 \___/    |_|  |_| |__|  |__|  |_| \__\ |__|  \__/        
                                                                              
                      - O R C A' S   B I G   F R I E N D -                    
                                      &                                       
                       - I N T E G R A L  F E E D E R -                       
                                                                              
 v1 FN, 2020, v2 2021, v3 2022-2024                                           
------------------------------------------------------------------------------




           ************************************************************
           *        Program running with 4 parallel MPI-processes     *
           *              working on a common directory               *
           ************************************************************
------------------------------------------------------------------------------
                             ORCA STARTUP CALCULATIONS
                           -- RI-GTO INTEGRALS CHOSEN --
------------------------------------------------------------------------------
------------------------------------------------------------------------------
                   ___                                                        
                  /   \      - P O W E R E D   B Y -                         
                 /     \                                                     
                 |  |  |   _    _      __       _____    __    __             
                 |  |  |  | |  | |    /  \     |  _  \  |  |  /  |          
                  \  \/   | |  | |   /    \    | | | |  |  | /  /          
                 / \  \   | |__| |  /  /\  \   | |_| |  |  |/  /          
                |  |  |   |  __  | /  /__\  \  |    /   |      \           
                |  |  |   | |  | | |   __   |  |    \   |  |\   \          
                \     /   | |  | | |  |  |  |  | |\  \  |  | \   \       
                 \___/    |_|  |_| |__|  |__|  |_| \__\ |__|  \__/        
                                                                              
                      - O R C A' S   B I G   F R I E N D -                    
                                      &                                       
                       - I N T E G R A L  F E E D E R -                       
                                                                              
 v1 FN, 2020, v2 2021, v3 2022-2024                                           
------------------------------------------------------------------------------




           ************************************************************
           *        Program running with 4 parallel MPI-processes     *
           *              working on a common directory               *
           ************************************************************
------------------------------------------------------------------------------
                             ORCA STARTUP CALCULATIONS
                           -- RI-GTO INTEGRALS CHOSEN --
------------------------------------------------------------------------------
----------------------
SHARK INTEGRAL PACKAGE
----------------------

Number of atoms                             ...      8
Number of basis functions                   ...     97
Number of shells                            ...     45
Maximum angular momentum                    ...      2
Integral batch strategy                     ... SHARK/LIBINT Hybrid
RI-J (if used) integral strategy            ... SPLIT-RIJ (Revised 2003 algorithm where possible)
Printlevel                                  ...      1
Contraction scheme used                     ... SEGMENTED contraction
Prescreening option                         ... SCHWARTZ
   Thresh                                   ... 2.500e-11
   Tcut                                     ... 2.500e-12
   Tpresel                                  ... 2.500e-12 
Coulomb Range Separation                    ... NOT USED
Exchange Range Separation                   ... NOT USED
Multipole approximations                    ... NOT USED
Finite Nucleus Model                        ... NOT USED
CABS basis                                  ... NOT available
Auxiliary Coulomb fitting basis             ... AVAILABLE
   # of basis functions in Aux-J            ...    211
   # of shells in Aux-J                     ...     73
   Maximum angular momentum in Aux-J        ...      4
Auxiliary J/K fitting basis                 ... NOT available
Auxiliary Correlation fitting basis         ... NOT available
Auxiliary 'external' fitting basis          ... NOT available

Checking pre-screening integrals            ... done (  0.0 sec) Dimension = 45
Check shell pair data                       ... done (  0.0 sec)
Shell pair information
Shell pair cut-off parameter TPreSel        ...   2.5e-12
Total number of shell pairs                 ...      1035
Shell pairs after pre-screening             ...      1024
Total number of primitive shell pairs       ...      3736
Primitive shell pairs kept                  ...      3102
          la=0 lb=0:    295 shell pairs
          la=1 lb=0:    380 shell pairs
          la=1 lb=1:    135 shell pairs
          la=2 lb=0:    119 shell pairs
          la=2 lb=1:     80 shell pairs
          la=2 lb=2:     15 shell pairs

Calculating one electron integrals          ... done (  0.0 sec)
------------------------------------------------------------------------------
                   ___                                                        
                  /   \      - P O W E R E D   B Y -                         
                 /     \                                                     
                 |  |  |   _    _      __       _____    __    __             
                 |  |  |  | |  | |    /  \     |  _  \  |  |  /  |          
                  \  \/   | |  | |   /    \    | | | |  |  | /  /          
                 / \  \   | |__| |  /  /\  \   | |_| |  |  |/  /          
                |  |  |   |  __  | /  /__\  \  |    /   |      \           
                |  |  |   | |  | | |   __   |  |    \   |  |\   \          
                \     /   | |  | | |  |  |  |  | |\  \  |  | \   \       
                 \___/    |_|  |_| |__|  |__|  |_| \__\ |__|  \__/        
                                                                              
                      - O R C A' S   B I G   F R I E N D -                    
                                      &                                       
                       - I N T E G R A L  F E E D E R -                       
                                                                              
 v1 FN, 2020, v2 2021, v3 2022-2024                                           
------------------------------------------------------------------------------




           ************************************************************
           *        Program running with 4 parallel MPI-processes     *
           *              working on a common directory               *
           ************************************************************
------------------------------------------------------------------------------
                             ORCA STARTUP CALCULATIONS
                           -- RI-GTO INTEGRALS CHOSEN --
------------------------------------------------------------------------------
----------------------
SHARK INTEGRAL PACKAGE
----------------------

Number of atoms                             ...      8
Number of basis functions                   ...     97
Number of shells                            ...     45
Maximum angular momentum                    ...      2
Integral batch strategy                     ... SHARK/LIBINT Hybrid
RI-J (if used) integral strategy            ... SPLIT-RIJ (Revised 2003 algorithm where possible)
Printlevel                                  ...      1
Contraction scheme used                     ... SEGMENTED contraction
Prescreening option                         ... SCHWARTZ
   Thresh                                   ... 2.500e-11
   Tcut                                     ... 2.500e-12
   Tpresel                                  ... 2.500e-12 
Coulomb Range Separation                    ... NOT USED
Exchange Range Separation                   ... NOT USED
Multipole approximations                    ... NOT USED
Finite Nucleus Model                        ... NOT USED
CABS basis                                  ... NOT available
Auxiliary Coulomb fitting basis             ... AVAILABLE
   # of basis functions in Aux-J            ...    211
   # of shells in Aux-J                     ...     73
   Maximum angular momentum in Aux-J        ...      4
Auxiliary J/K fitting basis                 ... NOT available
Auxiliary Correlation fitting basis         ... NOT available
Auxiliary 'external' fitting basis          ... NOT available

----------------------
SHARK INTEGRAL PACKAGE
----------------------

Number of atoms                             ...      8
Number of basis functions                   ...     97
Number of shells                            ...     45
Maximum angular momentum                    ...      2
Integral batch strategy                     ... SHARK/LIBINT Hybrid
RI-J (if used) integral strategy            ... SPLIT-RIJ (Revised 2003 algorithm where possible)
Printlevel                                  ...      1
Contraction scheme used                     ... SEGMENTED contraction
Prescreening option                         ... SCHWARTZ
   Thresh                                   ... 2.500e-11
   Tcut                                     ... 2.500e-12
   Tpresel                                  ... 2.500e-12 
Coulomb Range Separation                    ... NOT USED
Exchange Range Separation                   ... NOT USED
Multipole approximations                    ... NOT USED
Finite Nucleus Model                        ... NOT USED
CABS basis                                  ... NOT available
Auxiliary Coulomb fitting basis             ... AVAILABLE
   # of basis functions in Aux-J            ...    211
   # of shells in Aux-J                     ...     73
   Maximum angular momentum in Aux-J        ...      4
Auxiliary J/K fitting basis                 ... NOT available
Auxiliary Correlation fitting basis         ... NOT available
Auxiliary 'external' fitting basis          ... NOT available

------------------------------------------------------------------------------
                   ___                                                        
                  /   \      - P O W E R E D   B Y -                         
                 /     \                                                     
                 |  |  |   _    _      __       _____    __    __             
                 |  |  |  | |  | |    /  \     |  _  \  |  |  /  |          
                  \  \/   | |  | |   /    \    | | | |  |  | /  /          
                 / \  \   | |__| |  /  /\  \   | |_| |  |  |/  /          
                |  |  |   |  __  | /  /__\  \  |    /   |      \           
                |  |  |   | |  | | |   __   |  |    \   |  |\   \          
                \     /   | |  | | |  |  |  |  | |\  \  |  | \   \       
                 \___/    |_|  |_| |__|  |__|  |_| \__\ |__|  \__/        
                                                                              
                      - O R C A' S   B I G   F R I E N D -                    
                                      &                                       
                       - I N T E G R A L  F E E D E R -                       
                                                                              
 v1 FN, 2020, v2 2021, v3 2022-2024                                           
------------------------------------------------------------------------------


Calculating RI/J V-Matrix + Cholesky decomp.... done (  0.1 sec)
Calculating Nuclear repulsion               ... done (  0.0 sec) ENN=    181.458895596464 Eh
----------------------
SHARK INTEGRAL PACKAGE
----------------------

Number of atoms                             ...      8
Number of basis functions                   ...     97
Number of shells                            ...     45
Maximum angular momentum                    ...      2
Integral batch strategy                     ... SHARK/LIBINT Hybrid
RI-J (if used) integral strategy            ... SPLIT-RIJ (Revised 2003 algorithm where possible)
Printlevel                                  ...      1
Contraction scheme used                     ... SEGMENTED contraction
Checking pre-screening integrals            ... done (  0.0 sec) Dimension = 45
Checking pre-screening integrals            ... done (  0.0 sec) Dimension = 45
Prescreening option                         ... SCHWARTZ
   Thresh                                   ... 2.500e-11
   Tcut                                     ... 2.500e-12
   Tpresel                                  ... 2.500e-12 
Coulomb Range Separation                    ... NOT USED
Exchange Range Separation                   ... NOT USED
Multipole approximations                    ... NOT USED
Finite Nucleus Model                        ... NOT USED
CABS basis                                  ... NOT available
Auxiliary Coulomb fitting basis             ... AVAILABLE
   # of basis functions in Aux-J            ...    211
   # of shells in Aux-J                     ...     73
   Maximum angular momentum in Aux-J        ...      4
Auxiliary J/K fitting basis                 ... NOT available
Auxiliary Correlation fitting basis         ... NOT available
Auxiliary 'external' fitting basis          ... NOT available

Checking pre-screening integrals            ... done (  0.0 sec) Dimension = 45

Diagonalization of the overlap matrix:
Check shell pair data                       ... done (  0.0 sec)
Shell pair information
Shell pair cut-off parameter TPreSel        ...   2.5e-12
Total number of shell pairs                 ...      1035
Shell pairs after pre-screening             ...      1024
Total number of primitive shell pairs       ...      3736
Primitive shell pairs kept                  ...      3102
          la=0 lb=0:    295 shell pairs
          la=1 lb=0:    380 shell pairs
          la=1 lb=1:    135 shell pairs
          la=2 lb=0:    119 shell pairs
          la=2 lb=1:     80 shell pairs
          la=2 lb=2:     15 shell pairs

Check shell pair data                       ... done (  0.0 sec)
Shell pair information
Shell pair cut-off parameter TPreSel        ...   2.5e-12
Total number of shell pairs                 ...      1035
Shell pairs after pre-screening             ...      1024
Total number of primitive shell pairs       ...      3736
Primitive shell pairs kept                  ...      3102
          la=0 lb=0:    295 shell pairs
          la=1 lb=0:    380 shell pairs
          la=1 lb=1:    135 shell pairs
          la=2 lb=0:    119 shell pairs
          la=2 lb=1:     80 shell pairs
          la=2 lb=2:     15 shell pairs

Smallest eigenvalue                        ... 3.442e-04
Time for diagonalization                   ...    0.001 sec
Threshold for overlap eigenvalues          ... 1.000e-07
Number of eigenvalues below threshold      ... 0
Calculating one electron integrals          ... done (  0.0 sec)
Calculating one electron integrals          ... done (  0.0 sec)
Check shell pair data                       ... done (  0.0 sec)
Shell pair information
Shell pair cut-off parameter TPreSel        ...   2.5e-12
Total number of shell pairs                 ...      1035
Shell pairs after pre-screening             ...      1024
Total number of primitive shell pairs       ...      3736
Primitive shell pairs kept                  ...      3102
          la=0 lb=0:    295 shell pairs
          la=1 lb=0:    380 shell pairs
          la=1 lb=1:    135 shell pairs
          la=2 lb=0:    119 shell pairs
          la=2 lb=1:     80 shell pairs
          la=2 lb=2:     15 shell pairs

Calculating one electron integrals          ... done (  0.0 sec)
Calculating RI/J V-Matrix + Cholesky decomp.... [file orca_tools/qcmat1.cpp, line 125, Process 0]: Failed to read data of OrcaObject (read 1021 items of 44521)!

Time for construction of square roots      ...    0.025 sec
Total time needed                          ...    0.046 sec

-------------------
DFT GRID GENERATION
-------------------

General Integration Accuracy     IntAcc      ... 4.388
Radial Grid Type                 RadialGrid  ... OptM3 with GC (2021)
Angular Grid (max. ang.)         AngularGrid ... 4 (Lebedev-302)
Angular grid pruning method      GridPruning ... 4 (adaptive)
Weight generation scheme         WeightScheme... mBecke (2022)
Basis function cutoff            BFCut       ... 1.0000e-11
Integration weight cutoff        WCut        ... 1.0000e-14
Partially contracted basis set               ... off
Rotationally invariant grid construction     ... off
Angular grids for H and He will be reduced by one unit
Diffuse basis detected: some atoms will have their outermost
                        angular grid increased by 1.
Core-polarized basis detected: some atoms will have their core
                               angular grid increased.

Calculating RI/J V-Matrix + Cholesky decomp.... done (  0.0 sec)
Calculating Nuclear repulsion               ... done (  0.0 sec) ENN=    181.458895596464 Eh

Diagonalization of the overlap matrix:
Smallest eigenvalue                        ... 3.442e-04
Time for diagonalization                   ...    0.001 sec
Threshold for overlap eigenvalues          ... 1.000e-07
Number of eigenvalues below threshold      ... 0
Total number of grid points                  ...    40274
Total number of batches                      ...      633
Average number of points per batch           ...       63
Average number of grid points per atom       ...     5034
Time for construction of square roots      ...    0.023 sec
Total time needed                          ...    0.025 sec

-------------------
DFT GRID GENERATION
-------------------

General Integration Accuracy     IntAcc      ... 4.388
Radial Grid Type                 RadialGrid  ... OptM3 with GC (2021)
Angular Grid (max. ang.)         AngularGrid ... 4 (Lebedev-302)
Angular grid pruning method      GridPruning ... 4 (adaptive)
Weight generation scheme         WeightScheme... mBecke (2022)
Basis function cutoff            BFCut       ... 1.0000e-11
Integration weight cutoff        WCut        ... 1.0000e-14
Partially contracted basis set               ... off
Rotationally invariant grid construction     ... off
Angular grids for H and He will be reduced by one unit
Diffuse basis detected: some atoms will have their outermost
                        angular grid increased by 1.
Core-polarized basis detected: some atoms will have their core
                               angular grid increased.

Calculating RI/J V-Matrix + Cholesky decomp.... done (  0.1 sec)
Calculating Nuclear repulsion               ... done (  0.0 sec) ENN=    181.458895596464 Eh

Diagonalization of the overlap matrix:
Initializing property integral containers    ... done (  0.1 sec)

SHARK setup successfully completed in   0.4 seconds
Smallest eigenvalue                        ... 3.442e-04
Time for diagonalization                   ...    0.012 sec
Threshold for overlap eigenvalues          ... 1.000e-07
Number of eigenvalues below threshold      ... 0

Maximum memory used throughout the entire STARTUP-calculation: 15.0 MB
Time for construction of square roots      ...    0.044 sec
Total time needed                          ...    0.132 sec

-------------------
DFT GRID GENERATION
-------------------

General Integration Accuracy     IntAcc      ... 4.388
Radial Grid Type                 RadialGrid  ... OptM3 with GC (2021)
Angular Grid (max. ang.)         AngularGrid ... 4 (Lebedev-302)
Angular grid pruning method      GridPruning ... 4 (adaptive)
Weight generation scheme         WeightScheme... mBecke (2022)
Basis function cutoff            BFCut       ... 1.0000e-11
Integration weight cutoff        WCut        ... 1.0000e-14
Partially contracted basis set               ... off
Rotationally invariant grid construction     ... off
Angular grids for H and He will be reduced by one unit
Diffuse basis detected: some atoms will have their outermost
                        angular grid increased by 1.
Core-polarized basis detected: some atoms will have their core
                               angular grid increased.

Total number of grid points                  ...    40274
Total number of batches                      ...      633
Average number of points per batch           ...       63
Average number of grid points per atom       ...     5034
Initializing property integral containers    ... done (  0.0 sec)

SHARK setup successfully completed in   0.5 seconds

Maximum memory used throughout the entire STARTUP-calculation: 15.0 MB
Total number of grid points                  ...    40274
Total number of batches                      ...      633
Average number of points per batch           ...       63
Average number of grid points per atom       ...     5034
Initializing property integral containers    ... done (  0.0 sec)

SHARK setup successfully completed in   0.6 seconds

Maximum memory used throughout the entire STARTUP-calculation: 15.0 MB


           ************************************************************
           *        Program running with 4 parallel MPI-processes     *
           *              working on a common directory               *
           ************************************************************


           ************************************************************
           *        Program running with 4 parallel MPI-processes     *
           *              working on a common directory               *
           ************************************************************
-------------------------------------------------------------------------------
                                 ORCA GUESS
                   Start orbitals & Density for SCF / CASSCF
-------------------------------------------------------------------------------

------------
SCF SETTINGS
------------
Hamiltonian:
 Density Functional     Method          .... DFT(GTOs)
 Exchange Functional    Exchange        .... PBE
   PBE kappa parameter   XKappa         ....  0.804000
   PBE mue parameter    XMuePBE         ....  0.219520
 Correlation Functional Correlation     .... PBE
   PBE beta parameter  CBetaPBE         ....  0.066725
 LDA part of GGA corr.  LDAOpt          .... PW91-LDA
 Gradients option       PostSCFGGA      .... off
   NL short-range parameter             ....  6.400000
 RI-approximation to the Coulomb term is turned on
   Number of AuxJ basis functions       .... 211


General Settings:
 Integral files         IntName         .... job
 Hartree-Fock type      HFTyp           .... RHF
 Total Charge           Charge          ....    0
 Multiplicity           Mult            ....    1
 Number of Electrons    NEL             ....   52
 Basis Dimension        Dim             ....   97
 Nuclear Repulsion      ENuc            ....    181.4588955965 Eh

Convergence Acceleration:
 AO-DIIS                CNVDIIS         .... on
   Start iteration      DIISMaxIt       ....    12
   Startup error        DIISStart       ....  0.200000
   # of expansion vecs  DIISMaxEq       ....     5
   Bias factor          DIISBfac        ....   1.050
   Max. coefficient     DIISMaxC        ....  10.000
 MO-DIIS                CNVKDIIS        .... off
 Trust-Rad. Augm. Hess. CNVTRAH         .... auto
   Auto Start mean grad. ratio tolernc. ....  1.125000
   Auto Start start iteration           ....    50
   Auto Start num. interpolation iter.  ....    10
   Max. Number of Micro iterations      ....    24
   Max. Number of Macro iterations      .... Maxiter - #DIIS iter
   Number of Davidson start vectors     ....     2
   Converg. threshold    (grad. norm)   ....   1.000e-05
   Grad. Scal. Fac. for Micro threshold ....   0.100
   Minimum threshold for Micro iter.    ....   1.000e-02
   NR start threshold (gradient norm)   ....   1.000e-04
   Initial trust radius                 ....   0.400
   Minimum AH scaling param. (alpha)    ....   1.000
   Maximum AH scaling param. (alpha)    .... 1000.000
   Quad. conv. algorithm                .... NR
   White noise on init. David. guess    .... on
   Maximum white noise                  ....   0.010
   Pseudo random numbers                .... off
   Inactive MOs                         .... canonical
   Orbital update algorithm             .... Taylor
   Preconditioner                       .... Diag
   Full preconditioner red. dimension   ....   250
 SOSCF                  CNVSOSCF        .... on
   Start iteration      SOSCFMaxIt      ....   150
   Startup grad/error   SOSCFStart      ....  0.003300
   Hessian update       SOSCFHessUp     .... L-BFGS
 Level Shifting         CNVShift        .... on
   Level shift para.    LevelShift      ....    0.2500
   Turn off err/grad.   ShiftErr        ....    0.0010
 Zerner damping         CNVZerner       .... off
 Static damping         CNVDamp         .... on
   Fraction old density DampFac         ....    0.7000
   Max. Damping (<1)    DampMax         ....    0.9800
   Min. Damping (>=0)   DampMin         ....    0.0000
   Turn off err/grad.   DampErr         ....    0.1000

SCF Procedure:
 Maximum # iterations   MaxIter         ....   125
 SCF integral mode      SCFMode         .... Direct
   Integral package                     .... SHARK and LIBINT hybrid scheme
 Reset frequency        DirectResetFreq ....    20
 Integral Threshold     Thresh          ....  2.500e-11 Eh
 Primitive CutOff       TCut            ....  2.500e-12 Eh

Convergence Tolerance:
 Convergence Check Mode ConvCheckMode   .... Total+1el-Energy
 Convergence forced     ConvForced      .... 0
 Energy Change          TolE            ....  1.000e-08 Eh
 1-El. energy change                    ....  1.000e-05 Eh
 Orbital Gradient       TolG            ....  1.000e-05
 Orbital Rotation angle TolX            ....  1.000e-05
 DIIS Error             TolErr          ....  5.000e-07

------------------------------
INITIAL GUESS: MODEL POTENTIAL
------------------------------
Loading Hartree-Fock densities                     ... done
Calculating cut-offs                               ... done
Initializing the effective Hamiltonian             ... done
Setting up the integral package (SHARK)            ... done
-------------------------------------------------------------------------------
                                 ORCA GUESS
                   Start orbitals & Density for SCF / CASSCF
-------------------------------------------------------------------------------

------------
SCF SETTINGS
------------
Hamiltonian:
 Density Functional     Method          .... DFT(GTOs)
 Exchange Functional    Exchange        .... PBE
   PBE kappa parameter   XKappa         ....  0.804000
   PBE mue parameter    XMuePBE         ....  0.219520
 Correlation Functional Correlation     .... PBE
   PBE beta parameter  CBetaPBE         ....  0.066725
 LDA part of GGA corr.  LDAOpt          .... PW91-LDA
 Gradients option       PostSCFGGA      .... off
   NL short-range parameter             ....  6.400000
 RI-approximation to the Coulomb term is turned on
   Number of AuxJ basis functions       .... 211


General Settings:
 Integral files         IntName         .... job
 Hartree-Fock type      HFTyp           .... RHF
 Total Charge           Charge          ....    0
 Multiplicity           Mult            ....    1
 Number of Electrons    NEL             ....   52
 Basis Dimension        Dim             ....   97
 Nuclear Repulsion      ENuc            ....    181.4588955965 Eh

Convergence Acceleration:
 AO-DIIS                CNVDIIS         .... on
   Start iteration      DIISMaxIt       ....    12
   Startup error        DIISStart       ....  0.200000
   # of expansion vecs  DIISMaxEq       ....     5
   Bias factor          DIISBfac        ....   1.050
   Max. coefficient     DIISMaxC        ....  10.000
 MO-DIIS                CNVKDIIS        .... off
 Trust-Rad. Augm. Hess. CNVTRAH         .... auto
   Auto Start mean grad. ratio tolernc. ....  1.125000
   Auto Start start iteration           ....    50
   Auto Start num. interpolation iter.  ....    10
   Max. Number of Micro iterations      ....    24
   Max. Number of Macro iterations      .... Maxiter - #DIIS iter
   Number of Davidson start vectors     ....     2
   Converg. threshold    (grad. norm)   ....   1.000e-05
   Grad. Scal. Fac. for Micro threshold ....   0.100
   Minimum threshold for Micro iter.    ....   1.000e-02
   NR start threshold (gradient norm)   ....   1.000e-04
   Initial trust radius                 ....   0.400
   Minimum AH scaling param. (alpha)    ....   1.000
   Maximum AH scaling param. (alpha)    .... 1000.000
   Quad. conv. algorithm                .... NR
   White noise on init. David. guess    .... on
   Maximum white noise                  ....   0.010
   Pseudo random numbers                .... off
   Inactive MOs                         .... canonical
   Orbital update algorithm             .... Taylor
   Preconditioner                       .... Diag
   Full preconditioner red. dimension   ....   250
 SOSCF                  CNVSOSCF        .... on
   Start iteration      SOSCFMaxIt      ....   150
   Startup grad/error   SOSCFStart      ....  0.003300
   Hessian update       SOSCFHessUp     .... L-BFGS
 Level Shifting         CNVShift        .... on
   Level shift para.    LevelShift      ....    0.2500
   Turn off err/grad.   ShiftErr        ....    0.0010
 Zerner damping         CNVZerner       .... off
 Static damping         CNVDamp         .... on
   Fraction old density DampFac         ....    0.7000
   Max. Damping (<1)    DampMax         ....    0.9800
   Min. Damping (>=0)   DampMin         ....    0.0000
   Turn off err/grad.   DampErr         ....    0.1000

SCF Procedure:
 Maximum # iterations   MaxIter         ....   125
 SCF integral mode      SCFMode         .... Direct
   Integral package                     .... SHARK and LIBINT hybrid scheme
 Reset frequency        DirectResetFreq ....    20
 Integral Threshold     Thresh          ....  2.500e-11 Eh
 Primitive CutOff       TCut            ....  2.500e-12 Eh

Convergence Tolerance:
 Convergence Check Mode ConvCheckMode   .... Total+1el-Energy
 Convergence forced     ConvForced      .... 0
 Energy Change          TolE            ....  1.000e-08 Eh
 1-El. energy change                    ....  1.000e-05 Eh
 Orbital Gradient       TolG            ....  1.000e-05
 Orbital Rotation angle TolX            ....  1.000e-05
 DIIS Error             TolErr          ....  5.000e-07

------------------------------
INITIAL GUESS: MODEL POTENTIAL
------------------------------
Loading Hartree-Fock densities                     ... done
Calculating cut-offs                               ... done
Initializing the effective Hamiltonian             ... done
Setting up the integral package (SHARK)            ... done
Starting the Coulomb interaction                   ... done (   0.0 sec)
Starting the Coulomb interaction                   ... done (   0.0 sec)
Making the grid                                    ... done (   0.1 sec)
Mapping shells                                     ... done
Starting the XC term evaluation                    ... done (   0.0 sec)
  promolecular density results
     # of electrons  =     51.998275091
     EX              =   -101.041436162
     EC              =     -2.268801661
     EX+EC           =   -103.310237823
Transforming the Hamiltonian                       ... done (   0.0 sec)
Diagonalizing the Hamiltonian                      ... done (   0.0 sec)
Back transforming the eigenvectors                 ... done (   0.0 sec)


           ************************************************************
           *        Program running with 4 parallel MPI-processes     *
           *              working on a common directory               *
           ************************************************************
Now organizing SCF variables                       ... done
                      ------------------
                      INITIAL GUESS DONE (   0.1 sec)
                      ------------------


WARNING!!!!!!!
Your GBWFile is either corrupt or from a different ORCA version!
Please be VERY careful with your calculation results!!!

Data_size, sizeof( TOrcaInfo ): 0, 871248
[file orca_tools/Tool-ORCAData/qcinpdat.cpp, line 2838, Process 1]: Error: GBW file contains no geometry information job.gbw

[file orca_tools/Tool-ORCAData/qcinpdat.cpp, line 2838, Process 0]: Error: GBW file contains no geometry information job.gbw

[file orca_tools/Tool-ORCAData/qcinpdat.cpp, line 2838, Process 2]: Error: GBW file contains no geometry information job.gbw

[file orca_tools/Tool-ORCAData/qcinpdat.cpp, line 2838, Process 3]: Error: GBW file contains no geometry information job.gbw

             **** ENERGY FILE WAS UPDATED (job.en.tmp) ****
Finished Guess after   0.5 sec
Maximum memory used throughout the entire GUESS-calculation: 9.1 MB
Making the grid                                    ... 
ORCA finished by error termination in GUESS
Calling Command: mpirun -np 4  /mnt/home/soft/orca/programs/x86_64/orca_6_0_0_avx2/orca_guess_mpi job.gbw job 
[file orca_tools/qcmsg.cpp, line 394]: 
  .... aborting the run


ORCA finished by error termination in Startup
Calling Command: mpirun -np 4  /mnt/home/soft/orca/programs/x86_64/orca_6_0_0_avx2/orca_startup_mpi job.int.tmp job 
[file orca_tools/qcmsg.cpp, line 394]: 
  .... aborting the run


ORCA finished by error termination in GUESS
Calling Command: mpirun -np 4  /mnt/home/soft/orca/programs/x86_64/orca_6_0_0_avx2/orca_guess_mpi job.gbw job 
[file orca_tools/qcmsg.cpp, line 394]: 
  .... aborting the run


ORCA finished by error termination in Startup
Calling Command: mpirun -np 4  /mnt/home/soft/orca/programs/x86_64/orca_6_0_0_avx2/orca_startup_mpi job.int.tmp job 
[file orca_tools/qcmsg.cpp, line 394]: 
  .... aborting the run



           ************************************************************
           *        Program running with 4 parallel MPI-processes     *
           *              working on a common directory               *
           ************************************************************

-------------------------------------------------------------------------------------------
                                      ORCA LEAN-SCF
                              memory conserving SCF solver
-------------------------------------------------------------------------------------------

--------------------
CPCM SOLVATION MODEL
--------------------
CPCM parameters:
  Epsilon                                         ...      35.6880
  Refrac                                          ...       1.3442
  Rsolv                                           ...       1.3000
  Surface type                                    ... GAUSSIAN VDW
  Discretization scheme                           ... Constant charge density
    Threshold for H atoms                         ...       5.0000 (charges/Ang^2)
    Threshold for non-H atoms                     ...       5.0000 (charges/Ang^2)
  Epsilon function type                           ...         CPCM
Solvent:                                          ... ACETONITRILE
SMD-CDS solvent descriptors:
  Soln                                            ...       1.3442
  Soln25                                          ...       1.3416
  Sola                                            ...       0.0700
  Solb                                            ...       0.3200
  Solg                                            ...      41.2500
  Solc                                            ...       0.0000
  Solh                                            ...       0.0000
Radii:
  Scheme                                          ... Element-dependent radii
  Radius for C  used is    3.4960 Bohr (=   1.8500 Ang.)
  Radius for H  used is    2.2677 Bohr (=   1.2000 Ang.)
  Radius for Br used is    5.7826 Bohr (=   3.0600 Ang.)
Calculating surface                               ...        done! (  0.0s)
Cavity surface points                             ...          896
Cavity Volume                                     ...     919.6488
Cavity Surface-area                               ...     477.1925
Calculating surface distance matrix               ...        done! (  0.0s)
Performing Cholesky decomposition & store         ...        done! (  0.0s)
Overall time for CPCM initialization              ...                 0.0s

----------------------------------------D-I-I-S--------------------------------------------
Iteration    Energy (Eh)           Delta-E    RMSDP     MaxDP     DIISErr   Damp  Time(sec)
-------------------------------------------------------------------------------------------
               ***  Starting incremental Fock matrix formation  ***
    1    -2652.3609515484536132     0.00e+00  3.25e-03  7.40e-02  1.44e-01  0.700   0.1
    2    -2652.3980615990940350    -3.71e-02  2.25e-03  4.16e-02  6.57e-02  0.700   0.1
                               ***Turning on AO-DIIS***
    3    -2652.4102048638783344    -1.21e-02  9.96e-04  1.04e-02  1.56e-02  0.700   0.1
    4    -2652.4174812077899333    -7.28e-03  1.81e-03  2.12e-02  9.01e-03  0.000   0.1
    5    -2652.4342897116157474    -1.68e-02  3.71e-04  4.11e-03  6.93e-03  0.000   0.1
                              *** Initializing SOSCF ***
---------------------------------------S-O-S-C-F--------------------------------------
Iteration    Energy (Eh)           Delta-E    RMSDP     MaxDP     MaxGrad    Time(sec)
--------------------------------------------------------------------------------------
    6    -2652.4344971821014951    -2.07e-04  1.49e-04  1.81e-03  2.11e-03     0.1
               *** Restarting incremental Fock matrix formation ***
    7    -2652.4345197359311896    -2.26e-05  1.47e-04  2.04e-03  2.41e-04     0.1
    8    -2652.4345192788455279     4.57e-07  4.15e-05  9.04e-04  2.89e-04     0.1
    9    -2652.4345223090576837    -3.03e-06  2.32e-05  3.29e-04  6.94e-05     0.1
   10    -2652.4345223378199989    -2.88e-08  8.08e-06  1.14e-04  6.38e-05     0.1
   11    -2652.4345224200587836    -8.22e-08  5.52e-06  7.71e-05  1.55e-05     0.1
   12    -2652.4345224224093727    -2.35e-09  2.62e-06  2.82e-05  1.68e-05     0.1
                 **** Energy Check signals convergence ****

               *****************************************************
               *                     SUCCESS                       *
               *           SCF CONVERGED AFTER  12 CYCLES          *
               *****************************************************


SMD CDS free energy correction energy :                -1.71652     Kcal/mol
Total Energy after SMD CDS correction =             -2652.437257868 Eh
             **** ENERGY FILE WAS UPDATED (job.en.tmp) ****

----------------
TOTAL SCF ENERGY
----------------

Total Energy       :      -2652.43725786801679 Eh          -72176.48717 eV

Components:
Nuclear Repulsion  :        181.45889559646423 Eh            4937.74758 eV
Electronic Energy  :      -2833.89009223946050 Eh          -77114.06981 eV
One Electron Energy:      -4048.04481692490390 Eh         -110152.89953 eV
Two Electron Energy:       1214.15472468544340 Eh           33038.82972 eV
CPCM Dielectric    :         -0.00332577941298 Eh              -0.09050 eV
SMD CDS (Gcds)     :         -0.00273544560720 Eh              -0.07444 eV

Virial components:
Potential Energy   :      -5301.54399488533454 Eh         -144262.34626 eV
Kinetic Energy     :       2649.10673701731821 Eh           72085.85909 eV
Virial Ratio       :          2.00125722410659

DFT components:
N(Alpha)           :       26.000015177222 electrons
N(Beta)            :       26.000015177222 electrons
N(Total)           :       52.000030354444 electrons
E(X)               :     -101.299948999402 Eh       
E(C)               :       -2.272414112992 Eh       
E(XC)              :     -103.572363112393 Eh       

CPCM Solvation Model Properties:
Surface-charge          :         -0.01768082124962
Corrected charge        :         -0.00000000000000
Outlying charge corr.   :          0.00002483664868 Eh               0.00068 eV
Free-energy (cav+disp)  :         -0.00273544560720 Eh              -0.07444 eV

---------------
SCF CONVERGENCE
---------------

  Last Energy change         ...    2.3506e-09  Tolerance :   1.0000e-08
  Last MAX-Density change    ...    2.8237e-05  Tolerance :   1.0000e-07
  Last RMS-Density change    ...    2.6236e-06  Tolerance :   5.0000e-09
  Last DIIS Error            ...    2.1138e-03  Tolerance :   5.0000e-07
  Last Orbital Gradient      ...    1.6834e-05  Tolerance :   1.0000e-05
  Last Orbital Rotation      ...    1.6880e-05  Tolerance :   1.0000e-05


----------------
ORBITAL ENERGIES
----------------

  NO   OCC          E(Eh)            E(eV) 
   0   2.0000    -480.925642    -13086.6520 
   1   2.0000     -61.769291     -1680.8279 
   2   2.0000     -55.699175     -1515.6516 
   3   2.0000     -55.697058     -1515.5940 
   4   2.0000     -55.696921     -1515.5903 
   5   2.0000      -9.935551      -270.3601 
   6   2.0000      -9.896859      -269.3072 
   7   2.0000      -8.397281      -228.5016 
   8   2.0000      -6.278084      -170.8354 
   9   2.0000      -6.265585      -170.4952 
  10   2.0000      -6.265301      -170.4875 
  11   2.0000      -2.480971       -67.5107 
  12   2.0000      -2.476888       -67.3995 
  13   2.0000      -2.476710       -67.3947 
  14   2.0000      -2.467060       -67.1321 
  15   2.0000      -2.467036       -67.1315 
  16   2.0000      -0.814538       -22.1647 
  17   2.0000      -0.645989       -17.5782 
  18   2.0000      -0.533335       -14.5128 
  19   2.0000      -0.429920       -11.6987 
  20   2.0000      -0.404588       -11.0094 
  21   2.0000      -0.377229       -10.2649 
  22   2.0000      -0.329022        -8.9531 
  23   2.0000      -0.313420        -8.5286 
  24   2.0000      -0.231754        -6.3063 
  25   2.0000      -0.213802        -5.8178 
  26   0.0000      -0.008423        -0.2292 
  27   0.0000       0.019160         0.5214 
  28   0.0000       0.024142         0.6569 
  29   0.0000       0.035263         0.9596 
  30   0.0000       0.046804         1.2736 
  31   0.0000       0.071319         1.9407 
  32   0.0000       0.082605         2.2478 
  33   0.0000       0.086119         2.3434 
  34   0.0000       0.101991         2.7753 
  35   0.0000       0.103799         2.8245 
  36   0.0000       0.109442         2.9781 
*Only the first 10 virtual orbitals were printed.

                    ********************************
                    * MULLIKEN POPULATION ANALYSIS *
                    ********************************

-----------------------
MULLIKEN ATOMIC CHARGES
-----------------------
   0 C :   -0.223844
   1 H :    0.119369
   2 H :    0.122550
   3 C :   -0.367270
   4 H :    0.130769
   5 Br:   -0.056241
   6 H :    0.152218
   7 H :    0.122449
Sum of atomic charges:   -0.0000000

--------------------------------
MULLIKEN REDUCED ORBITAL CHARGES
--------------------------------
  0 C s       :     3.097720  s :     3.097720
      pz      :     1.034347  p :     3.101145
      px      :     0.955564
      py      :     1.111233
      dz2     :     0.006683  d :     0.024980
      dxz     :     0.004956
      dyz     :     0.002307
      dx2y2   :     0.007162
      dxy     :     0.003872

  1 H s       :     0.857987  s :     0.857987
      pz      :     0.004957  p :     0.022644
      px      :     0.004602
      py      :     0.013085

  2 H s       :     0.854499  s :     0.854499
      pz      :     0.006198  p :     0.022951
      px      :     0.010708
      py      :     0.006045

  3 C s       :     3.250337  s :     3.250337
      pz      :     1.141927  p :     3.066430
      px      :     1.038290
      py      :     0.886214
      dz2     :     0.011198  d :     0.050503
      dxz     :     0.005678
      dyz     :     0.008612
      dx2y2   :     0.014759
      dxy     :     0.010255

  4 H s       :     0.843366  s :     0.843366
      pz      :     0.014534  p :     0.025866
      px      :     0.004737
      py      :     0.006595

  5 Brs       :     7.915012  s :     7.915012
      pz      :     5.963230  p :    17.046970
      px      :     5.955442
      py      :     5.128298
      dz2     :     2.009477  d :    10.094258
      dxz     :     2.000800
      dyz     :     2.029836
      dx2y2   :     2.022827
      dxy     :     2.031319

  6 H s       :     0.829878  s :     0.829878
      pz      :     0.004433  p :     0.017904
      px      :     0.008264
      py      :     0.005207

  7 H s       :     0.854819  s :     0.854819
      pz      :     0.012958  p :     0.022732
      px      :     0.004378
      py      :     0.005396



                     *******************************
                     * LOEWDIN POPULATION ANALYSIS *
                     *******************************

----------------------
LOEWDIN ATOMIC CHARGES
----------------------
   0 C :   -0.266734
   1 H :    0.101359
   2 H :    0.101315
   3 C :   -0.401864
   4 H :    0.073987
   5 Br:    0.165557
   6 H :    0.124883
   7 H :    0.101497

-------------------------------
LOEWDIN REDUCED ORBITAL CHARGES
-------------------------------
  0 C s       :     2.895187  s :     2.895187
      pz      :     1.099336  p :     3.302527
      px      :     1.078181
      py      :     1.125011
      dz2     :     0.018413  d :     0.069020
      dxz     :     0.014225
      dyz     :     0.005805
      dx2y2   :     0.019932
      dxy     :     0.010645

  1 H s       :     0.833016  s :     0.833016
      pz      :     0.011894  p :     0.065625
      px      :     0.011689
      py      :     0.042042

  2 H s       :     0.831828  s :     0.831828
      pz      :     0.016822  p :     0.066857
      px      :     0.033965
      py      :     0.016069

  3 C s       :     2.919948  s :     2.919948
      pz      :     1.135484  p :     3.358514
      px      :     1.106299
      py      :     1.116731
      dz2     :     0.027923  d :     0.123402
      dxz     :     0.015009
      dyz     :     0.020125
      dx2y2   :     0.036103
      dxy     :     0.024242

  4 H s       :     0.841506  s :     0.841506
      pz      :     0.048032  p :     0.084507
      px      :     0.016128
      py      :     0.020347

  5 Brs       :     7.624722  s :     7.624722
      pz      :     5.917712  p :    17.071724
      px      :     5.899935
      py      :     5.254077
      dz2     :     2.015910  d :    10.137996
      dxz     :     2.000756
      dyz     :     2.038651
      dx2y2   :     2.039701
      dxy     :     2.042977

  6 H s       :     0.826186  s :     0.826186
      pz      :     0.010723  p :     0.048931
      px      :     0.025394
      py      :     0.012814

  7 H s       :     0.832173  s :     0.832173
      pz      :     0.041153  p :     0.066330
      px      :     0.011311
      py      :     0.013866



                      *****************************
                      * MAYER POPULATION ANALYSIS *
                      *****************************

  NA   - Mulliken gross atomic population
  ZA   - Total nuclear charge
  QA   - Mulliken gross atomic charge
  VA   - Mayer's total valence
  BVA  - Mayer's bonded valence
  FA   - Mayer's free valence

  ATOM       NA         ZA         QA         VA         BVA        FA
  0 C      6.2238     6.0000    -0.2238     3.9299     3.9299    -0.0000
  1 H      0.8806     1.0000     0.1194     0.9817     0.9817    -0.0000
  2 H      0.8775     1.0000     0.1225     0.9830     0.9830     0.0000
  3 C      6.3673     6.0000    -0.3673     3.9839     3.9839     0.0000
  4 H      0.8692     1.0000     0.1308     0.9454     0.9454     0.0000
  5 Br    35.0562    35.0000    -0.0562     0.9183     0.9183     0.0000
  6 H      0.8478     1.0000     0.1522     0.9408     0.9408     0.0000
  7 H      0.8776     1.0000     0.1224     0.9813     0.9813    -0.0000

  Mayer bond orders larger than 0.100000
B(  0-C ,  1-H ) :   0.9562 B(  0-C ,  2-H ) :   0.9543 B(  0-C ,  3-C ) :   1.0770 
B(  0-C ,  7-H ) :   0.9425 B(  3-C ,  4-H ) :   0.9311 B(  3-C ,  5-Br) :   0.9352 
B(  3-C ,  6-H ) :   0.9885 

-------
TIMINGS
-------

Total SCF time: 0 days 0 hours 0 min 1 sec 

Total time                  ....       1.883 sec
Sum of individual times     ....       1.859 sec  ( 98.7%)

SCF preparation             ....       0.371 sec  ( 19.7%)
Fock matrix formation       ....       1.343 sec  ( 71.3%)
  Startup                   ....       0.010 sec  (  0.8% of F)
  Split-RI-J                ....       0.225 sec  ( 16.7% of F)
  XC integration            ....       0.629 sec  ( 46.8% of F)
    XC Preparation          ....       0.000 sec  (  0.0% of XC)
    Basis function eval.    ....       0.221 sec  ( 35.0% of XC)
    Density eval.           ....       0.112 sec  ( 17.8% of XC)
    XC-Functional eval.     ....       0.052 sec  (  8.3% of XC)
    XC-Potential eval.      ....       0.131 sec  ( 20.9% of XC)
  CPCM terms                ....       0.434 sec  ( 32.3% of F)
Diagonalization             ....       0.000 sec  (  0.0%)
Density matrix formation    ....       0.022 sec  (  1.2%)
Total Energy calculation    ....       0.012 sec  (  0.6%)
Population analysis         ....       0.007 sec  (  0.4%)
Orbital Transformation      ....       0.012 sec  (  0.6%)
Orbital Orthonormalization  ....       0.000 sec  (  0.0%)
DIIS solution               ....       0.061 sec  (  3.2%)
SOSCF solution              ....       0.032 sec  (  1.7%)
Finished LeanSCF after   1.9 sec

Maximum memory used throughout the entire LEANSCF-calculation: 9.2 MB


           ************************************************************
           *        Program running with 4 parallel MPI-processes     *
           *              working on a common directory               *
           ************************************************************

------------------------------------------------------------------------------
                         ORCA PROPERTY INTEGRAL CALCULATIONS
------------------------------------------------------------------------------

GBWName                                   ... job.gbw
Number of atoms                           ...      8
Number of basis functions                 ...     97
Max core memory                           ...   3000 MB

Dipole integrals                          ... YES
Quadrupole integrals                      ...  NO
Linear momentum integrals                 ...  NO
Angular momentum integrals                ...  NO
Higher moments length integrals           ...  NO
Higher moments velocity integrals         ...  NO
Kinetic energy integrals                  ...  NO
GIAO right hand sides                     ...  NO
GIAO dipole derivative integrals          ...  NO
SOC integrals                             ...  NO
EPR diamagnetic integrals (GIAO)          ...  NO
EPR gauge integrals                       ...  NO
Field gradient integrals                  ...  NO (   0 nuclei)
Spin-dipole/Fermi contact integrals       ...  NO (   0 nuclei)
Contact density integrals                 ...  NO (   0 nuclei)
Nucleus-orbit integrals                   ...  NO (   0 nuclei)
Geometric perturbations                   ...  NO (   8 nuclei)

Choice of electric origin   ... Center of mass
Position of electric origin ... ( -8.2384, -3.3510, -1.5592) 
Choice of magnetic origin   ... GIAO
Position of magnetic origin ... (  0.0000,  0.0000,  0.0000) 

Calculating integrals                     ... Electric Dipole (Length)     done (  0.0 sec)

Property integrals calculated in   0.0 sec

Maximum memory used throughout the entire PROPINT-calculation: 7.1 MB

-------------------------   --------------------
FINAL SINGLE POINT ENERGY     -2652.437257868017
-------------------------   --------------------



           ************************************************************
           *        Program running with 4 parallel MPI-processes     *
           *              working on a common directory               *
           ************************************************************
------------------------------------------------------------------------------
                         ORCA SCF GRADIENT CALCULATION
------------------------------------------------------------------------------

Nuc. rep. gradient        (SHARK) ... done (  0.0 sec)
HCore & Overlap gradient  (SHARK) ... done (  0.0 sec)
Split-RIJ-J gradient      (SHARK) ... done (  0.2 sec)
XC gradient                       ... done (  0.3 sec)
CPCM gradient                     ... done (  0.1 sec)
SMD gradient                      ... done (  0.0 sec)

------------------
CARTESIAN GRADIENT
------------------

   1   C   :   -0.002730122   -0.027360329   -0.002655264
   2   H   :   -0.005131048   -0.000739967    0.002911866
   3   H   :   -0.001538210    0.001146197   -0.001872954
   4   C   :    0.059343169   -0.155547473    0.059162159
   5   H   :   -0.002460257   -0.033624915   -0.040329266
   6   Br  :    0.009791564    0.239073410    0.012211800
   7   H   :   -0.058080939   -0.023419442   -0.029871458
   8   H   :    0.000805843    0.000472519    0.000443118

Difference to translation invariance:
           :   -0.0000000000    0.0000000004   -0.0000000001

Difference to rotation invariance:
           :   -0.0000155855    0.0000009225   -0.0000659746

Norm of the Cartesian gradient     ...    0.3114512756
RMS gradient                       ...    0.0635747254
MAX gradient                       ...    0.2390734101

-------
TIMINGS
-------

Total SCF gradient time     ....        0.588 sec

Densities                   ....       0.000 sec  (  0.0%)
One electron gradient       ....       0.012 sec  (  2.0%)
RI-J Coulomb gradient       ....       0.157 sec  ( 26.7%)
XC gradient                 ....       0.272 sec  ( 46.2%)
CPCM gradient               ....       0.080 sec  ( 13.6%)
   A-Matrix (El+Nuc)        ....       0.022 sec  (  3.8%)
   Potential                ....       0.058 sec  (  9.8%)
SMD gradient                ....       0.001 sec  (  0.2%)

Maximum memory used throughout the entire SCFGRAD-calculation: 12.2 MB
------------------------------------------------------------------------------
                         ORCA GEOMETRY RELAXATION STEP
------------------------------------------------------------------------------

Reading the OPT-File                    .... done
Getting information on internals        .... done
Copying old internal coords+grads       .... done
Making the new internal coordinates     .... (2022 redundants) done
Validating the new internal coordinates .... (2022 redundants) done
Calculating the B-matrix                .... done
Calculating the G,G- and P matrices     .... done
Transforming gradient to internals      .... done
Projecting the internal gradient        .... done
Number of atoms                         ....   8
Number of internal coordinates          ....  25
Current Energy                          .... -2652.437257868 Eh
Current gradient norm                   ....     0.311451276 Eh/bohr
Maximum allowed component of the step   ....  0.300
Current trust radius                    ....  0.300
Evaluating the initial hessian          ....  (Almloef) done
Projecting the Hessian                  .... done
Forming the augmented Hessian           .... done
Diagonalizing the augmented Hessian     .... done
Last element of RFO vector              ....  0.924811339
Lowest eigenvalues of augmented Hessian:
 -0.099398286  0.014293121  0.098531354  0.131263627  0.138023712
Length of the computed step             ....  0.411355317
Warning: the length of the step is outside the trust region - taking restricted step instead
The input lambda is                     ....     0.013293
   iter:   5  x=   -0.287351  g=    0.254580 f(x)=     0.003192
The output lambda is                    ....    -0.287730 (9 iterations)
The final length of the internal step   ....  0.300000000
Converting the step to Cartesian space:
 Initial RMS(Int)=    0.0600000000
Transforming coordinates:
 Iter   0:  RMS(Cart)=    0.0770675327 RMS(Int)=    0.0596370613
 Iter   5:  RMS(Cart)=    0.0000002485 RMS(Int)=    0.0000001852
done
Storing new coordinates                 .... done

                                .--------------------.
          ----------------------|Geometry convergence|-------------------------
          Item                value                   Tolerance       Converged
          ---------------------------------------------------------------------
          RMS gradient        0.0534345021            0.0001000000      NO
          MAX gradient        0.2390773112            0.0003000000      NO
          RMS step            0.0600000000            0.0020000000      NO
          MAX step            0.2181195293            0.0040000000      NO
          ........................................................
          Max(Bonds)      0.1154      Max(Angles)    6.56
          Max(Dihed)        0.70      Max(Improp)    0.00
          ---------------------------------------------------------------------

The optimization has not yet converged - more geometry cycles are needed


    ---------------------------------------------------------------------------
                         Redundant Internal Coordinates
                            (Angstroem and degrees)

        Definition                    Value    dE/dq     Step     New-Value
    ----------------------------------------------------------------------------
     1. B(H   1,C   0)                1.1109 -0.000551  0.0005    1.1113   
     2. B(H   2,C   0)                1.1061 -0.002472  0.0021    1.1082   
     3. B(C   3,C   0)                1.4948 -0.015440  0.0115    1.5063   
     4. B(H   4,C   3)                1.0471 -0.044542  0.0332    1.0804   
     5. B(Br  5,C   3)                1.6499 -0.239077  0.1154    1.7653   
     6. B(H   6,C   3)                1.2850  0.059840 -0.0683    1.2167   
     7. B(H   7,C   0)                1.1063 -0.000552  0.0005    1.1067   
     8. A(H   1,C   0,H   7)          108.78  0.002596   -0.21    108.57   
     9. A(H   1,C   0,C   3)          107.98 -0.009685    0.94    108.92   
    10. A(C   3,C   0,H   7)          111.60  0.002552   -0.25    111.35   
    11. A(H   2,C   0,H   7)          108.46 -0.000973    0.03    108.50   
    12. A(H   2,C   0,C   3)          111.40  0.002853   -0.28    111.12   
    13. A(H   1,C   0,H   2)          108.54  0.002722   -0.24    108.30   
    14. A(C   0,C   3,H   6)          115.47  0.019373   -1.90    113.57   
    15. A(H   4,C   3,Br  5)          102.75 -0.017421    1.76    104.51   
    16. A(C   0,C   3,Br  5)          112.68 -0.018161    1.60    114.28   
    17. A(Br  5,C   3,H   6)           93.55 -0.072651    6.56    100.11   
    18. A(H   4,C   3,H   6)          106.70  0.014959   -1.54    105.16   
    19. A(C   0,C   3,H   4)          121.50  0.041174   -3.54    117.96   
    20. D(H   4,C   3,C   0,H   2)     59.05 -0.004770    0.67     59.72   
    21. D(H   4,C   3,C   0,H   7)   -179.55 -0.002225    0.34   -179.21   
    22. D(Br  5,C   3,C   0,H   1)    177.51  0.003484   -0.51    177.00   
    23. D(Br  5,C   3,C   0,H   2)    -63.39  0.002407   -0.37    -63.76   
    24. D(Br  5,C   3,C   0,H   7)     58.00  0.004952   -0.70     57.31   
    25. D(H   4,C   3,C   0,H   1)    -60.04 -0.003694    0.53    -59.51   
    ----------------------------------------------------------------------------

Geometry step timings:
Preparation and reading OPT file:      0.000 s ( 9.993 %)
Internal coordinates            :      0.000 s ( 1.341 %)
B/P matrices and projection     :      0.000 s (13.749 %)
Hessian update/contruction      :      0.001 s (38.162 %)
Making the step                 :      0.000 s (14.420 %)
Converting the step to Cartesian:      0.000 s ( 3.018 %)
Storing new data                :      0.000 s ( 3.085 %)
Checking convergence            :      0.000 s ( 0.067 %)
Final printing                  :      0.000 s (15.627 %)
Total time                      :      0.001 s

Time for energy+gradient        :      6.010 s
Time for complete geometry iter :      6.572 s

         *************************************************************
         *                GEOMETRY OPTIMIZATION CYCLE   2            *
         *************************************************************
---------------------------------
CARTESIAN COORDINATES (ANGSTROEM)
---------------------------------
  C     -3.193025   -0.133470   -1.349470
  H     -3.198102    0.975402   -1.275704
  H     -2.267250   -0.509922   -0.870514
  C     -4.418838   -0.674326   -0.661206
  H     -4.548948   -0.449896    0.387538
  Br    -4.594425   -2.427788   -0.765419
  H     -5.459460   -0.327415   -1.187660
  H     -3.174351   -0.415414   -2.419514

----------------------------
CARTESIAN COORDINATES (A.U.)
----------------------------
  NO LB      ZA    FRAG     MASS         X           Y           Z
   0 C     6.0000    0    12.011   -6.033942   -0.252222   -2.550129
   1 H     1.0000    0     1.008   -6.043536    1.843242   -2.410731
   2 H     1.0000    0     1.008   -4.284482   -0.963613   -1.645032
   3 C     6.0000    0    12.011   -8.350394   -1.274292   -1.249499
   4 H     1.0000    0     1.008   -8.596266   -0.850180    0.732340
   5 Br   35.0000    0    79.900   -8.682205   -4.587854   -1.446432
   6 H     1.0000    0     1.008  -10.316883   -0.618724   -2.244352
   7 H     1.0000    0     1.008   -5.998654   -0.785018   -4.572219

--------------------------------
INTERNAL COORDINATES (ANGSTROEM)
--------------------------------
 C      0   0   0     0.000000000000     0.00000000     0.00000000
 H      1   0   0     1.111334293384     0.00000000     0.00000000
 H      1   2   0     1.108230072588   108.30431582     0.00000000
 C      1   2   3     1.506270417657   108.91873771   120.97319705
 H      4   1   2     1.080352474928   117.83845944   300.42963440
 Br     4   1   2     1.765309598242   114.24447070   177.06470009
 H      4   1   2     1.216714509626   113.32460451    63.46667392
 H      1   2   3     1.106722534471   108.56888803   242.37973376

---------------------------
INTERNAL COORDINATES (A.U.)
---------------------------
 C      0   0   0     0.000000000000     0.00000000     0.00000000
 H      1   0   0     2.100117457731     0.00000000     0.00000000
 H      1   2   0     2.094251330568   108.30431582     0.00000000
 C      1   2   3     2.846438572998   108.91873771   120.97319705
 H      4   1   2     2.041570305718   117.83845944   300.42963440
 Br     4   1   2     3.335951682259   114.24447070   177.06470009
 H      4   1   2     2.299257206362   113.32460451    63.46667392
 H      1   2   3     2.091402496390   108.56888803   242.37973376



           ************************************************************
           *        Program running with 4 parallel MPI-processes     *
           *              working on a common directory               *
           ************************************************************
------------------------------------------------------------------------------
                   ___                                                        
                  /   \      - P O W E R E D   B Y -                         
                 /     \                                                     
                 |  |  |   _    _      __       _____    __    __             
                 |  |  |  | |  | |    /  \     |  _  \  |  |  /  |          
                  \  \/   | |  | |   /    \    | | | |  |  | /  /          
                 / \  \   | |__| |  /  /\  \   | |_| |  |  |/  /          
                |  |  |   |  __  | /  /__\  \  |    /   |      \           
                |  |  |   | |  | | |   __   |  |    \   |  |\   \          
                \     /   | |  | | |  |  |  |  | |\  \  |  | \   \       
                 \___/    |_|  |_| |__|  |__|  |_| \__\ |__|  \__/        
                                                                              
                      - O R C A' S   B I G   F R I E N D -                    
                                      &                                       
                       - I N T E G R A L  F E E D E R -                       
                                                                              
 v1 FN, 2020, v2 2021, v3 2022-2024                                           
------------------------------------------------------------------------------


----------------------
SHARK INTEGRAL PACKAGE
----------------------

Number of atoms                             ...      8
Number of basis functions                   ...     97
Number of shells                            ...     45
Maximum angular momentum                    ...      2
Integral batch strategy                     ... SHARK/LIBINT Hybrid
RI-J (if used) integral strategy            ... SPLIT-RIJ (Revised 2003 algorithm where possible)
Printlevel                                  ...      1
Contraction scheme used                     ... SEGMENTED contraction
Prescreening option                         ... SCHWARTZ
   Thresh                                   ... 2.500e-11
   Tcut                                     ... 2.500e-12
   Tpresel                                  ... 2.500e-12 
Coulomb Range Separation                    ... NOT USED
Exchange Range Separation                   ... NOT USED
Multipole approximations                    ... NOT USED
Finite Nucleus Model                        ... NOT USED
CABS basis                                  ... NOT available
Auxiliary Coulomb fitting basis             ... AVAILABLE
   # of basis functions in Aux-J            ...    211
   # of shells in Aux-J                     ...     73
   Maximum angular momentum in Aux-J        ...      4
Auxiliary J/K fitting basis                 ... NOT available
Auxiliary Correlation fitting basis         ... NOT available
Auxiliary 'external' fitting basis          ... NOT available

Checking pre-screening integrals            ... done (  0.0 sec) Dimension = 45
Check shell pair data                       ... done (  0.0 sec)
Shell pair information
Shell pair cut-off parameter TPreSel        ...   2.5e-12
Total number of shell pairs                 ...      1035
Shell pairs after pre-screening             ...      1022
Total number of primitive shell pairs       ...      3736
Primitive shell pairs kept                  ...      3068
          la=0 lb=0:    295 shell pairs
          la=1 lb=0:    379 shell pairs
          la=1 lb=1:    135 shell pairs
          la=2 lb=0:    119 shell pairs
          la=2 lb=1:     79 shell pairs
          la=2 lb=2:     15 shell pairs

Calculating one electron integrals          ... done (  0.0 sec)
Calculating RI/J V-Matrix + Cholesky decomp.... done (  0.0 sec)
Calculating Nuclear repulsion               ... done (  0.0 sec) ENN=    173.152712262779 Eh

Diagonalization of the overlap matrix:
Smallest eigenvalue                        ... 3.756e-04
Time for diagonalization                   ...    0.001 sec
Threshold for overlap eigenvalues          ... 1.000e-07
Number of eigenvalues below threshold      ... 0
Time for construction of square roots      ...    0.003 sec
Total time needed                          ...    0.004 sec

-------------------
DFT GRID GENERATION
-------------------

General Integration Accuracy     IntAcc      ... 4.388
Radial Grid Type                 RadialGrid  ... OptM3 with GC (2021)
Angular Grid (max. ang.)         AngularGrid ... 4 (Lebedev-302)
Angular grid pruning method      GridPruning ... 4 (adaptive)
Weight generation scheme         WeightScheme... mBecke (2022)
Basis function cutoff            BFCut       ... 1.0000e-11
Integration weight cutoff        WCut        ... 1.0000e-14
Partially contracted basis set               ... off
Rotationally invariant grid construction     ... off
Angular grids for H and He will be reduced by one unit
Diffuse basis detected: some atoms will have their outermost
                        angular grid increased by 1.
Core-polarized basis detected: some atoms will have their core
                               angular grid increased.

Total number of grid points                  ...    40294
Total number of batches                      ...      634
Average number of points per batch           ...       63
Average number of grid points per atom       ...     5037
Initializing property integral containers    ... done (  0.0 sec)

SHARK setup successfully completed in   0.3 seconds

Maximum memory used throughout the entire STARTUP-calculation: 15.1 MB


           ************************************************************
           *        Program running with 4 parallel MPI-processes     *
           *              working on a common directory               *
           ************************************************************
Occupation numbers will be reassigned to an Aufbau configuration
             **** ENERGY FILE WAS UPDATED (job.en.tmp) ****
Finished Guess after   0.3 sec
Maximum memory used throughout the entire GUESS-calculation: 7.0 MB


           ************************************************************
           *        Program running with 4 parallel MPI-processes     *
           *              working on a common directory               *
           ************************************************************
--------------------
CPCM SOLVATION MODEL
--------------------
CPCM parameters:
  Epsilon                                         ...      35.6880
  Refrac                                          ...       1.3442
  Rsolv                                           ...       1.3000
  Surface type                                    ... GAUSSIAN VDW
  Discretization scheme                           ... Constant charge density
    Threshold for H atoms                         ...       5.0000 (charges/Ang^2)
    Threshold for non-H atoms                     ...       5.0000 (charges/Ang^2)
  Epsilon function type                           ...         CPCM
Solvent:                                          ... ACETONITRILE
SMD-CDS solvent descriptors:
  Soln                                            ...       1.3442
  Soln25                                          ...       1.3416
  Sola                                            ...       0.0700
  Solb                                            ...       0.3200
  Solg                                            ...      41.2500
  Solc                                            ...       0.0000
  Solh                                            ...       0.0000
Radii:
  Scheme                                          ... Element-dependent radii
  Radius for C  used is    3.4960 Bohr (=   1.8500 Ang.)
  Radius for H  used is    2.2677 Bohr (=   1.2000 Ang.)
  Radius for Br used is    5.7826 Bohr (=   3.0600 Ang.)
Calculating surface                               ...        done! (  0.0s)
Cavity surface points                             ...          905
Cavity Volume                                     ...     934.6073
Cavity Surface-area                               ...     485.2092
Calculating surface distance matrix               ...        done! (  0.0s)
Performing Cholesky decomposition & store         ...        done! (  0.0s)
Overall time for CPCM initialization              ...                 0.0s

----------------------------------------D-I-I-S--------------------------------------------
Iteration    Energy (Eh)           Delta-E    RMSDP     MaxDP     DIISErr   Damp  Time(sec)
-------------------------------------------------------------------------------------------
               ***  Starting incremental Fock matrix formation  ***
    1    -2652.4840792532318119     0.00e+00  9.06e-04  1.16e-02  5.64e-02  0.700   0.1
    2    -2652.4858205701475526    -1.74e-03  8.03e-04  9.83e-03  3.95e-02  0.700   0.1
                               ***Turning on AO-DIIS***
    3    -2652.4870460686292972    -1.23e-03  6.11e-04  9.13e-03  2.77e-02  0.700   0.1
    4    -2652.4878839971588604    -8.38e-04  1.48e-03  2.36e-02  1.94e-02  0.000   0.1
                              *** Initializing SOSCF ***
---------------------------------------S-O-S-C-F--------------------------------------
Iteration    Energy (Eh)           Delta-E    RMSDP     MaxDP     MaxGrad    Time(sec)
--------------------------------------------------------------------------------------
    5    -2652.4898713728402981    -1.99e-03  1.24e-04  2.31e-03  2.00e-03     0.1
               *** Restarting incremental Fock matrix formation ***
    6    -2652.4898807388376554    -9.37e-06  1.26e-04  2.82e-03  2.74e-04     0.1
    7    -2652.4898767815398060     3.96e-06  5.42e-05  1.30e-03  4.78e-04     0.1
    8    -2652.4898830609727156    -6.28e-06  4.18e-06  6.95e-05  1.17e-05     0.1
    9    -2652.4898830598749555     1.10e-09  1.71e-06  4.62e-05  1.60e-05     0.1
                 **** Energy Check signals convergence ****

               *****************************************************
               *                     SUCCESS                       *
               *           SCF CONVERGED AFTER   9 CYCLES          *
               *****************************************************


SMD CDS free energy correction energy :                -1.84053     Kcal/mol
Total Energy after SMD CDS correction =             -2652.492816124 Eh
             **** ENERGY FILE WAS UPDATED (job.en.tmp) ****

----------------
TOTAL SCF ENERGY
----------------

Total Energy       :      -2652.49281612411596 Eh          -72177.99899 eV

Components:
Nuclear Repulsion  :        173.15271226277929 Eh            4711.72484 eV
Electronic Energy  :      -2825.63897864557839 Eh          -76889.54560 eV
One Electron Energy:      -4031.66711572754821 Eh         -109707.23963 eV
Two Electron Energy:       1206.02813708196959 Eh           32817.69403 eV
CPCM Dielectric    :         -0.00361667707582 Eh              -0.09841 eV
SMD CDS (Gcds)     :         -0.00293306424085 Eh              -0.07981 eV

Virial components:
Potential Energy   :      -5301.25244065377228 Eh         -144254.41266 eV
Kinetic Energy     :       2648.75962452965587 Eh           72076.41368 eV
Virial Ratio       :          2.00140941124287

DFT components:
N(Alpha)           :       26.000012204218 electrons
N(Beta)            :       26.000012204218 electrons
N(Total)           :       52.000024408437 electrons
E(X)               :     -101.245518603404 Eh       
E(C)               :       -2.265884303165 Eh       
E(XC)              :     -103.511402906569 Eh       

CPCM Solvation Model Properties:
Surface-charge          :         -0.01746375094571
Corrected charge        :         -0.00000000000000
Outlying charge corr.   :          0.00002404123752 Eh               0.00065 eV
Free-energy (cav+disp)  :         -0.00293306424085 Eh              -0.07981 eV

---------------
SCF CONVERGENCE
---------------

  Last Energy change         ...   -1.0978e-09  Tolerance :   1.0000e-08
  Last MAX-Density change    ...    4.6168e-05  Tolerance :   1.0000e-07
  Last RMS-Density change    ...    1.7120e-06  Tolerance :   5.0000e-09
  Last DIIS Error            ...    1.9976e-03  Tolerance :   5.0000e-07
  Last Orbital Gradient      ...    1.5979e-05  Tolerance :   1.0000e-05
  Last Orbital Rotation      ...    1.0964e-05  Tolerance :   1.0000e-05


Total SCF time: 0 days 0 hours 0 min 1 sec 
Finished LeanSCF after   1.5 sec

Maximum memory used throughout the entire LEANSCF-calculation: 9.4 MB


           ************************************************************
           *        Program running with 4 parallel MPI-processes     *
           *              working on a common directory               *
           ************************************************************

------------------------------------------------------------------------------
                         ORCA PROPERTY INTEGRAL CALCULATIONS
------------------------------------------------------------------------------

GBWName                                   ... job.gbw
Number of atoms                           ...      8
Number of basis functions                 ...     97
Max core memory                           ...   3000 MB

Dipole integrals                          ... YES
Quadrupole integrals                      ...  NO
Linear momentum integrals                 ...  NO
Angular momentum integrals                ...  NO
Higher moments length integrals           ...  NO
Higher moments velocity integrals         ...  NO
Kinetic energy integrals                  ...  NO
GIAO right hand sides                     ...  NO
GIAO dipole derivative integrals          ...  NO
SOC integrals                             ...  NO
EPR diamagnetic integrals (GIAO)          ...  NO
EPR gauge integrals                       ...  NO
Field gradient integrals                  ...  NO (   0 nuclei)
Spin-dipole/Fermi contact integrals       ...  NO (   0 nuclei)
Contact density integrals                 ...  NO (   0 nuclei)
Nucleus-orbit integrals                   ...  NO (   0 nuclei)
Geometric perturbations                   ...  NO (   8 nuclei)

Choice of electric origin   ... Center of mass
Position of electric origin ... ( -8.2781, -3.5452, -1.5733) 
Choice of magnetic origin   ... GIAO
Position of magnetic origin ... (  0.0000,  0.0000,  0.0000) 

Calculating integrals                     ... Electric Dipole (Length)     done (  0.0 sec)

Property integrals calculated in   0.0 sec

Maximum memory used throughout the entire PROPINT-calculation: 7.1 MB

-------------------------   --------------------
FINAL SINGLE POINT ENERGY     -2652.492816124116
-------------------------   --------------------



           ************************************************************
           *        Program running with 4 parallel MPI-processes     *
           *              working on a common directory               *
           ************************************************************
------------------------------------------------------------------------------
                         ORCA SCF GRADIENT CALCULATION
------------------------------------------------------------------------------

Nuc. rep. gradient        (SHARK) ... done (  0.0 sec)
HCore & Overlap gradient  (SHARK) ... done (  0.0 sec)
Split-RIJ-J gradient      (SHARK) ... done (  0.2 sec)
XC gradient                       ... done (  0.3 sec)
CPCM gradient                     ... done (  0.1 sec)
SMD gradient                      ... done (  0.0 sec)

------------------
CARTESIAN GRADIENT
------------------

   1   C   :   -0.001416700   -0.010616805   -0.003624072
   2   H   :   -0.002085798    0.000444902    0.001158908
   3   H   :   -0.001070771    0.000036428   -0.000275515
   4   C   :    0.051275932   -0.082345336    0.032925131
   5   H   :   -0.005620050   -0.015680824   -0.016079378
   6   Br  :    0.003636229    0.110393806    0.005219643
   7   H   :   -0.044842831   -0.002163628   -0.020187656
   8   H   :    0.000123988   -0.000068542    0.000862940

Difference to translation invariance:
           :    0.0000000004    0.0000000008    0.0000000001

Difference to rotation invariance:
           :    0.0000553945   -0.0000738240   -0.0000473559

Norm of the Cartesian gradient     ...    0.1606740750
RMS gradient                       ...    0.0327974582
MAX gradient                       ...    0.1103938055

-------
TIMINGS
-------

Total SCF gradient time     ....        0.609 sec

Densities                   ....       0.000 sec  (  0.0%)
One electron gradient       ....       0.011 sec  (  1.9%)
RI-J Coulomb gradient       ....       0.164 sec  ( 27.0%)
XC gradient                 ....       0.277 sec  ( 45.5%)
CPCM gradient               ....       0.081 sec  ( 13.2%)
   A-Matrix (El+Nuc)        ....       0.026 sec  (  4.3%)
   Potential                ....       0.054 sec  (  8.9%)
SMD gradient                ....       0.002 sec  (  0.3%)

Maximum memory used throughout the entire SCFGRAD-calculation: 12.1 MB
------------------------------------------------------------------------------
                         ORCA GEOMETRY RELAXATION STEP
------------------------------------------------------------------------------

Reading the OPT-File                    .... done
Getting information on internals        .... done
Copying old internal coords+grads       .... done
Making the new internal coordinates     .... (2022 redundants) done
Validating the new internal coordinates .... (2022 redundants) done
Calculating the B-matrix                .... done
Calculating the G,G- and P matrices     .... done
Transforming gradient to internals      .... done
Projecting the internal gradient        .... done
Number of atoms                         ....   8
Number of internal coordinates          ....  25
Current Energy                          .... -2652.492816124 Eh
Current gradient norm                   ....     0.160674075 Eh/bohr
Maximum allowed component of the step   ....  0.300
Current trust radius                    ....  0.300
Updating the Hessian (BFGS)             .... done
Forming the augmented Hessian           .... done
Diagonalizing the augmented Hessian     .... done
Last element of RFO vector              ....  0.946270060
Lowest eigenvalues of augmented Hessian:
 -0.037921630  0.014296972  0.098862457  0.131289527  0.138024964
Length of the computed step             ....  0.341739067
Warning: the length of the step is outside the trust region - taking restricted step instead
The input lambda is                     ....     0.013293
   iter:   5  x=   -0.067303  g=    0.911614 f(x)=     0.026380
   iter:  10  x=   -0.074462  g=    0.584827 f(x)=     0.000000
The output lambda is                    ....    -0.074462 (10 iterations)
The final length of the internal step   ....  0.300000000
Converting the step to Cartesian space:
 Initial RMS(Int)=    0.0600000000
Transforming coordinates:
 Iter   0:  RMS(Cart)=    0.0603069810 RMS(Int)=    0.0597335334
 Iter   5:  RMS(Cart)=    0.0000000883 RMS(Int)=    0.0000000702
done
Storing new coordinates                 .... done
The predicted energy change is          ....    -0.020440915
Previously predicted energy change      ....    -0.051135800
Actually observed energy change         ....    -0.055558256
Ratio of predicted to observed change   ....     1.086484546
New trust radius                        ....     0.450000000

                                .--------------------.
          ----------------------|Geometry convergence|-------------------------
          Item                value                   Tolerance       Converged
          ---------------------------------------------------------------------
          Energy change      -0.0555582561            0.0000050000      NO
          RMS gradient        0.0255862488            0.0001000000      NO
          MAX gradient        0.1103227321            0.0003000000      NO
          RMS step            0.0600000000            0.0020000000      NO
          MAX step            0.2180719706            0.0040000000      NO
          ........................................................
          Max(Bonds)      0.1154      Max(Angles)    4.23
          Max(Dihed)        0.50      Max(Improp)    0.00
          ---------------------------------------------------------------------

The optimization has not yet converged - more geometry cycles are needed


    ---------------------------------------------------------------------------
                         Redundant Internal Coordinates
                            (Angstroem and degrees)

        Definition                    Value    dE/dq     Step     New-Value
    ----------------------------------------------------------------------------
     1. B(H   1,C   0)                1.1113  0.000531 -0.0015    1.1099   
     2. B(H   2,C   0)                1.1082 -0.001029  0.0013    1.1095   
     3. B(C   3,C   0)                1.5063 -0.006426  0.0073    1.5136   
     4. B(H   4,C   3)                1.0804 -0.018188  0.0204    1.1008   
     5. B(Br  5,C   3)                1.7653 -0.110323  0.0922    1.8575   
     6. B(H   6,C   3)                1.2167  0.046469 -0.1154    1.1013   
     7. B(H   7,C   0)                1.1067 -0.000812  0.0016    1.1083   
     8. A(H   1,C   0,H   7)          108.57  0.001330   -0.27    108.30   
     9. A(H   1,C   0,C   3)          108.92 -0.003512    0.39    109.31   
    10. A(C   3,C   0,H   7)          111.35  0.000669   -0.03    111.32   
    11. A(H   2,C   0,H   7)          108.50  0.000116   -0.03    108.47   
    12. A(H   2,C   0,C   3)          111.12 -0.000006    0.18    111.30   
    13. A(H   1,C   0,H   2)          108.30  0.001489   -0.26    108.05   
    14. A(C   0,C   3,H   6)          113.32  0.010872   -1.35    111.97   
    15. A(H   4,C   3,Br  5)          104.58 -0.011091    1.47    106.05   
    16. A(C   0,C   3,Br  5)          114.24 -0.004113    0.19    114.44   
    17. A(Br  5,C   3,H   6)           99.94 -0.029940    4.23    104.17   
    18. A(H   4,C   3,H   6)          104.94  0.003995    0.34    105.28   
    19. A(C   0,C   3,H   4)          117.84  0.021768   -3.32    114.51   
    20. D(H   4,C   3,C   0,H   2)     59.66 -0.000646   -0.23     59.43   
    21. D(H   4,C   3,C   0,H   7)   -179.27 -0.000043   -0.16   -179.43   
    22. D(Br  5,C   3,C   0,H   1)    177.06  0.000202    0.40    177.46   
    23. D(Br  5,C   3,C   0,H   2)    -63.70 -0.000194    0.43    -63.27   
    24. D(Br  5,C   3,C   0,H   7)     57.37  0.000409    0.50     57.87   
    25. D(H   4,C   3,C   0,H   1)    -59.57 -0.000250   -0.26    -59.83   
    ----------------------------------------------------------------------------

Geometry step timings:
Preparation and reading OPT file:      0.000 s ( 5.854 %)
Internal coordinates            :      0.000 s ( 0.522 %)
B/P matrices and projection     :      0.000 s ( 6.674 %)
Hessian update/contruction      :      0.002 s (64.691 %)
Making the step                 :      0.000 s ( 6.637 %)
Converting the step to Cartesian:      0.000 s ( 0.969 %)
Storing new data                :      0.000 s ( 1.529 %)
Checking convergence            :      0.000 s ( 0.522 %)
Final printing                  :      0.000 s (12.416 %)
Total time                      :      0.003 s

Time for energy+gradient        :      4.984 s
Time for complete geometry iter :      5.547 s

         *************************************************************
         *                GEOMETRY OPTIMIZATION CYCLE   3            *
         *************************************************************
---------------------------------
CARTESIAN COORDINATES (ANGSTROEM)
---------------------------------
  C     -3.207603   -0.126515   -1.351968
  H     -3.214260    0.981337   -1.285701
  H     -2.285435   -0.494877   -0.857099
  C     -4.448352   -0.675480   -0.681114
  H     -4.543167   -0.414938    0.384182
  Br    -4.617000   -2.522891   -0.775046
  H     -5.369471   -0.298581   -1.152688
  H     -3.169110   -0.410883   -2.422516

----------------------------
CARTESIAN COORDINATES (A.U.)
----------------------------
  NO LB      ZA    FRAG     MASS         X           Y           Z
   0 C     6.0000    0    12.011   -6.061491   -0.239079   -2.554850
   1 H     1.0000    0     1.008   -6.074072    1.854457   -2.429623
   2 H     1.0000    0     1.008   -4.318847   -0.935182   -1.619683
   3 C     6.0000    0    12.011   -8.406166   -1.276472   -1.287118
   4 H     1.0000    0     1.008   -8.585341   -0.784119    0.725999
   5 Br   35.0000    0    79.900   -8.724866   -4.767574   -1.464624
   6 H     1.0000    0     1.008  -10.146830   -0.564236   -2.178265
   7 H     1.0000    0     1.008   -5.988750   -0.776457   -4.577891

--------------------------------
INTERNAL COORDINATES (ANGSTROEM)
--------------------------------
 C      0   0   0     0.000000000000     0.00000000     0.00000000
 H      1   0   0     1.109852066004     0.00000000     0.00000000
 H      1   2   0     1.109494690278   108.04500914     0.00000000
 C      1   2   3     1.513560545845   109.30894355   121.26129693
 H      4   1   2     1.100784667848   114.43766988   300.13533377
 Br     4   1   2     1.857469976806   114.37762522   177.49369881
 H      4   1   2     1.101315787441   111.82146521    59.55279875
 H      1   2   3     1.108340163098   108.29982758   242.70006073

---------------------------
INTERNAL COORDINATES (A.U.)
---------------------------
 C      0   0   0     0.000000000000     0.00000000     0.00000000
 H      1   0   0     2.097316453914     0.00000000     0.00000000
 H      1   2   0     2.096641111664   108.04500914     0.00000000
 C      1   2   3     2.860214918755   109.30894355   121.26129693
 H      4   1   2     2.080181554652   114.43766988   300.13533377
 Br     4   1   2     3.510109558144   114.37762522   177.49369881
 H      4   1   2     2.081185225228   111.82146521    59.55279875
 H      1   2   3     2.094459371482   108.29982758   242.70006073



           ************************************************************
           *        Program running with 4 parallel MPI-processes     *
           *              working on a common directory               *
           ************************************************************
------------------------------------------------------------------------------
                   ___                                                        
                  /   \      - P O W E R E D   B Y -                         
                 /     \                                                     
                 |  |  |   _    _      __       _____    __    __             
                 |  |  |  | |  | |    /  \     |  _  \  |  |  /  |          
                  \  \/   | |  | |   /    \    | | | |  |  | /  /          
                 / \  \   | |__| |  /  /\  \   | |_| |  |  |/  /          
                |  |  |   |  __  | /  /__\  \  |    /   |      \           
                |  |  |   | |  | | |   __   |  |    \   |  |\   \          
                \     /   | |  | | |  |  |  |  | |\  \  |  | \   \       
                 \___/    |_|  |_| |__|  |__|  |_| \__\ |__|  \__/        
                                                                              
                      - O R C A' S   B I G   F R I E N D -                    
                                      &                                       
                       - I N T E G R A L  F E E D E R -                       
                                                                              
 v1 FN, 2020, v2 2021, v3 2022-2024                                           
------------------------------------------------------------------------------


----------------------
SHARK INTEGRAL PACKAGE
----------------------

Number of atoms                             ...      8
Number of basis functions                   ...     97
Number of shells                            ...     45
Maximum angular momentum                    ...      2
Integral batch strategy                     ... SHARK/LIBINT Hybrid
RI-J (if used) integral strategy            ... SPLIT-RIJ (Revised 2003 algorithm where possible)
Printlevel                                  ...      1
Contraction scheme used                     ... SEGMENTED contraction
Prescreening option                         ... SCHWARTZ
   Thresh                                   ... 2.500e-11
   Tcut                                     ... 2.500e-12
   Tpresel                                  ... 2.500e-12 
Coulomb Range Separation                    ... NOT USED
Exchange Range Separation                   ... NOT USED
Multipole approximations                    ... NOT USED
Finite Nucleus Model                        ... NOT USED
CABS basis                                  ... NOT available
Auxiliary Coulomb fitting basis             ... AVAILABLE
   # of basis functions in Aux-J            ...    211
   # of shells in Aux-J                     ...     73
   Maximum angular momentum in Aux-J        ...      4
Auxiliary J/K fitting basis                 ... NOT available
Auxiliary Correlation fitting basis         ... NOT available
Auxiliary 'external' fitting basis          ... NOT available

Checking pre-screening integrals            ... done (  0.0 sec) Dimension = 45
Check shell pair data                       ... done (  0.0 sec)
Shell pair information
Shell pair cut-off parameter TPreSel        ...   2.5e-12
Total number of shell pairs                 ...      1035
Shell pairs after pre-screening             ...      1020
Total number of primitive shell pairs       ...      3736
Primitive shell pairs kept                  ...      3056
          la=0 lb=0:    295 shell pairs
          la=1 lb=0:    377 shell pairs
          la=1 lb=1:    135 shell pairs
          la=2 lb=0:    119 shell pairs
          la=2 lb=1:     79 shell pairs
          la=2 lb=2:     15 shell pairs

Calculating one electron integrals          ... done (  0.0 sec)
Calculating RI/J V-Matrix + Cholesky decomp.... done (  0.0 sec)
Calculating Nuclear repulsion               ... done (  0.0 sec) ENN=    167.970048939913 Eh

Diagonalization of the overlap matrix:
Smallest eigenvalue                        ... 3.962e-04
Time for diagonalization                   ...    0.001 sec
Threshold for overlap eigenvalues          ... 1.000e-07
Number of eigenvalues below threshold      ... 0
Time for construction of square roots      ...    0.003 sec
Total time needed                          ...    0.005 sec

-------------------
DFT GRID GENERATION
-------------------

General Integration Accuracy     IntAcc      ... 4.388
Radial Grid Type                 RadialGrid  ... OptM3 with GC (2021)
Angular Grid (max. ang.)         AngularGrid ... 4 (Lebedev-302)
Angular grid pruning method      GridPruning ... 4 (adaptive)
Weight generation scheme         WeightScheme... mBecke (2022)
Basis function cutoff            BFCut       ... 1.0000e-11
Integration weight cutoff        WCut        ... 1.0000e-14
Partially contracted basis set               ... off
Rotationally invariant grid construction     ... off
Angular grids for H and He will be reduced by one unit
Diffuse basis detected: some atoms will have their outermost
                        angular grid increased by 1.
Core-polarized basis detected: some atoms will have their core
                               angular grid increased.

Total number of grid points                  ...    40290
Total number of batches                      ...      635
Average number of points per batch           ...       63
Average number of grid points per atom       ...     5036
Initializing property integral containers    ... done (  0.0 sec)

SHARK setup successfully completed in   0.3 seconds

Maximum memory used throughout the entire STARTUP-calculation: 15.1 MB


           ************************************************************
           *        Program running with 4 parallel MPI-processes     *
           *              working on a common directory               *
           ************************************************************
Occupation numbers will be reassigned to an Aufbau configuration
             **** ENERGY FILE WAS UPDATED (job.en.tmp) ****
Finished Guess after   0.3 sec
Maximum memory used throughout the entire GUESS-calculation: 7.0 MB


           ************************************************************
           *        Program running with 4 parallel MPI-processes     *
           *              working on a common directory               *
           ************************************************************
--------------------
CPCM SOLVATION MODEL
--------------------
CPCM parameters:
  Epsilon                                         ...      35.6880
  Refrac                                          ...       1.3442
  Rsolv                                           ...       1.3000
  Surface type                                    ... GAUSSIAN VDW
  Discretization scheme                           ... Constant charge density
    Threshold for H atoms                         ...       5.0000 (charges/Ang^2)
    Threshold for non-H atoms                     ...       5.0000 (charges/Ang^2)
  Epsilon function type                           ...         CPCM
Solvent:                                          ... ACETONITRILE
SMD-CDS solvent descriptors:
  Soln                                            ...       1.3442
  Soln25                                          ...       1.3416
  Sola                                            ...       0.0700
  Solb                                            ...       0.3200
  Solg                                            ...      41.2500
  Solc                                            ...       0.0000
  Solh                                            ...       0.0000
Radii:
  Scheme                                          ... Element-dependent radii
  Radius for C  used is    3.4960 Bohr (=   1.8500 Ang.)
  Radius for H  used is    2.2677 Bohr (=   1.2000 Ang.)
  Radius for Br used is    5.7826 Bohr (=   3.0600 Ang.)
Calculating surface                               ...        done! (  0.0s)
Cavity surface points                             ...          911
Cavity Volume                                     ...     945.9577
Cavity Surface-area                               ...     490.7366
Calculating surface distance matrix               ...        done! (  0.0s)
Performing Cholesky decomposition & store         ...        done! (  0.0s)
Overall time for CPCM initialization              ...                 0.0s

----------------------------------------D-I-I-S--------------------------------------------
Iteration    Energy (Eh)           Delta-E    RMSDP     MaxDP     DIISErr   Damp  Time(sec)
-------------------------------------------------------------------------------------------
               ***  Starting incremental Fock matrix formation  ***
    1    -2652.5074556250119713     0.00e+00  7.66e-04  1.12e-02  3.01e-02  0.700   0.1
    2    -2652.5086799668060848    -1.22e-03  6.75e-04  1.09e-02  2.11e-02  0.700   0.1
                               ***Turning on AO-DIIS***
    3    -2652.5095746174574742    -8.95e-04  4.96e-04  8.58e-03  1.47e-02  0.700   0.1
    4    -2652.5101901157136126    -6.15e-04  1.21e-03  2.16e-02  1.03e-02  0.000   0.1
                              *** Initializing SOSCF ***
---------------------------------------S-O-S-C-F--------------------------------------
Iteration    Energy (Eh)           Delta-E    RMSDP     MaxDP     MaxGrad    Time(sec)
--------------------------------------------------------------------------------------
    5    -2652.5116110059789207    -1.42e-03  7.82e-05  1.38e-03  4.73e-04     0.1
               *** Restarting incremental Fock matrix formation ***
    6    -2652.5116127478067938    -1.74e-06  7.39e-05  1.84e-03  1.30e-04     0.1
    7    -2652.5116125083218321     2.39e-07  2.41e-05  4.27e-04  1.88e-04     0.1
    8    -2652.5116132883804312    -7.80e-07  1.14e-05  3.08e-04  2.07e-05     0.1
    9    -2652.5116132977959751    -9.42e-09  2.30e-06  3.67e-05  9.73e-06     0.1
                 **** Energy Check signals convergence ****

               *****************************************************
               *                     SUCCESS                       *
               *           SCF CONVERGED AFTER   9 CYCLES          *
               *****************************************************


SMD CDS free energy correction energy :                -1.89974     Kcal/mol
Total Energy after SMD CDS correction =             -2652.514640721 Eh
             **** ENERGY FILE WAS UPDATED (job.en.tmp) ****

----------------
TOTAL SCF ENERGY
----------------

Total Energy       :      -2652.51464072117142 Eh          -72178.59286 eV

Components:
Nuclear Repulsion  :        167.97004893991308 Eh            4570.69740 eV
Electronic Energy  :      -2820.47757348157575 Eh          -76749.09662 eV
One Electron Energy:      -4021.38889165692626 Eh         -109427.55493 eV
Two Electron Energy:       1200.91131817535052 Eh           32678.45831 eV
CPCM Dielectric    :         -0.00408875613317 Eh              -0.11126 eV
SMD CDS (Gcds)     :         -0.00302742337554 Eh              -0.08238 eV

Virial components:
Potential Energy   :      -5301.16430004657559 Eh         -144252.01423 eV
Kinetic Energy     :       2648.64965932540372 Eh           72073.42137 eV
Virial Ratio       :          2.00145922711302

DFT components:
N(Alpha)           :       26.000007515850 electrons
N(Beta)            :       26.000007515850 electrons
N(Total)           :       52.000015031700 electrons
E(X)               :     -101.234253864632 Eh       
E(C)               :       -2.262469440025 Eh       
E(XC)              :     -103.496723304657 Eh       

CPCM Solvation Model Properties:
Surface-charge          :         -0.01703443206589
Corrected charge        :          0.00000000000000
Outlying charge corr.   :          0.00002276203254 Eh               0.00062 eV
Free-energy (cav+disp)  :         -0.00302742337554 Eh              -0.08238 eV

---------------
SCF CONVERGENCE
---------------

  Last Energy change         ...    9.4155e-09  Tolerance :   1.0000e-08
  Last MAX-Density change    ...    3.6667e-05  Tolerance :   1.0000e-07
  Last RMS-Density change    ...    2.3018e-06  Tolerance :   5.0000e-09
  Last DIIS Error            ...    4.7345e-04  Tolerance :   5.0000e-07
  Last Orbital Gradient      ...    9.7278e-06  Tolerance :   1.0000e-05
  Last Orbital Rotation      ...    8.8731e-06  Tolerance :   1.0000e-05


Total SCF time: 0 days 0 hours 0 min 1 sec 
Finished LeanSCF after   1.5 sec

Maximum memory used throughout the entire LEANSCF-calculation: 9.4 MB


           ************************************************************
           *        Program running with 4 parallel MPI-processes     *
           *              working on a common directory               *
           ************************************************************

------------------------------------------------------------------------------
                         ORCA PROPERTY INTEGRAL CALCULATIONS
------------------------------------------------------------------------------

GBWName                                   ... job.gbw
Number of atoms                           ...      8
Number of basis functions                 ...     97
Max core memory                           ...   3000 MB

Dipole integrals                          ... YES
Quadrupole integrals                      ...  NO
Linear momentum integrals                 ...  NO
Angular momentum integrals                ...  NO
Higher moments length integrals           ...  NO
Higher moments velocity integrals         ...  NO
Kinetic energy integrals                  ...  NO
GIAO right hand sides                     ...  NO
GIAO dipole derivative integrals          ...  NO
SOC integrals                             ...  NO
EPR diamagnetic integrals (GIAO)          ...  NO
EPR gauge integrals                       ...  NO
Field gradient integrals                  ...  NO (   0 nuclei)
Spin-dipole/Fermi contact integrals       ...  NO (   0 nuclei)
Contact density integrals                 ...  NO (   0 nuclei)
Nucleus-orbit integrals                   ...  NO (   0 nuclei)
Geometric perturbations                   ...  NO (   8 nuclei)

Choice of electric origin   ... Center of mass
Position of electric origin ... ( -8.3174, -3.6742, -1.5907) 
Choice of magnetic origin   ... GIAO
Position of magnetic origin ... (  0.0000,  0.0000,  0.0000) 

Calculating integrals                     ... Electric Dipole (Length)     done (  0.0 sec)

Property integrals calculated in   0.0 sec

Maximum memory used throughout the entire PROPINT-calculation: 7.1 MB

-------------------------   --------------------
FINAL SINGLE POINT ENERGY     -2652.514640721171
-------------------------   --------------------



           ************************************************************
           *        Program running with 4 parallel MPI-processes     *
           *              working on a common directory               *
           ************************************************************
------------------------------------------------------------------------------
                         ORCA SCF GRADIENT CALCULATION
------------------------------------------------------------------------------

Nuc. rep. gradient        (SHARK) ... done (  0.0 sec)
HCore & Overlap gradient  (SHARK) ... done (  0.0 sec)
Split-RIJ-J gradient      (SHARK) ... done (  0.2 sec)
XC gradient                       ... done (  0.3 sec)
CPCM gradient                     ... done (  0.1 sec)
SMD gradient                      ... done (  0.0 sec)

------------------
CARTESIAN GRADIENT
------------------

   1   C   :   -0.002120216   -0.000180856   -0.002556545
   2   H   :   -0.000214431   -0.000319456    0.000161530
   3   H   :   -0.000478826   -0.000503249    0.000618178
   4   C   :    0.005409620   -0.036717545    0.000168272
   5   H   :   -0.005130572   -0.003728723   -0.004213691
   6   Br  :    0.001240454    0.047665445    0.001999080
   7   H   :    0.001470272   -0.005714194    0.003461241
   8   H   :   -0.000176301   -0.000501422    0.000361935

Difference to translation invariance:
           :    0.0000000005   -0.0000000003    0.0000000002

Difference to rotation invariance:
           :    0.0001205433   -0.0000636965   -0.0000826628

Norm of the Cartesian gradient     ...    0.0614189836
RMS gradient                       ...    0.0125370975
MAX gradient                       ...    0.0476654446

-------
TIMINGS
-------

Total SCF gradient time     ....        0.602 sec

Densities                   ....       0.000 sec  (  0.0%)
One electron gradient       ....       0.011 sec  (  1.9%)
RI-J Coulomb gradient       ....       0.158 sec  ( 26.3%)
XC gradient                 ....       0.285 sec  ( 47.3%)
CPCM gradient               ....       0.078 sec  ( 13.0%)
   A-Matrix (El+Nuc)        ....       0.025 sec  (  4.1%)
   Potential                ....       0.053 sec  (  8.9%)
SMD gradient                ....       0.002 sec  (  0.3%)

Maximum memory used throughout the entire SCFGRAD-calculation: 12.0 MB
------------------------------------------------------------------------------
                         ORCA GEOMETRY RELAXATION STEP
------------------------------------------------------------------------------

Reading the OPT-File                    .... done
Getting information on internals        .... done
Copying old internal coords+grads       .... done
Making the new internal coordinates     .... (2022 redundants) done
Validating the new internal coordinates .... (2022 redundants) done
Calculating the B-matrix                .... done
Calculating the G,G- and P matrices     .... done
Transforming gradient to internals      .... done
Projecting the internal gradient        .... done
Number of atoms                         ....   8
Number of internal coordinates          ....  25
Current Energy                          .... -2652.514640721 Eh
Current gradient norm                   ....     0.061418984 Eh/bohr
Maximum allowed component of the step   ....  0.300
Current trust radius                    ....  0.450
Updating the Hessian (BFGS)             .... done
Forming the augmented Hessian           .... done
Diagonalizing the augmented Hessian     .... done
Last element of RFO vector              ....  0.988808935
Lowest eigenvalues of augmented Hessian:
 -0.007034725  0.014300136  0.098327773  0.131246107  0.138016070
Length of the computed step             ....  0.150875898
The final length of the internal step   ....  0.150875898
Converting the step to Cartesian space:
 Initial RMS(Int)=    0.0301751795
Transforming coordinates:
 Iter   0:  RMS(Cart)=    0.0320215457 RMS(Int)=    0.0301071214
done
Storing new coordinates                 .... done
The predicted energy change is          ....    -0.003597430
Previously predicted energy change      ....    -0.020440915
Actually observed energy change         ....    -0.021824597
Ratio of predicted to observed change   ....     1.067691777
New trust radius                        ....     0.675000000

                                .--------------------.
          ----------------------|Geometry convergence|-------------------------
          Item                value                   Tolerance       Converged
          ---------------------------------------------------------------------
          Energy change      -0.0218245971            0.0000050000      NO
          RMS gradient        0.0100095540            0.0001000000      NO
          MAX gradient        0.0476210029            0.0003000000      NO
          RMS step            0.0301751795            0.0020000000      NO
          MAX step            0.1233292696            0.0040000000      NO
          ........................................................
          Max(Bonds)      0.0653      Max(Angles)    2.56
          Max(Dihed)        1.66      Max(Improp)    0.00
          ---------------------------------------------------------------------

The optimization has not yet converged - more geometry cycles are needed


    ---------------------------------------------------------------------------
                         Redundant Internal Coordinates
                            (Angstroem and degrees)

        Definition                    Value    dE/dq     Step     New-Value
    ----------------------------------------------------------------------------
     1. B(H   1,C   0)                1.1099 -0.000308  0.0001    1.1100   
     2. B(H   2,C   0)                1.1095  0.000042 -0.0000    1.1095   
     3. B(C   3,C   0)                1.5136 -0.002370  0.0048    1.5184   
     4. B(H   4,C   3)                1.1008 -0.004517  0.0100    1.1108   
     5. B(Br  5,C   3)                1.8575 -0.047621  0.0653    1.9227   
     6. B(H   6,C   3)                1.1013 -0.004669  0.0065    1.1078   
     7. B(H   7,C   0)                1.1083 -0.000224  0.0009    1.1092   
     8. A(H   1,C   0,H   7)          108.30  0.000545   -0.29    108.01   
     9. A(H   1,C   0,C   3)          109.31  0.000013   -0.08    109.23   
    10. A(C   3,C   0,H   7)          111.32 -0.000331    0.12    111.44   
    11. A(H   2,C   0,H   7)          108.47  0.000578   -0.04    108.43   
    12. A(H   2,C   0,C   3)          111.30 -0.001324    0.46    111.76   
    13. A(H   1,C   0,H   2)          108.05  0.000598   -0.19    107.85   
    14. A(C   0,C   3,H   6)          111.82  0.003300   -0.55    111.27   
    15. A(H   4,C   3,Br  5)          106.05 -0.004645    0.59    106.64   
    16. A(C   0,C   3,Br  5)          114.38  0.001452   -0.61    113.77   
    17. A(Br  5,C   3,H   6)          104.05 -0.008173    2.32    106.37   
    18. A(H   4,C   3,H   6)          105.15 -0.002486    1.48    106.63   
    19. A(C   0,C   3,H   4)          114.44  0.008539   -2.56    111.88   
    20. D(H   4,C   3,C   0,H   2)     59.40  0.000935   -0.71     58.69   
    21. D(H   4,C   3,C   0,H   7)   -179.46  0.000529   -0.36   -179.82   
    22. D(Br  5,C   3,C   0,H   1)    177.49 -0.000886    1.32    178.82   
    23. D(Br  5,C   3,C   0,H   2)    -63.24 -0.000958    1.31    -61.93   
    24. D(Br  5,C   3,C   0,H   7)     57.90 -0.001364    1.66     59.56   
    25. D(H   4,C   3,C   0,H   1)    -59.86  0.001007   -0.70    -60.56   
    ----------------------------------------------------------------------------

Geometry step timings:
Preparation and reading OPT file:      0.000 s ( 8.095 %)
Internal coordinates            :      0.000 s ( 0.503 %)
B/P matrices and projection     :      0.000 s ( 7.049 %)
Hessian update/contruction      :      0.002 s (62.161 %)
Making the step                 :      0.000 s ( 4.183 %)
Converting the step to Cartesian:      0.000 s ( 1.007 %)
Storing new data                :      0.000 s ( 1.510 %)
Checking convergence            :      0.000 s ( 0.271 %)
Final printing                  :      0.000 s (15.143 %)
Total time                      :      0.003 s

Time for energy+gradient        :      4.960 s
Time for complete geometry iter :      5.535 s

         *************************************************************
         *                GEOMETRY OPTIMIZATION CYCLE   4            *
         *************************************************************
---------------------------------
CARTESIAN COORDINATES (ANGSTROEM)
---------------------------------
  C     -3.211258   -0.125986   -1.349455
  H     -3.213416    0.981784   -1.279682
  H     -2.290457   -0.496147   -0.853398
  C     -4.464760   -0.671167   -0.688336
  H     -4.518157   -0.395225    0.386298
  Br    -4.610650   -2.586664   -0.768908
  H     -5.379351   -0.267544   -1.165584
  H     -3.166348   -0.401881   -2.422885

----------------------------
CARTESIAN COORDINATES (A.U.)
----------------------------
  NO LB      ZA    FRAG     MASS         X           Y           Z
   0 C     6.0000    0    12.011   -6.068398   -0.238078   -2.550100
   1 H     1.0000    0     1.008   -6.072477    1.855303   -2.418249
   2 H     1.0000    0     1.008   -4.328337   -0.937581   -1.612689
   3 C     6.0000    0    12.011   -8.437174   -1.268323   -1.300766
   4 H     1.0000    0     1.008   -8.538080   -0.746867    0.729998
   5 Br   35.0000    0    79.900   -8.712866   -4.888086   -1.453026
   6 H     1.0000    0     1.008  -10.165499   -0.505585   -2.202634
   7 H     1.0000    0     1.008   -5.983531   -0.759444   -4.578590

--------------------------------
INTERNAL COORDINATES (ANGSTROEM)
--------------------------------
 C      0   0   0     0.000000000000     0.00000000     0.00000000
 H      1   0   0     1.109966925607     0.00000000     0.00000000
 H      1   2   0     1.109488707896   107.84725270     0.00000000
 C      1   2   3     1.518410405407   109.23006973   121.65105502
 H      4   1   2     1.110780462365   111.82190874   299.47283068
 Br     4   1   2     1.922733015897   113.70884662   178.78147800
 H      4   1   2     1.107769299944   111.29521274    58.64385401
 H      1   2   3     1.109228560261   108.00768899   243.00981453

---------------------------
INTERNAL COORDINATES (A.U.)
---------------------------
 C      0   0   0     0.000000000000     0.00000000     0.00000000
 H      1   0   0     2.097533507108     0.00000000     0.00000000
 H      1   2   0     2.096629806602   107.84725270     0.00000000
 C      1   2   3     2.869379825115   109.23006973   121.65105502
 H      4   1   2     2.099070868780   111.82190874   299.47283068
 Br     4   1   2     3.633438828693   113.70884662   178.78147800
 H      4   1   2     2.093380596460   111.29521274    58.64385401
 H      1   2   3     2.096138198817   108.00768899   243.00981453



           ************************************************************
           *        Program running with 4 parallel MPI-processes     *
           *              working on a common directory               *
           ************************************************************
------------------------------------------------------------------------------
                   ___                                                        
                  /   \      - P O W E R E D   B Y -                         
                 /     \                                                     
                 |  |  |   _    _      __       _____    __    __             
                 |  |  |  | |  | |    /  \     |  _  \  |  |  /  |          
                  \  \/   | |  | |   /    \    | | | |  |  | /  /          
                 / \  \   | |__| |  /  /\  \   | |_| |  |  |/  /          
                |  |  |   |  __  | /  /__\  \  |    /   |      \           
                |  |  |   | |  | | |   __   |  |    \   |  |\   \          
                \     /   | |  | | |  |  |  |  | |\  \  |  | \   \       
                 \___/    |_|  |_| |__|  |__|  |_| \__\ |__|  \__/        
                                                                              
                      - O R C A' S   B I G   F R I E N D -                    
                                      &                                       
                       - I N T E G R A L  F E E D E R -                       
                                                                              
 v1 FN, 2020, v2 2021, v3 2022-2024                                           
------------------------------------------------------------------------------


----------------------
SHARK INTEGRAL PACKAGE
----------------------

Number of atoms                             ...      8
Number of basis functions                   ...     97
Number of shells                            ...     45
Maximum angular momentum                    ...      2
Integral batch strategy                     ... SHARK/LIBINT Hybrid
RI-J (if used) integral strategy            ... SPLIT-RIJ (Revised 2003 algorithm where possible)
Printlevel                                  ...      1
Contraction scheme used                     ... SEGMENTED contraction
Prescreening option                         ... SCHWARTZ
   Thresh                                   ... 2.500e-11
   Tcut                                     ... 2.500e-12
   Tpresel                                  ... 2.500e-12 
Coulomb Range Separation                    ... NOT USED
Exchange Range Separation                   ... NOT USED
Multipole approximations                    ... NOT USED
Finite Nucleus Model                        ... NOT USED
CABS basis                                  ... NOT available
Auxiliary Coulomb fitting basis             ... AVAILABLE
   # of basis functions in Aux-J            ...    211
   # of shells in Aux-J                     ...     73
   Maximum angular momentum in Aux-J        ...      4
Auxiliary J/K fitting basis                 ... NOT available
Auxiliary Correlation fitting basis         ... NOT available
Auxiliary 'external' fitting basis          ... NOT available

Checking pre-screening integrals            ... done (  0.0 sec) Dimension = 45
Check shell pair data                       ... done (  0.0 sec)
Shell pair information
Shell pair cut-off parameter TPreSel        ...   2.5e-12
Total number of shell pairs                 ...      1035
Shell pairs after pre-screening             ...      1019
Total number of primitive shell pairs       ...      3736
Primitive shell pairs kept                  ...      3048
          la=0 lb=0:    295 shell pairs
          la=1 lb=0:    376 shell pairs
          la=1 lb=1:    135 shell pairs
          la=2 lb=0:    119 shell pairs
          la=2 lb=1:     79 shell pairs
          la=2 lb=2:     15 shell pairs

Calculating one electron integrals          ... done (  0.0 sec)
Calculating RI/J V-Matrix + Cholesky decomp.... done (  0.0 sec)
Calculating Nuclear repulsion               ... done (  0.0 sec) ENN=    164.402301691036 Eh

Diagonalization of the overlap matrix:
Smallest eigenvalue                        ... 4.062e-04
Time for diagonalization                   ...    0.001 sec
Threshold for overlap eigenvalues          ... 1.000e-07
Number of eigenvalues below threshold      ... 0
Time for construction of square roots      ...    0.003 sec
Total time needed                          ...    0.004 sec

-------------------
DFT GRID GENERATION
-------------------

General Integration Accuracy     IntAcc      ... 4.388
Radial Grid Type                 RadialGrid  ... OptM3 with GC (2021)
Angular Grid (max. ang.)         AngularGrid ... 4 (Lebedev-302)
Angular grid pruning method      GridPruning ... 4 (adaptive)
Weight generation scheme         WeightScheme... mBecke (2022)
Basis function cutoff            BFCut       ... 1.0000e-11
Integration weight cutoff        WCut        ... 1.0000e-14
Partially contracted basis set               ... off
Rotationally invariant grid construction     ... off
Angular grids for H and He will be reduced by one unit
Diffuse basis detected: some atoms will have their outermost
                        angular grid increased by 1.
Core-polarized basis detected: some atoms will have their core
                               angular grid increased.

Total number of grid points                  ...    40300
Total number of batches                      ...      634
Average number of points per batch           ...       63
Average number of grid points per atom       ...     5038
Initializing property integral containers    ... done (  0.0 sec)

SHARK setup successfully completed in   0.3 seconds

Maximum memory used throughout the entire STARTUP-calculation: 15.1 MB


           ************************************************************
           *        Program running with 4 parallel MPI-processes     *
           *              working on a common directory               *
           ************************************************************
Occupation numbers will be reassigned to an Aufbau configuration
             **** ENERGY FILE WAS UPDATED (job.en.tmp) ****
Finished Guess after   0.3 sec
Maximum memory used throughout the entire GUESS-calculation: 7.0 MB


           ************************************************************
           *        Program running with 4 parallel MPI-processes     *
           *              working on a common directory               *
           ************************************************************
--------------------
CPCM SOLVATION MODEL
--------------------
CPCM parameters:
  Epsilon                                         ...      35.6880
  Refrac                                          ...       1.3442
  Rsolv                                           ...       1.3000
  Surface type                                    ... GAUSSIAN VDW
  Discretization scheme                           ... Constant charge density
    Threshold for H atoms                         ...       5.0000 (charges/Ang^2)
    Threshold for non-H atoms                     ...       5.0000 (charges/Ang^2)
  Epsilon function type                           ...         CPCM
Solvent:                                          ... ACETONITRILE
SMD-CDS solvent descriptors:
  Soln                                            ...       1.3442
  Soln25                                          ...       1.3416
  Sola                                            ...       0.0700
  Solb                                            ...       0.3200
  Solg                                            ...      41.2500
  Solc                                            ...       0.0000
  Solh                                            ...       0.0000
Radii:
  Scheme                                          ... Element-dependent radii
  Radius for C  used is    3.4960 Bohr (=   1.8500 Ang.)
  Radius for H  used is    2.2677 Bohr (=   1.2000 Ang.)
  Radius for Br used is    5.7826 Bohr (=   3.0600 Ang.)
Calculating surface                               ...        done! (  0.0s)
Cavity surface points                             ...          917
Cavity Volume                                     ...     954.0675
Cavity Surface-area                               ...     494.7583
Calculating surface distance matrix               ...        done! (  0.0s)
Performing Cholesky decomposition & store         ...        done! (  0.0s)
Overall time for CPCM initialization              ...                 0.0s

----------------------------------------D-I-I-S--------------------------------------------
Iteration    Energy (Eh)           Delta-E    RMSDP     MaxDP     DIISErr   Damp  Time(sec)
-------------------------------------------------------------------------------------------
               ***  Starting incremental Fock matrix formation  ***
    1    -2652.5150563009051439     0.00e+00  3.56e-04  5.08e-03  1.89e-02  0.700   0.1
    2    -2652.5153675428382485    -3.11e-04  3.16e-04  4.01e-03  1.32e-02  0.700   0.1
                               ***Turning on AO-DIIS***
    3    -2652.5155828094966637    -2.15e-04  2.35e-04  3.33e-03  9.27e-03  0.700   0.1
    4    -2652.5157302595439432    -1.47e-04  5.74e-04  7.87e-03  6.49e-03  0.000   0.1
                              *** Initializing SOSCF ***
---------------------------------------S-O-S-C-F--------------------------------------
Iteration    Energy (Eh)           Delta-E    RMSDP     MaxDP     MaxGrad    Time(sec)
--------------------------------------------------------------------------------------
    5    -2652.5160804121251203    -3.50e-04  4.82e-05  1.12e-03  1.12e-03     0.1
               *** Restarting incremental Fock matrix formation ***
    6    -2652.5160833436079884    -2.93e-06  3.16e-05  7.87e-04  9.76e-05     0.1
    7    -2652.5160829673359331     3.76e-07  1.73e-05  3.88e-04  1.84e-04     0.1
    8    -2652.5160835870833580    -6.20e-07  3.12e-06  4.17e-05  1.02e-05     0.1
    9    -2652.5160835876272358    -5.44e-10  1.33e-06  3.39e-05  8.27e-06     0.1
                 **** Energy Check signals convergence ****

               *****************************************************
               *                     SUCCESS                       *
               *           SCF CONVERGED AFTER   9 CYCLES          *
               *****************************************************


SMD CDS free energy correction energy :                -1.92161     Kcal/mol
Total Energy after SMD CDS correction =             -2652.519145861 Eh
             **** ENERGY FILE WAS UPDATED (job.en.tmp) ****

----------------
TOTAL SCF ENERGY
----------------

Total Energy       :      -2652.51914586149360 Eh          -72178.71545 eV

Components:
Nuclear Repulsion  :        164.40230169103637 Eh            4473.61406 eV
Electronic Energy  :      -2816.91391745989222 Eh          -76652.12461 eV
One Electron Energy:      -4014.31825133608118 Eh         -109235.15303 eV
Two Electron Energy:       1197.40433387618896 Eh           32583.02841 eV
CPCM Dielectric    :         -0.00446781877128 Eh              -0.12158 eV
SMD CDS (Gcds)     :         -0.00306227386655 Eh              -0.08333 eV

Virial components:
Potential Energy   :      -5301.03693404781552 Eh         -144248.54843 eV
Kinetic Energy     :       2648.51778818632238 Eh           72069.83298 eV
Virial Ratio       :          2.00151079131619

DFT components:
N(Alpha)           :       26.000009115278 electrons
N(Beta)            :       26.000009115278 electrons
N(Total)           :       52.000018230555 electrons
E(X)               :     -101.205454790999 Eh       
E(C)               :       -2.259161210924 Eh       
E(XC)              :     -103.464616001923 Eh       

CPCM Solvation Model Properties:
Surface-charge          :         -0.01713386918374
Corrected charge        :          0.00000000000000
Outlying charge corr.   :          0.00002294881483 Eh               0.00062 eV
Free-energy (cav+disp)  :         -0.00306227386655 Eh              -0.08333 eV

---------------
SCF CONVERGENCE
---------------

  Last Energy change         ...    5.4388e-10  Tolerance :   1.0000e-08
  Last MAX-Density change    ...    3.3922e-05  Tolerance :   1.0000e-07
  Last RMS-Density change    ...    1.3310e-06  Tolerance :   5.0000e-09
  Last DIIS Error            ...    1.1202e-03  Tolerance :   5.0000e-07
  Last Orbital Gradient      ...    8.2691e-06  Tolerance :   1.0000e-05
  Last Orbital Rotation      ...    8.8011e-06  Tolerance :   1.0000e-05


Total SCF time: 0 days 0 hours 0 min 1 sec 
Finished LeanSCF after   1.5 sec

Maximum memory used throughout the entire LEANSCF-calculation: 9.6 MB


           ************************************************************
           *        Program running with 4 parallel MPI-processes     *
           *              working on a common directory               *
           ************************************************************

------------------------------------------------------------------------------
                         ORCA PROPERTY INTEGRAL CALCULATIONS
------------------------------------------------------------------------------

GBWName                                   ... job.gbw
Number of atoms                           ...      8
Number of basis functions                 ...     97
Max core memory                           ...   3000 MB

Dipole integrals                          ... YES
Quadrupole integrals                      ...  NO
Linear momentum integrals                 ...  NO
Angular momentum integrals                ...  NO
Higher moments length integrals           ...  NO
Higher moments velocity integrals         ...  NO
Kinetic energy integrals                  ...  NO
GIAO right hand sides                     ...  NO
GIAO dipole derivative integrals          ...  NO
SOC integrals                             ...  NO
EPR diamagnetic integrals (GIAO)          ...  NO
EPR gauge integrals                       ...  NO
Field gradient integrals                  ...  NO (   0 nuclei)
Spin-dipole/Fermi contact integrals       ...  NO (   0 nuclei)
Contact density integrals                 ...  NO (   0 nuclei)
Nucleus-orbit integrals                   ...  NO (   0 nuclei)
Geometric perturbations                   ...  NO (   8 nuclei)

Choice of electric origin   ... Center of mass
Position of electric origin ... ( -8.3126, -3.7605, -1.5832) 
Choice of magnetic origin   ... GIAO
Position of magnetic origin ... (  0.0000,  0.0000,  0.0000) 

Calculating integrals                     ... Electric Dipole (Length)     done (  0.0 sec)

Property integrals calculated in   0.0 sec

Maximum memory used throughout the entire PROPINT-calculation: 7.1 MB

-------------------------   --------------------
FINAL SINGLE POINT ENERGY     -2652.519145861494
-------------------------   --------------------



           ************************************************************
           *        Program running with 4 parallel MPI-processes     *
           *              working on a common directory               *
           ************************************************************
------------------------------------------------------------------------------
                         ORCA SCF GRADIENT CALCULATION
------------------------------------------------------------------------------

Nuc. rep. gradient        (SHARK) ... done (  0.0 sec)
HCore & Overlap gradient  (SHARK) ... done (  0.0 sec)
Split-RIJ-J gradient      (SHARK) ... done (  0.2 sec)
XC gradient                       ... done (  0.3 sec)
CPCM gradient                     ... done (  0.1 sec)
SMD gradient                      ... done (  0.0 sec)

------------------
CARTESIAN GRADIENT
------------------

   1   C   :   -0.000222349    0.003431341   -0.000176252
   2   H   :    0.000562584   -0.000419304   -0.000255817
   3   H   :    0.000048399   -0.000231318    0.000287903
   4   C   :    0.000718223   -0.022445617   -0.003300471
   5   H   :   -0.001357880    0.001703449    0.001664471
   6   Br  :    0.000789254    0.017283347    0.000773910
   7   H   :   -0.000176999    0.001281371    0.000989969
   8   H   :   -0.000361232   -0.000603269    0.000016286

Difference to translation invariance:
           :    0.0000000005    0.0000000005    0.0000000000

Difference to rotation invariance:
           :    0.0000411734   -0.0000081813   -0.0001059073

Norm of the Cartesian gradient     ...    0.0289545456
RMS gradient                       ...    0.0059103219
MAX gradient                       ...    0.0224456166

-------
TIMINGS
-------

Total SCF gradient time     ....        0.608 sec

Densities                   ....       0.000 sec  (  0.0%)
One electron gradient       ....       0.018 sec  (  3.0%)
RI-J Coulomb gradient       ....       0.173 sec  ( 28.4%)
XC gradient                 ....       0.273 sec  ( 44.9%)
CPCM gradient               ....       0.078 sec  ( 12.9%)
   A-Matrix (El+Nuc)        ....       0.024 sec  (  3.9%)
   Potential                ....       0.054 sec  (  8.9%)
SMD gradient                ....       0.002 sec  (  0.3%)

Maximum memory used throughout the entire SCFGRAD-calculation: 12.1 MB
------------------------------------------------------------------------------
                         ORCA GEOMETRY RELAXATION STEP
------------------------------------------------------------------------------

Reading the OPT-File                    .... done
Getting information on internals        .... done
Copying old internal coords+grads       .... done
Making the new internal coordinates     .... (2022 redundants) done
Validating the new internal coordinates .... (2022 redundants) done
Calculating the B-matrix                .... done
Calculating the G,G- and P matrices     .... done
Transforming gradient to internals      .... done
Projecting the internal gradient        .... done
Number of atoms                         ....   8
Number of internal coordinates          ....  25
Current Energy                          .... -2652.519145861 Eh
Current gradient norm                   ....     0.028954546 Eh/bohr
Maximum allowed component of the step   ....  0.300
Current trust radius                    ....  0.675
Updating the Hessian (BFGS)             .... done
Forming the augmented Hessian           .... done
Diagonalizing the augmented Hessian     .... done
Last element of RFO vector              ....  0.996454437
Lowest eigenvalues of augmented Hessian:
 -0.001320381  0.014290633  0.093148405  0.130758789  0.138004086
Length of the computed step             ....  0.084433516
The final length of the internal step   ....  0.084433516
Converting the step to Cartesian space:
 Initial RMS(Int)=    0.0168867033
Transforming coordinates:
 Iter   0:  RMS(Cart)=    0.0152922413 RMS(Int)=    0.0168463118
done
Storing new coordinates                 .... done
The predicted energy change is          ....    -0.000664897
Previously predicted energy change      ....    -0.003597430
Actually observed energy change         ....    -0.004505140
Ratio of predicted to observed change   ....     1.252321767
New trust radius                        ....     0.675000000

                                .--------------------.
          ----------------------|Geometry convergence|-------------------------
          Item                value                   Tolerance       Converged
          ---------------------------------------------------------------------
          Energy change      -0.0045051403            0.0000050000      NO
          RMS gradient        0.0036066697            0.0001000000      NO
          MAX gradient        0.0173089478            0.0003000000      NO
          RMS step            0.0168867033            0.0020000000      NO
          MAX step            0.0675354874            0.0040000000      NO
          ........................................................
          Max(Bonds)      0.0357      Max(Angles)    1.21
          Max(Dihed)        1.48      Max(Improp)    0.00
          ---------------------------------------------------------------------

The optimization has not yet converged - more geometry cycles are needed


    ---------------------------------------------------------------------------
                         Redundant Internal Coordinates
                            (Angstroem and degrees)

        Definition                    Value    dE/dq     Step     New-Value
    ----------------------------------------------------------------------------
     1. B(H   1,C   0)                1.1100 -0.000434  0.0009    1.1108   
     2. B(H   2,C   0)                1.1095  0.000244 -0.0005    1.1090   
     3. B(C   3,C   0)                1.5184  0.000859 -0.0003    1.5181   
     4. B(H   4,C   3)                1.1108  0.002098 -0.0010    1.1098   
     5. B(Br  5,C   3)                1.9227 -0.017309  0.0357    1.9585   
     6. B(H   6,C   3)                1.1078  0.000185 -0.0035    1.1043   
     7. B(H   7,C   0)                1.1092  0.000120  0.0000    1.1092   
     8. A(H   1,C   0,H   7)          108.01  0.000139   -0.18    107.83   
     9. A(H   1,C   0,C   3)          109.23  0.001231   -0.38    108.85   
    10. A(C   3,C   0,H   7)          111.44 -0.001014    0.31    111.75   
    11. A(H   2,C   0,H   7)          108.43  0.000347    0.03    108.46   
    12. A(H   2,C   0,C   3)          111.76 -0.000482    0.26    112.01   
    13. A(H   1,C   0,H   2)          107.85 -0.000185   -0.06    107.79   
    14. A(C   0,C   3,H   6)          111.30 -0.000545    0.07    111.36   
    15. A(H   4,C   3,Br  5)          106.52 -0.000198   -0.20    106.32   
    16. A(C   0,C   3,Br  5)          113.71  0.002350   -0.79    112.92   
    17. A(Br  5,C   3,H   6)          106.40  0.001348    0.27    106.67   
    18. A(H   4,C   3,H   6)          106.65 -0.002670    1.21    107.86   
    19. A(C   0,C   3,H   4)          111.82 -0.000495   -0.76    111.07   
    20. D(H   4,C   3,C   0,H   2)     58.73  0.000746   -0.54     58.19   
    21. D(H   4,C   3,C   0,H   7)   -179.78  0.000133   -0.10   -179.88   
    22. D(Br  5,C   3,C   0,H   1)    178.78 -0.000604    1.20    179.98   
    23. D(Br  5,C   3,C   0,H   2)    -61.96 -0.000331    1.04    -60.92   
    24. D(Br  5,C   3,C   0,H   7)     59.53 -0.000943    1.48     61.01   
    25. D(H   4,C   3,C   0,H   1)    -60.53  0.000472   -0.38    -60.91   
    ----------------------------------------------------------------------------

Geometry step timings:
Preparation and reading OPT file:      0.000 s ( 8.763 %)
Internal coordinates            :      0.000 s ( 0.628 %)
B/P matrices and projection     :      0.000 s ( 7.672 %)
Hessian update/contruction      :      0.002 s (52.877 %)
Making the step                 :      0.000 s (10.913 %)
Converting the step to Cartesian:      0.000 s ( 0.827 %)
Storing new data                :      0.000 s ( 1.389 %)
Checking convergence            :      0.000 s ( 0.231 %)
Final printing                  :      0.001 s (16.601 %)
Total time                      :      0.003 s

Time for energy+gradient        :      4.865 s
Time for complete geometry iter :      5.421 s

         *************************************************************
         *                GEOMETRY OPTIMIZATION CYCLE   5            *
         *************************************************************
---------------------------------
CARTESIAN COORDINATES (ANGSTROEM)
---------------------------------
  C     -3.213465   -0.126875   -1.348638
  H     -3.209680    0.981252   -1.271250
  H     -2.294949   -0.504155   -0.854826
  C     -4.473324   -0.660138   -0.690607
  H     -4.509049   -0.385762    0.384154
  Br    -4.603550   -2.612990   -0.761472
  H     -5.382447   -0.261878   -1.174626
  H     -3.167933   -0.392283   -2.424686

----------------------------
CARTESIAN COORDINATES (A.U.)
----------------------------
  NO LB      ZA    FRAG     MASS         X           Y           Z
   0 C     6.0000    0    12.011   -6.072569   -0.239759   -2.548556
   1 H     1.0000    0     1.008   -6.065417    1.854297   -2.402314
   2 H     1.0000    0     1.008   -4.336825   -0.952716   -1.615387
   3 C     6.0000    0    12.011   -8.453357   -1.247480   -1.305058
   4 H     1.0000    0     1.008   -8.520868   -0.728984    0.725946
   5 Br   35.0000    0    79.900   -8.699448   -4.937835   -1.438973
   6 H     1.0000    0     1.008  -10.171351   -0.494878   -2.219722
   7 H     1.0000    0     1.008   -5.986527   -0.741307   -4.581992

--------------------------------
INTERNAL COORDINATES (ANGSTROEM)
--------------------------------
 C      0   0   0     0.000000000000     0.00000000     0.00000000
 H      1   0   0     1.110831931170     0.00000000     0.00000000
 H      1   2   0     1.108991701821   107.79003913     0.00000000
 C      1   2   3     1.518096921704   108.84720290   121.70175679
 H      4   1   2     1.109806287683   111.07811094   299.15199190
 Br     4   1   2     1.958471256916   112.93965805   179.92316855
 H      4   1   2     1.104259938946   111.50355469    59.65391532
 H      1   2   3     1.109230959337   107.82626781   243.10170920

---------------------------
INTERNAL COORDINATES (A.U.)
---------------------------
 C      0   0   0     0.000000000000     0.00000000     0.00000000
 H      1   0   0     2.099168130727     0.00000000     0.00000000
 H      1   2   0     2.095690601234   107.79003913     0.00000000
 C      1   2   3     2.868787426769   108.84720290   121.70175679
 H      4   1   2     2.097229945425   111.07811094   299.15199190
 Br     4   1   2     3.700974316727   112.93965805   179.92316855
 H      4   1   2     2.086748865269   111.50355469    59.65391532
 H      1   2   3     2.096142732414   107.82626781   243.10170920



           ************************************************************
           *        Program running with 4 parallel MPI-processes     *
           *              working on a common directory               *
           ************************************************************
------------------------------------------------------------------------------
                   ___                                                        
                  /   \      - P O W E R E D   B Y -                         
                 /     \                                                     
                 |  |  |   _    _      __       _____    __    __             
                 |  |  |  | |  | |    /  \     |  _  \  |  |  /  |          
                  \  \/   | |  | |   /    \    | | | |  |  | /  /          
                 / \  \   | |__| |  /  /\  \   | |_| |  |  |/  /          
                |  |  |   |  __  | /  /__\  \  |    /   |      \           
                |  |  |   | |  | | |   __   |  |    \   |  |\   \          
                \     /   | |  | | |  |  |  |  | |\  \  |  | \   \       
                 \___/    |_|  |_| |__|  |__|  |_| \__\ |__|  \__/        
                                                                              
                      - O R C A' S   B I G   F R I E N D -                    
                                      &                                       
                       - I N T E G R A L  F E E D E R -                       
                                                                              
 v1 FN, 2020, v2 2021, v3 2022-2024                                           
------------------------------------------------------------------------------


----------------------
SHARK INTEGRAL PACKAGE
----------------------

Number of atoms                             ...      8
Number of basis functions                   ...     97
Number of shells                            ...     45
Maximum angular momentum                    ...      2
Integral batch strategy                     ... SHARK/LIBINT Hybrid
RI-J (if used) integral strategy            ... SPLIT-RIJ (Revised 2003 algorithm where possible)
Printlevel                                  ...      1
Contraction scheme used                     ... SEGMENTED contraction
Prescreening option                         ... SCHWARTZ
   Thresh                                   ... 2.500e-11
   Tcut                                     ... 2.500e-12
   Tpresel                                  ... 2.500e-12 
Coulomb Range Separation                    ... NOT USED
Exchange Range Separation                   ... NOT USED
Multipole approximations                    ... NOT USED
Finite Nucleus Model                        ... NOT USED
CABS basis                                  ... NOT available
Auxiliary Coulomb fitting basis             ... AVAILABLE
   # of basis functions in Aux-J            ...    211
   # of shells in Aux-J                     ...     73
   Maximum angular momentum in Aux-J        ...      4
Auxiliary J/K fitting basis                 ... NOT available
Auxiliary Correlation fitting basis         ... NOT available
Auxiliary 'external' fitting basis          ... NOT available

Checking pre-screening integrals            ... done (  0.0 sec) Dimension = 45
Check shell pair data                       ... done (  0.0 sec)
Shell pair information
Shell pair cut-off parameter TPreSel        ...   2.5e-12
Total number of shell pairs                 ...      1035
Shell pairs after pre-screening             ...      1019
Total number of primitive shell pairs       ...      3736
Primitive shell pairs kept                  ...      3046
          la=0 lb=0:    295 shell pairs
          la=1 lb=0:    376 shell pairs
          la=1 lb=1:    135 shell pairs
          la=2 lb=0:    119 shell pairs
          la=2 lb=1:     79 shell pairs
          la=2 lb=2:     15 shell pairs

Calculating one electron integrals          ... done (  0.0 sec)
Calculating RI/J V-Matrix + Cholesky decomp.... done (  0.0 sec)
Calculating Nuclear repulsion               ... done (  0.0 sec) ENN=    162.848535432779 Eh

Diagonalization of the overlap matrix:
Smallest eigenvalue                        ... 4.085e-04
Time for diagonalization                   ...    0.001 sec
Threshold for overlap eigenvalues          ... 1.000e-07
Number of eigenvalues below threshold      ... 0
Time for construction of square roots      ...    0.003 sec
Total time needed                          ...    0.005 sec

-------------------
DFT GRID GENERATION
-------------------

General Integration Accuracy     IntAcc      ... 4.388
Radial Grid Type                 RadialGrid  ... OptM3 with GC (2021)
Angular Grid (max. ang.)         AngularGrid ... 4 (Lebedev-302)
Angular grid pruning method      GridPruning ... 4 (adaptive)
Weight generation scheme         WeightScheme... mBecke (2022)
Basis function cutoff            BFCut       ... 1.0000e-11
Integration weight cutoff        WCut        ... 1.0000e-14
Partially contracted basis set               ... off
Rotationally invariant grid construction     ... off
Angular grids for H and He will be reduced by one unit
Diffuse basis detected: some atoms will have their outermost
                        angular grid increased by 1.
Core-polarized basis detected: some atoms will have their core
                               angular grid increased.

Total number of grid points                  ...    40307
Total number of batches                      ...      635
Average number of points per batch           ...       63
Average number of grid points per atom       ...     5038
Initializing property integral containers    ... done (  0.0 sec)

SHARK setup successfully completed in   0.3 seconds

Maximum memory used throughout the entire STARTUP-calculation: 15.2 MB


           ************************************************************
           *        Program running with 4 parallel MPI-processes     *
           *              working on a common directory               *
           ************************************************************
Occupation numbers will be reassigned to an Aufbau configuration
             **** ENERGY FILE WAS UPDATED (job.en.tmp) ****
Finished Guess after   0.4 sec
Maximum memory used throughout the entire GUESS-calculation: 7.0 MB


           ************************************************************
           *        Program running with 4 parallel MPI-processes     *
           *              working on a common directory               *
           ************************************************************
--------------------
CPCM SOLVATION MODEL
--------------------
CPCM parameters:
  Epsilon                                         ...      35.6880
  Refrac                                          ...       1.3442
  Rsolv                                           ...       1.3000
  Surface type                                    ... GAUSSIAN VDW
  Discretization scheme                           ... Constant charge density
    Threshold for H atoms                         ...       5.0000 (charges/Ang^2)
    Threshold for non-H atoms                     ...       5.0000 (charges/Ang^2)
  Epsilon function type                           ...         CPCM
Solvent:                                          ... ACETONITRILE
SMD-CDS solvent descriptors:
  Soln                                            ...       1.3442
  Soln25                                          ...       1.3416
  Sola                                            ...       0.0700
  Solb                                            ...       0.3200
  Solg                                            ...      41.2500
  Solc                                            ...       0.0000
  Solh                                            ...       0.0000
Radii:
  Scheme                                          ... Element-dependent radii
  Radius for C  used is    3.4960 Bohr (=   1.8500 Ang.)
  Radius for H  used is    2.2677 Bohr (=   1.2000 Ang.)
  Radius for Br used is    5.7826 Bohr (=   3.0600 Ang.)
Calculating surface                               ...        done! (  0.0s)
Cavity surface points                             ...          918
Cavity Volume                                     ...     957.1719
Cavity Surface-area                               ...     496.4390
Calculating surface distance matrix               ...        done! (  0.0s)
Performing Cholesky decomposition & store         ...        done! (  0.0s)
Overall time for CPCM initialization              ...                 0.0s

----------------------------------------D-I-I-S--------------------------------------------
Iteration    Energy (Eh)           Delta-E    RMSDP     MaxDP     DIISErr   Damp  Time(sec)
-------------------------------------------------------------------------------------------
               ***  Starting incremental Fock matrix formation  ***
    1    -2652.5166220451865229     0.00e+00  1.77e-04  2.56e-03  8.88e-03  0.700   0.1
    2    -2652.5167119252751036    -8.99e-05  1.62e-04  2.34e-03  6.22e-03  0.700   0.1
                               ***Turning on AO-DIIS***
    3    -2652.5167785273442860    -6.66e-05  1.22e-04  1.75e-03  4.35e-03  0.700   0.1
                              *** Initializing SOSCF ***
---------------------------------------S-O-S-C-F--------------------------------------
Iteration    Energy (Eh)           Delta-E    RMSDP     MaxDP     MaxGrad    Time(sec)
--------------------------------------------------------------------------------------
    4    -2652.5168246976122646    -4.62e-05  2.98e-04  4.09e-03  3.05e-03     0.1
               *** Restarting incremental Fock matrix formation ***
    5    -2652.5169337808542878    -1.09e-04  4.70e-05  7.57e-04  1.62e-04     0.1
    6    -2652.5169329844334243     7.96e-07  2.48e-05  5.25e-04  2.83e-04     0.1
    7    -2652.5169342388030600    -1.25e-06  5.49e-06  9.13e-05  1.40e-05     0.1
    8    -2652.5169342356789457     3.12e-09  2.71e-06  5.66e-05  1.55e-05     0.1
                 **** Energy Check signals convergence ****

               *****************************************************
               *                     SUCCESS                       *
               *           SCF CONVERGED AFTER   8 CYCLES          *
               *****************************************************


SMD CDS free energy correction energy :                -1.92388     Kcal/mol
Total Energy after SMD CDS correction =             -2652.520000137 Eh
             **** ENERGY FILE WAS UPDATED (job.en.tmp) ****

----------------
TOTAL SCF ENERGY
----------------

Total Energy       :      -2652.52000013735324 Eh          -72178.73870 eV

Components:
Nuclear Repulsion  :        162.84853543277950 Eh            4431.33393 eV
Electronic Energy  :      -2815.36072795670225 Eh          -76609.86018 eV
One Electron Energy:      -4011.25271361578780 Eh         -109151.73550 eV
Two Electron Energy:       1195.89198565908532 Eh           32541.87533 eV
CPCM Dielectric    :         -0.00474171175609 Eh              -0.12903 eV
SMD CDS (Gcds)     :         -0.00306590167437 Eh              -0.08343 eV

Virial components:
Potential Energy   :      -5300.99669011612059 Eh         -144247.45334 eV
Kinetic Energy     :       2648.47668997876690 Eh           72068.71464 eV
Virial Ratio       :          2.00152665499148

DFT components:
N(Alpha)           :       26.000009974705 electrons
N(Beta)            :       26.000009974705 electrons
N(Total)           :       52.000019949410 electrons
E(X)               :     -101.196645366562 Eh       
E(C)               :       -2.257808837366 Eh       
E(XC)              :     -103.454454203928 Eh       

CPCM Solvation Model Properties:
Surface-charge          :         -0.01710861336197
Corrected charge        :         -0.00000000000000
Outlying charge corr.   :          0.00002285046221 Eh               0.00062 eV
Free-energy (cav+disp)  :         -0.00306590167437 Eh              -0.08343 eV

---------------
SCF CONVERGENCE
---------------

  Last Energy change         ...   -3.1241e-09  Tolerance :   1.0000e-08
  Last MAX-Density change    ...    5.6611e-05  Tolerance :   1.0000e-07
  Last RMS-Density change    ...    2.7109e-06  Tolerance :   5.0000e-09
  Last DIIS Error            ...    3.0457e-03  Tolerance :   5.0000e-07
  Last Orbital Gradient      ...    1.5525e-05  Tolerance :   1.0000e-05
  Last Orbital Rotation      ...    1.1612e-05  Tolerance :   1.0000e-05


Total SCF time: 0 days 0 hours 0 min 1 sec 
Finished LeanSCF after   1.4 sec

Maximum memory used throughout the entire LEANSCF-calculation: 9.7 MB


           ************************************************************
           *        Program running with 4 parallel MPI-processes     *
           *              working on a common directory               *
           ************************************************************

------------------------------------------------------------------------------
                         ORCA PROPERTY INTEGRAL CALCULATIONS
------------------------------------------------------------------------------

GBWName                                   ... job.gbw
Number of atoms                           ...      8
Number of basis functions                 ...     97
Max core memory                           ...   3000 MB

Dipole integrals                          ... YES
Quadrupole integrals                      ...  NO
Linear momentum integrals                 ...  NO
Angular momentum integrals                ...  NO
Higher moments length integrals           ...  NO
Higher moments velocity integrals         ...  NO
Kinetic energy integrals                  ...  NO
GIAO right hand sides                     ...  NO
GIAO dipole derivative integrals          ...  NO
SOC integrals                             ...  NO
EPR diamagnetic integrals (GIAO)          ...  NO
EPR gauge integrals                       ...  NO
Field gradient integrals                  ...  NO (   0 nuclei)
Spin-dipole/Fermi contact integrals       ...  NO (   0 nuclei)
Contact density integrals                 ...  NO (   0 nuclei)
Nucleus-orbit integrals                   ...  NO (   0 nuclei)
Geometric perturbations                   ...  NO (   8 nuclei)

Choice of electric origin   ... Center of mass
Position of electric origin ... ( -8.3049, -3.7946, -1.5733) 
Choice of magnetic origin   ... GIAO
Position of magnetic origin ... (  0.0000,  0.0000,  0.0000) 

Calculating integrals                     ... Electric Dipole (Length)     done (  0.0 sec)

Property integrals calculated in   0.0 sec

Maximum memory used throughout the entire PROPINT-calculation: 7.1 MB

-------------------------   --------------------
FINAL SINGLE POINT ENERGY     -2652.520000137353
-------------------------   --------------------



           ************************************************************
           *        Program running with 4 parallel MPI-processes     *
           *              working on a common directory               *
           ************************************************************
------------------------------------------------------------------------------
                         ORCA SCF GRADIENT CALCULATION
------------------------------------------------------------------------------

Nuc. rep. gradient        (SHARK) ... done (  0.0 sec)
HCore & Overlap gradient  (SHARK) ... done (  0.0 sec)
Split-RIJ-J gradient      (SHARK) ... done (  0.2 sec)
XC gradient                       ... done (  0.3 sec)
CPCM gradient                     ... done (  0.1 sec)
SMD gradient                      ... done (  0.0 sec)

------------------
CARTESIAN GRADIENT
------------------

   1   C   :    0.000516784    0.002864346    0.000732766
   2   H   :    0.000461591   -0.000199845   -0.000225564
   3   H   :    0.000104614   -0.000109346   -0.000029688
   4   C   :   -0.004383472   -0.012152471   -0.003226337
   5   H   :    0.000586279    0.002420122    0.001309195
   6   Br  :    0.000935319    0.005725768    0.000310597
   7   H   :    0.001997630    0.001843511    0.001179820
   8   H   :   -0.000218746   -0.000392085   -0.000050788

Difference to translation invariance:
           :    0.0000000005   -0.0000000002   -0.0000000001

Difference to rotation invariance:
           :   -0.0000137122    0.0000068805   -0.0000431179

Norm of the Cartesian gradient     ...    0.0154044928
RMS gradient                       ...    0.0031444289
MAX gradient                       ...    0.0121524713

-------
TIMINGS
-------

Total SCF gradient time     ....        0.579 sec

Densities                   ....       0.000 sec  (  0.0%)
One electron gradient       ....       0.012 sec  (  2.0%)
RI-J Coulomb gradient       ....       0.161 sec  ( 27.9%)
XC gradient                 ....       0.261 sec  ( 45.1%)
CPCM gradient               ....       0.076 sec  ( 13.1%)
   A-Matrix (El+Nuc)        ....       0.024 sec  (  4.1%)
   Potential                ....       0.052 sec  (  9.0%)
SMD gradient                ....       0.002 sec  (  0.3%)

Maximum memory used throughout the entire SCFGRAD-calculation: 12.1 MB
------------------------------------------------------------------------------
                         ORCA GEOMETRY RELAXATION STEP
------------------------------------------------------------------------------

Reading the OPT-File                    .... done
Getting information on internals        .... done
Copying old internal coords+grads       .... done
Making the new internal coordinates     .... (2022 redundants) done
Validating the new internal coordinates .... (2022 redundants) done
Calculating the B-matrix                .... done
Calculating the G,G- and P matrices     .... done
Transforming gradient to internals      .... done
Projecting the internal gradient        .... done
Number of atoms                         ....   8
Number of internal coordinates          ....  25
Current Energy                          .... -2652.520000137 Eh
Current gradient norm                   ....     0.015404493 Eh/bohr
Maximum allowed component of the step   ....  0.300
Current trust radius                    ....  0.675
Updating the Hessian (BFGS)             .... done
Forming the augmented Hessian           .... done
Diagonalizing the augmented Hessian     .... done
Last element of RFO vector              ....  0.998756356
Lowest eigenvalues of augmented Hessian:
 -0.000363379  0.014270533  0.083001468  0.129062997  0.138038784
Length of the computed step             ....  0.049919290
The final length of the internal step   ....  0.049919290
Converting the step to Cartesian space:
 Initial RMS(Int)=    0.0099838580
Transforming coordinates:
 Iter   0:  RMS(Cart)=    0.0086512444 RMS(Int)=    1.2544520533
done
Storing new coordinates                 .... done
The predicted energy change is          ....    -0.000182142
Previously predicted energy change      ....    -0.000664897
Actually observed energy change         ....    -0.000854276
Ratio of predicted to observed change   ....     1.284824814
New trust radius                        ....     0.675000000

                                .--------------------.
          ----------------------|Geometry convergence|-------------------------
          Item                value                   Tolerance       Converged
          ---------------------------------------------------------------------
          Energy change      -0.0008542759            0.0000050000      NO
          RMS gradient        0.0017520689            0.0001000000      NO
          MAX gradient        0.0057817115            0.0003000000      NO
          RMS step            0.0099838580            0.0020000000      NO
          MAX step            0.0370679847            0.0040000000      NO
          ........................................................
          Max(Bonds)      0.0196      Max(Angles)    0.78
          Max(Dihed)        0.84      Max(Improp)    0.00
          ---------------------------------------------------------------------

The optimization has not yet converged - more geometry cycles are needed


    ---------------------------------------------------------------------------
                         Redundant Internal Coordinates
                            (Angstroem and degrees)

        Definition                    Value    dE/dq     Step     New-Value
    ----------------------------------------------------------------------------
     1. B(H   1,C   0)                1.1108 -0.000212  0.0007    1.1115   
     2. B(H   2,C   0)                1.1090  0.000110 -0.0003    1.1087   
     3. B(C   3,C   0)                1.5181  0.001291 -0.0019    1.5162   
     4. B(H   4,C   3)                1.1098  0.001847 -0.0023    1.1075   
     5. B(Br  5,C   3)                1.9585 -0.005782  0.0196    1.9781   
     6. B(H   6,C   3)                1.1043 -0.001497  0.0026    1.1069   
     7. B(H   7,C   0)                1.1092  0.000133 -0.0002    1.1090   
     8. A(H   1,C   0,H   7)          107.83  0.000011   -0.10    107.72   
     9. A(H   1,C   0,C   3)          108.85  0.000937   -0.35    108.49   
    10. A(C   3,C   0,H   7)          111.75 -0.000734    0.28    112.03   
    11. A(H   2,C   0,H   7)          108.46  0.000074    0.08    108.53   
    12. A(H   2,C   0,C   3)          112.01 -0.000033    0.10    112.12   
    13. A(H   1,C   0,H   2)          107.79 -0.000242   -0.02    107.77   
    14. A(C   0,C   3,H   6)          111.50 -0.001469    0.34    111.84   
    15. A(H   4,C   3,Br  5)          106.23  0.001434   -0.51    105.71   
    16. A(C   0,C   3,Br  5)          112.94  0.001252   -0.54    112.40   
    17. A(Br  5,C   3,H   6)          106.80  0.003877   -0.58    106.22   
    18. A(H   4,C   3,H   6)          107.99 -0.001564    0.78    108.77   
    19. A(C   0,C   3,H   4)          111.08 -0.003276    0.22    111.30   
    20. D(H   4,C   3,C   0,H   2)     58.25  0.000421   -0.41     57.84   
    21. D(H   4,C   3,C   0,H   7)   -179.82 -0.000039   -0.03   -179.85   
    22. D(Br  5,C   3,C   0,H   1)    179.92 -0.000259    0.66    180.59   
    23. D(Br  5,C   3,C   0,H   2)    -60.98  0.000031    0.47    -60.52   
    24. D(Br  5,C   3,C   0,H   7)     60.95 -0.000428    0.84     61.79   
    25. D(H   4,C   3,C   0,H   1)    -60.85  0.000130   -0.21    -61.06   
    ----------------------------------------------------------------------------

Geometry step timings:
Preparation and reading OPT file:      0.000 s (13.778 %)
Internal coordinates            :      0.000 s ( 0.667 %)
B/P matrices and projection     :      0.000 s ( 8.133 %)
Hessian update/contruction      :      0.001 s (50.311 %)
Making the step                 :      0.000 s ( 4.933 %)
Converting the step to Cartesian:      0.000 s ( 1.022 %)
Storing new data                :      0.000 s ( 1.600 %)
Checking convergence            :      0.000 s ( 0.267 %)
Final printing                  :      0.000 s (19.156 %)
Total time                      :      0.002 s

Time for energy+gradient        :      4.778 s
Time for complete geometry iter :      5.397 s

         *************************************************************
         *                GEOMETRY OPTIMIZATION CYCLE   6            *
         *************************************************************
---------------------------------
CARTESIAN COORDINATES (ANGSTROEM)
---------------------------------
  C     -3.213240   -0.127449   -1.348968
  H     -3.205003    0.980891   -1.265793
  H     -2.296170   -0.510410   -0.857537
  C     -4.474741   -0.649853   -0.689765
  H     -4.507909   -0.383332    0.384657
  Br    -4.599619   -2.622884   -0.755953
  H     -5.388132   -0.264333   -1.181928
  H     -3.169583   -0.385459   -2.426663

----------------------------
CARTESIAN COORDINATES (A.U.)
----------------------------
  NO LB      ZA    FRAG     MASS         X           Y           Z
   0 C     6.0000    0    12.011   -6.072144   -0.240843   -2.549180
   1 H     1.0000    0     1.008   -6.056579    1.853615   -2.392002
   2 H     1.0000    0     1.008   -4.339132   -0.964535   -1.620509
   3 C     6.0000    0    12.011   -8.456035   -1.228045   -1.303468
   4 H     1.0000    0     1.008   -8.518714   -0.724392    0.726896
   5 Br   35.0000    0    79.900   -8.692020   -4.956533   -1.428545
   6 H     1.0000    0     1.008  -10.182095   -0.499517   -2.233520
   7 H     1.0000    0     1.008   -5.989643   -0.728411   -4.585728

--------------------------------
INTERNAL COORDINATES (ANGSTROEM)
--------------------------------
 C      0   0   0     0.000000000000     0.00000000     0.00000000
 H      1   0   0     1.111486559728     0.00000000     0.00000000
 H      1   2   0     1.108684980263   107.76668661     0.00000000
 C      1   2   3     1.516192308851   108.49398660   121.60418944
 H      4   1   2     1.107481951272   111.33356137   298.96148720
 Br     4   1   2     1.978086789600   112.43578303   180.56497027
 H      4   1   2     1.106857591427   111.91692924    61.01611330
 H      1   2   3     1.109008782305   107.72315821   243.07880402

---------------------------
INTERNAL COORDINATES (A.U.)
---------------------------
 C      0   0   0     0.000000000000     0.00000000     0.00000000
 H      1   0   0     2.100405199419     0.00000000     0.00000000
 H      1   2   0     2.095110981488   107.76668661     0.00000000
 C      1   2   3     2.865188230087   108.49398660   121.60418944
 H      4   1   2     2.092837586164   111.33356137   298.96148720
 Br     4   1   2     3.738042301471   112.43578303   180.56497027
 H      4   1   2     2.091657717049   111.91692924    61.01611330
 H      1   2   3     2.095722878670   107.72315821   243.07880402



           ************************************************************
           *        Program running with 4 parallel MPI-processes     *
           *              working on a common directory               *
           ************************************************************
------------------------------------------------------------------------------
                   ___                                                        
                  /   \      - P O W E R E D   B Y -                         
                 /     \                                                     
                 |  |  |   _    _      __       _____    __    __             
                 |  |  |  | |  | |    /  \     |  _  \  |  |  /  |          
                  \  \/   | |  | |   /    \    | | | |  |  | /  /          
                 / \  \   | |__| |  /  /\  \   | |_| |  |  |/  /          
                |  |  |   |  __  | /  /__\  \  |    /   |      \           
                |  |  |   | |  | | |   __   |  |    \   |  |\   \          
                \     /   | |  | | |  |  |  |  | |\  \  |  | \   \       
                 \___/    |_|  |_| |__|  |__|  |_| \__\ |__|  \__/        
                                                                              
                      - O R C A' S   B I G   F R I E N D -                    
                                      &                                       
                       - I N T E G R A L  F E E D E R -                       
                                                                              
 v1 FN, 2020, v2 2021, v3 2022-2024                                           
------------------------------------------------------------------------------


----------------------
SHARK INTEGRAL PACKAGE
----------------------

Number of atoms                             ...      8
Number of basis functions                   ...     97
Number of shells                            ...     45
Maximum angular momentum                    ...      2
Integral batch strategy                     ... SHARK/LIBINT Hybrid
RI-J (if used) integral strategy            ... SPLIT-RIJ (Revised 2003 algorithm where possible)
Printlevel                                  ...      1
Contraction scheme used                     ... SEGMENTED contraction
Prescreening option                         ... SCHWARTZ
   Thresh                                   ... 2.500e-11
   Tcut                                     ... 2.500e-12
   Tpresel                                  ... 2.500e-12 
Coulomb Range Separation                    ... NOT USED
Exchange Range Separation                   ... NOT USED
Multipole approximations                    ... NOT USED
Finite Nucleus Model                        ... NOT USED
CABS basis                                  ... NOT available
Auxiliary Coulomb fitting basis             ... AVAILABLE
   # of basis functions in Aux-J            ...    211
   # of shells in Aux-J                     ...     73
   Maximum angular momentum in Aux-J        ...      4
Auxiliary J/K fitting basis                 ... NOT available
Auxiliary Correlation fitting basis         ... NOT available
Auxiliary 'external' fitting basis          ... NOT available

Checking pre-screening integrals            ... done (  0.0 sec) Dimension = 45
Check shell pair data                       ... done (  0.0 sec)
Shell pair information
Shell pair cut-off parameter TPreSel        ...   2.5e-12
Total number of shell pairs                 ...      1035
Shell pairs after pre-screening             ...      1019
Total number of primitive shell pairs       ...      3736
Primitive shell pairs kept                  ...      3045
          la=0 lb=0:    295 shell pairs
          la=1 lb=0:    376 shell pairs
          la=1 lb=1:    135 shell pairs
          la=2 lb=0:    119 shell pairs
          la=2 lb=1:     79 shell pairs
          la=2 lb=2:     15 shell pairs

Calculating one electron integrals          ... done (  0.0 sec)
Calculating RI/J V-Matrix + Cholesky decomp.... done (  0.0 sec)
Calculating Nuclear repulsion               ... done (  0.0 sec) ENN=    162.106216110302 Eh

Diagonalization of the overlap matrix:
Smallest eigenvalue                        ... 4.080e-04
Time for diagonalization                   ...    0.001 sec
Threshold for overlap eigenvalues          ... 1.000e-07
Number of eigenvalues below threshold      ... 0
Time for construction of square roots      ...    0.003 sec
Total time needed                          ...    0.005 sec

-------------------
DFT GRID GENERATION
-------------------

General Integration Accuracy     IntAcc      ... 4.388
Radial Grid Type                 RadialGrid  ... OptM3 with GC (2021)
Angular Grid (max. ang.)         AngularGrid ... 4 (Lebedev-302)
Angular grid pruning method      GridPruning ... 4 (adaptive)
Weight generation scheme         WeightScheme... mBecke (2022)
Basis function cutoff            BFCut       ... 1.0000e-11
Integration weight cutoff        WCut        ... 1.0000e-14
Partially contracted basis set               ... off
Rotationally invariant grid construction     ... off
Angular grids for H and He will be reduced by one unit
Diffuse basis detected: some atoms will have their outermost
                        angular grid increased by 1.
Core-polarized basis detected: some atoms will have their core
                               angular grid increased.

Total number of grid points                  ...    40303
Total number of batches                      ...      635
Average number of points per batch           ...       63
Average number of grid points per atom       ...     5038
Initializing property integral containers    ... done (  0.0 sec)

SHARK setup successfully completed in   0.3 seconds

Maximum memory used throughout the entire STARTUP-calculation: 15.2 MB


           ************************************************************
           *        Program running with 4 parallel MPI-processes     *
           *              working on a common directory               *
           ************************************************************
Occupation numbers will be reassigned to an Aufbau configuration
             **** ENERGY FILE WAS UPDATED (job.en.tmp) ****
Finished Guess after   0.3 sec
Maximum memory used throughout the entire GUESS-calculation: 7.0 MB


           ************************************************************
           *        Program running with 4 parallel MPI-processes     *
           *              working on a common directory               *
           ************************************************************
--------------------
CPCM SOLVATION MODEL
--------------------
CPCM parameters:
  Epsilon                                         ...      35.6880
  Refrac                                          ...       1.3442
  Rsolv                                           ...       1.3000
  Surface type                                    ... GAUSSIAN VDW
  Discretization scheme                           ... Constant charge density
    Threshold for H atoms                         ...       5.0000 (charges/Ang^2)
    Threshold for non-H atoms                     ...       5.0000 (charges/Ang^2)
  Epsilon function type                           ...         CPCM
Solvent:                                          ... ACETONITRILE
SMD-CDS solvent descriptors:
  Soln                                            ...       1.3442
  Soln25                                          ...       1.3416
  Sola                                            ...       0.0700
  Solb                                            ...       0.3200
  Solg                                            ...      41.2500
  Solc                                            ...       0.0000
  Solh                                            ...       0.0000
Radii:
  Scheme                                          ... Element-dependent radii
  Radius for C  used is    3.4960 Bohr (=   1.8500 Ang.)
  Radius for H  used is    2.2677 Bohr (=   1.2000 Ang.)
  Radius for Br used is    5.7826 Bohr (=   3.0600 Ang.)
Calculating surface                               ...        done! (  0.0s)
Cavity surface points                             ...          917
Cavity Volume                                     ...     958.5658
Cavity Surface-area                               ...     497.1964
Calculating surface distance matrix               ...        done! (  0.0s)
Performing Cholesky decomposition & store         ...        done! (  0.0s)
Overall time for CPCM initialization              ...                 0.0s

----------------------------------------D-I-I-S--------------------------------------------
Iteration    Energy (Eh)           Delta-E    RMSDP     MaxDP     DIISErr   Damp  Time(sec)
-------------------------------------------------------------------------------------------
               ***  Starting incremental Fock matrix formation  ***
    1    -2652.5170748936993732     0.00e+00  9.78e-05  1.58e-03  3.97e-03  0.700   0.1
                              *** Initializing SOSCF ***
---------------------------------------S-O-S-C-F--------------------------------------
Iteration    Energy (Eh)           Delta-E    RMSDP     MaxDP     MaxGrad    Time(sec)
--------------------------------------------------------------------------------------
    2    -2652.5171060733114246    -3.12e-05  2.98e-04  4.85e-03  2.78e-03     0.1
               *** Restarting incremental Fock matrix formation ***
    3    -2652.5171808647719445    -7.48e-05  9.74e-05  2.10e-03  4.00e-04     0.1
    4    -2652.5171767177957918     4.15e-06  6.13e-05  1.30e-03  6.83e-04     0.1
    5    -2652.5171840239731864    -7.31e-06  1.17e-05  2.10e-04  3.77e-05     0.1
    6    -2652.5171840114708175     1.25e-08  6.33e-06  1.35e-04  4.48e-05     0.1
    7    -2652.5171840742309541    -6.28e-08  1.77e-06  2.64e-05  7.39e-06     0.1
    8    -2652.5171840765528941    -2.32e-09  9.19e-07  1.35e-05  6.15e-06     0.1
                 **** Energy Check signals convergence ****

               *****************************************************
               *                     SUCCESS                       *
               *           SCF CONVERGED AFTER   8 CYCLES          *
               *****************************************************


SMD CDS free energy correction energy :                -1.92185     Kcal/mol
Total Energy after SMD CDS correction =             -2652.520246737 Eh
             **** ENERGY FILE WAS UPDATED (job.en.tmp) ****

----------------
TOTAL SCF ENERGY
----------------

Total Energy       :      -2652.52024673722372 Eh          -72178.74541 eV

Components:
Nuclear Repulsion  :        162.10621611030228 Eh            4411.13440 eV
Electronic Energy  :      -2814.61848110505025 Eh          -76589.66261 eV
One Electron Energy:      -4009.79852601347238 Eh         -109112.16505 eV
Two Electron Energy:       1195.18004490842213 Eh           32522.50243 eV
CPCM Dielectric    :         -0.00491908180489 Eh              -0.13386 eV
SMD CDS (Gcds)     :         -0.00306266067077 Eh              -0.08334 eV

Virial components:
Potential Energy   :      -5300.97730010368923 Eh         -144246.92571 eV
Kinetic Energy     :       2648.45705336646552 Eh           72068.18030 eV
Virial Ratio       :          2.00153417378077

DFT components:
N(Alpha)           :       26.000010252720 electrons
N(Beta)            :       26.000010252720 electrons
N(Total)           :       52.000020505439 electrons
E(X)               :     -101.191960765014 Eh       
E(C)               :       -2.257139517649 Eh       
E(XC)              :     -103.449100282663 Eh       

CPCM Solvation Model Properties:
Surface-charge          :         -0.01708095258655
Corrected charge        :          0.00000000000000
Outlying charge corr.   :          0.00002276374708 Eh               0.00062 eV
Free-energy (cav+disp)  :         -0.00306266067077 Eh              -0.08334 eV

---------------
SCF CONVERGENCE
---------------

  Last Energy change         ...    2.3219e-09  Tolerance :   1.0000e-08
  Last MAX-Density change    ...    1.3459e-05  Tolerance :   1.0000e-07
  Last RMS-Density change    ...    9.1883e-07  Tolerance :   5.0000e-09
  Last DIIS Error            ...    2.7817e-03  Tolerance :   5.0000e-07
  Last Orbital Gradient      ...    6.1488e-06  Tolerance :   1.0000e-05
  Last Orbital Rotation      ...    5.8111e-06  Tolerance :   1.0000e-05


Total SCF time: 0 days 0 hours 0 min 1 sec 
Finished LeanSCF after   1.4 sec

Maximum memory used throughout the entire LEANSCF-calculation: 9.8 MB


           ************************************************************
           *        Program running with 4 parallel MPI-processes     *
           *              working on a common directory               *
           ************************************************************

------------------------------------------------------------------------------
                         ORCA PROPERTY INTEGRAL CALCULATIONS
------------------------------------------------------------------------------

GBWName                                   ... job.gbw
Number of atoms                           ...      8
Number of basis functions                 ...     97
Max core memory                           ...   3000 MB

Dipole integrals                          ... YES
Quadrupole integrals                      ...  NO
Linear momentum integrals                 ...  NO
Angular momentum integrals                ...  NO
Higher moments length integrals           ...  NO
Higher moments velocity integrals         ...  NO
Kinetic energy integrals                  ...  NO
GIAO right hand sides                     ...  NO
GIAO dipole derivative integrals          ...  NO
SOC integrals                             ...  NO
EPR diamagnetic integrals (GIAO)          ...  NO
EPR gauge integrals                       ...  NO
Field gradient integrals                  ...  NO (   0 nuclei)
Spin-dipole/Fermi contact integrals       ...  NO (   0 nuclei)
Contact density integrals                 ...  NO (   0 nuclei)
Nucleus-orbit integrals                   ...  NO (   0 nuclei)
Geometric perturbations                   ...  NO (   8 nuclei)

Choice of electric origin   ... Center of mass
Position of electric origin ... ( -8.2997, -3.8063, -1.5657) 
Choice of magnetic origin   ... GIAO
Position of magnetic origin ... (  0.0000,  0.0000,  0.0000) 

Calculating integrals                     ... Electric Dipole (Length)     done (  0.0 sec)

Property integrals calculated in   0.0 sec

Maximum memory used throughout the entire PROPINT-calculation: 7.1 MB

-------------------------   --------------------
FINAL SINGLE POINT ENERGY     -2652.520246737224
-------------------------   --------------------



           ************************************************************
           *        Program running with 4 parallel MPI-processes     *
           *              working on a common directory               *
           ************************************************************
------------------------------------------------------------------------------
                         ORCA SCF GRADIENT CALCULATION
------------------------------------------------------------------------------

Nuc. rep. gradient        (SHARK) ... done (  0.0 sec)
HCore & Overlap gradient  (SHARK) ... done (  0.0 sec)
Split-RIJ-J gradient      (SHARK) ... done (  0.2 sec)
XC gradient                       ... done (  0.3 sec)
CPCM gradient                     ... done (  0.1 sec)
SMD gradient                      ... done (  0.0 sec)

------------------
CARTESIAN GRADIENT
------------------

   1   C   :    0.000725538    0.001538691    0.000681316
   2   H   :    0.000182819   -0.000055689   -0.000104321
   3   H   :    0.000079053   -0.000080875   -0.000162572
   4   C   :   -0.003343636   -0.006289908   -0.000628782
   5   H   :    0.001108837    0.001747323    0.000339519
   6   Br  :    0.000859904    0.001208893    0.000075088
   7   H   :    0.000405117    0.002065730   -0.000121944
   8   H   :   -0.000017631   -0.000134164   -0.000078304

Difference to translation invariance:
           :    0.0000000008    0.0000000001   -0.0000000000

Difference to rotation invariance:
           :   -0.0000137637    0.0000140642   -0.0000289089

Norm of the Cartesian gradient     ...    0.0081029691
RMS gradient                       ...    0.0016540116
MAX gradient                       ...    0.0062899083

-------
TIMINGS
-------

Total SCF gradient time     ....        0.600 sec

Densities                   ....       0.000 sec  (  0.0%)
One electron gradient       ....       0.013 sec  (  2.2%)
RI-J Coulomb gradient       ....       0.164 sec  ( 27.4%)
XC gradient                 ....       0.280 sec  ( 46.8%)
CPCM gradient               ....       0.078 sec  ( 13.0%)
   A-Matrix (El+Nuc)        ....       0.025 sec  (  4.1%)
   Potential                ....       0.053 sec  (  8.9%)
SMD gradient                ....       0.001 sec  (  0.2%)

Maximum memory used throughout the entire SCFGRAD-calculation: 12.0 MB
------------------------------------------------------------------------------
                         ORCA GEOMETRY RELAXATION STEP
------------------------------------------------------------------------------

Reading the OPT-File                    .... done
Getting information on internals        .... done
Copying old internal coords+grads       .... done
Making the new internal coordinates     .... (2022 redundants) done
Validating the new internal coordinates .... (2022 redundants) done
Calculating the B-matrix                .... done
Calculating the G,G- and P matrices     .... done
Transforming gradient to internals      .... done
Projecting the internal gradient        .... done
Number of atoms                         ....   8
Number of internal coordinates          ....  25
Current Energy                          .... -2652.520246737 Eh
Current gradient norm                   ....     0.008102969 Eh/bohr
Maximum allowed component of the step   ....  0.300
Current trust radius                    ....  0.675
Updating the Hessian (BFGS)             .... done
Forming the augmented Hessian           .... done
Diagonalizing the augmented Hessian     .... done
Last element of RFO vector              ....  0.999323936
Lowest eigenvalues of augmented Hessian:
 -0.000163105  0.014334067  0.071410502  0.125153093  0.138020121
Length of the computed step             ....  0.036789946
The final length of the internal step   ....  0.036789946
Converting the step to Cartesian space:
 Initial RMS(Int)=    0.0073579892
Transforming coordinates:
 Iter   0:  RMS(Cart)=    0.0058378641 RMS(Int)=    0.0073430660
done
Storing new coordinates                 .... done
The predicted energy change is          ....    -0.000081663
Previously predicted energy change      ....    -0.000182142
Actually observed energy change         ....    -0.000246600
Ratio of predicted to observed change   ....     1.353884393
New trust radius                        ....     0.675000000

                                .--------------------.
          ----------------------|Geometry convergence|-------------------------
          Item                value                   Tolerance       Converged
          ---------------------------------------------------------------------
          Energy change      -0.0002465999            0.0000050000      NO
          RMS gradient        0.0010802836            0.0001000000      NO
          MAX gradient        0.0034086531            0.0003000000      NO
          RMS step            0.0073579892            0.0020000000      NO
          MAX step            0.0220965187            0.0040000000      NO
          ........................................................
          Max(Bonds)      0.0117      Max(Angles)    0.93
          Max(Dihed)        0.43      Max(Improp)    0.00
          ---------------------------------------------------------------------

The optimization has not yet converged - more geometry cycles are needed


    ---------------------------------------------------------------------------
                         Redundant Internal Coordinates
                            (Angstroem and degrees)

        Definition                    Value    dE/dq     Step     New-Value
    ----------------------------------------------------------------------------
     1. B(H   1,C   0)                1.1115 -0.000061  0.0005    1.1119   
     2. B(H   2,C   0)                1.1087  0.000021 -0.0002    1.1085   
     3. B(C   3,C   0)                1.5162  0.001097 -0.0026    1.5136   
     4. B(H   4,C   3)                1.1075  0.000716 -0.0018    1.1057   
     5. B(Br  5,C   3)                1.9781 -0.001262  0.0117    1.9898   
     6. B(H   6,C   3)                1.1069  0.000439 -0.0016    1.1053   
     7. B(H   7,C   0)                1.1090  0.000106 -0.0003    1.1087   
     8. A(H   1,C   0,H   7)          107.72 -0.000043   -0.05    107.67   
     9. A(H   1,C   0,C   3)          108.49  0.000360   -0.25    108.24   
    10. A(C   3,C   0,H   7)          112.03 -0.000229    0.19    112.22   
    11. A(H   2,C   0,H   7)          108.53 -0.000106    0.10    108.64   
    12. A(H   2,C   0,C   3)          112.12  0.000118    0.03    112.14   
    13. A(H   1,C   0,H   2)          107.77 -0.000101   -0.03    107.74   
    14. A(C   0,C   3,H   6)          111.92 -0.001240    0.44    112.35   
    15. A(H   4,C   3,Br  5)          105.70  0.001589   -0.60    105.10   
    16. A(C   0,C   3,Br  5)          112.44  0.000173   -0.29    112.14   
    17. A(Br  5,C   3,H   6)          106.29  0.003409   -0.93    105.36   
    18. A(H   4,C   3,H   6)          108.83 -0.000450    0.45    109.29   
    19. A(C   0,C   3,H   4)          111.33 -0.003076    0.67    112.00   
    20. D(H   4,C   3,C   0,H   2)     57.86  0.000179   -0.43     57.42   
    21. D(H   4,C   3,C   0,H   7)   -179.83 -0.000041   -0.14   -179.97   
    22. D(Br  5,C   3,C   0,H   1)   -179.44 -0.000043    0.21   -179.22   
    23. D(Br  5,C   3,C   0,H   2)    -60.54  0.000137    0.03    -60.51   
    24. D(Br  5,C   3,C   0,H   7)     61.77 -0.000084    0.32     62.10   
    25. D(H   4,C   3,C   0,H   1)    -61.04 -0.000001   -0.25    -61.29   
    ----------------------------------------------------------------------------

Geometry step timings:
Preparation and reading OPT file:      0.000 s (13.757 %)
Internal coordinates            :      0.000 s ( 0.517 %)
B/P matrices and projection     :      0.000 s ( 6.521 %)
Hessian update/contruction      :      0.001 s (51.889 %)
Making the step                 :      0.000 s ( 4.334 %)
Converting the step to Cartesian:      0.000 s ( 0.954 %)
Storing new data                :      0.000 s ( 1.471 %)
Checking convergence            :      0.000 s ( 0.239 %)
Final printing                  :      0.001 s (20.199 %)
Total time                      :      0.003 s

Time for energy+gradient        :      4.852 s
Time for complete geometry iter :      5.413 s

         *************************************************************
         *                GEOMETRY OPTIMIZATION CYCLE   7            *
         *************************************************************
---------------------------------
CARTESIAN COORDINATES (ANGSTROEM)
---------------------------------
  C     -3.212320   -0.127162   -1.349935
  H     -3.200997    0.981405   -1.264181
  H     -2.296193   -0.513214   -0.859545
  C     -4.473131   -0.640650   -0.688353
  H     -4.511226   -0.384483    0.386584
  Br    -4.600327   -2.625289   -0.753550
  H     -5.389118   -0.271662   -1.184767
  H     -3.171087   -0.381774   -2.428203

----------------------------
CARTESIAN COORDINATES (A.U.)
----------------------------
  NO LB      ZA    FRAG     MASS         X           Y           Z
   0 C     6.0000    0    12.011   -6.070405   -0.240302   -2.551007
   1 H     1.0000    0     1.008   -6.049007    1.854586   -2.388956
   2 H     1.0000    0     1.008   -4.339177   -0.969835   -1.624305
   3 C     6.0000    0    12.011   -8.452992   -1.210652   -1.300798
   4 H     1.0000    0     1.008   -8.524981   -0.726568    0.730539
   5 Br   35.0000    0    79.900   -8.693358   -4.961078   -1.424003
   6 H     1.0000    0     1.008  -10.183957   -0.513366   -2.238886
   7 H     1.0000    0     1.008   -5.992485   -0.721447   -4.588638

--------------------------------
INTERNAL COORDINATES (ANGSTROEM)
--------------------------------
 C      0   0   0     0.000000000000     0.00000000     0.00000000
 H      1   0   0     1.111936835762     0.00000000     0.00000000
 H      1   2   0     1.108515286018   107.73842128     0.00000000
 C      1   2   3     1.513606127948   108.23970237   121.47139022
 H      4   1   2     1.105695569912   112.02637969   298.71336006
 Br     4   1   2     1.989779763699   112.16641189   180.77442108
 H      4   1   2     1.105265896623   112.38111816    62.24812800
 H      1   2   3     1.108687717847   107.67284706   242.99824524

---------------------------
INTERNAL COORDINATES (A.U.)
---------------------------
 C      0   0   0     0.000000000000     0.00000000     0.00000000
 H      1   0   0     2.101256097808     0.00000000     0.00000000
 H      1   2   0     2.094790305838   107.73842128     0.00000000
 C      1   2   3     2.860301056448   108.23970237   121.47139022
 H      4   1   2     2.089461814624   112.02637969   298.71336006
 Br     4   1   2     3.760138820209   112.16641189   180.77442108
 H      4   1   2     2.088649849780   112.38111816    62.24812800
 H      1   2   3     2.095116154774   107.67284706   242.99824524



           ************************************************************
           *        Program running with 4 parallel MPI-processes     *
           *              working on a common directory               *
           ************************************************************
------------------------------------------------------------------------------
                   ___                                                        
                  /   \      - P O W E R E D   B Y -                         
                 /     \                                                     
                 |  |  |   _    _      __       _____    __    __             
                 |  |  |  | |  | |    /  \     |  _  \  |  |  /  |          
                  \  \/   | |  | |   /    \    | | | |  |  | /  /          
                 / \  \   | |__| |  /  /\  \   | |_| |  |  |/  /          
                |  |  |   |  __  | /  /__\  \  |    /   |      \           
                |  |  |   | |  | | |   __   |  |    \   |  |\   \          
                \     /   | |  | | |  |  |  |  | |\  \  |  | \   \       
                 \___/    |_|  |_| |__|  |__|  |_| \__\ |__|  \__/        
                                                                              
                      - O R C A' S   B I G   F R I E N D -                    
                                      &                                       
                       - I N T E G R A L  F E E D E R -                       
                                                                              
 v1 FN, 2020, v2 2021, v3 2022-2024                                           
------------------------------------------------------------------------------


----------------------
SHARK INTEGRAL PACKAGE
----------------------

Number of atoms                             ...      8
Number of basis functions                   ...     97
Number of shells                            ...     45
Maximum angular momentum                    ...      2
Integral batch strategy                     ... SHARK/LIBINT Hybrid
RI-J (if used) integral strategy            ... SPLIT-RIJ (Revised 2003 algorithm where possible)
Printlevel                                  ...      1
Contraction scheme used                     ... SEGMENTED contraction
Prescreening option                         ... SCHWARTZ
   Thresh                                   ... 2.500e-11
   Tcut                                     ... 2.500e-12
   Tpresel                                  ... 2.500e-12 
Coulomb Range Separation                    ... NOT USED
Exchange Range Separation                   ... NOT USED
Multipole approximations                    ... NOT USED
Finite Nucleus Model                        ... NOT USED
CABS basis                                  ... NOT available
Auxiliary Coulomb fitting basis             ... AVAILABLE
   # of basis functions in Aux-J            ...    211
   # of shells in Aux-J                     ...     73
   Maximum angular momentum in Aux-J        ...      4
Auxiliary J/K fitting basis                 ... NOT available
Auxiliary Correlation fitting basis         ... NOT available
Auxiliary 'external' fitting basis          ... NOT available

Checking pre-screening integrals            ... done (  0.0 sec) Dimension = 45
Check shell pair data                       ... done (  0.0 sec)
Shell pair information
Shell pair cut-off parameter TPreSel        ...   2.5e-12
Total number of shell pairs                 ...      1035
Shell pairs after pre-screening             ...      1018
Total number of primitive shell pairs       ...      3736
Primitive shell pairs kept                  ...      3039
          la=0 lb=0:    294 shell pairs
          la=1 lb=0:    376 shell pairs
          la=1 lb=1:    135 shell pairs
          la=2 lb=0:    119 shell pairs
          la=2 lb=1:     79 shell pairs
          la=2 lb=2:     15 shell pairs

Calculating one electron integrals          ... done (  0.0 sec)
Calculating RI/J V-Matrix + Cholesky decomp.... done (  0.0 sec)
Calculating Nuclear repulsion               ... done (  0.0 sec) ENN=    161.746081833386 Eh

Diagonalization of the overlap matrix:
Smallest eigenvalue                        ... 4.064e-04
Time for diagonalization                   ...    0.001 sec
Threshold for overlap eigenvalues          ... 1.000e-07
Number of eigenvalues below threshold      ... 0
Time for construction of square roots      ...    0.003 sec
Total time needed                          ...    0.005 sec

-------------------
DFT GRID GENERATION
-------------------

General Integration Accuracy     IntAcc      ... 4.388
Radial Grid Type                 RadialGrid  ... OptM3 with GC (2021)
Angular Grid (max. ang.)         AngularGrid ... 4 (Lebedev-302)
Angular grid pruning method      GridPruning ... 4 (adaptive)
Weight generation scheme         WeightScheme... mBecke (2022)
Basis function cutoff            BFCut       ... 1.0000e-11
Integration weight cutoff        WCut        ... 1.0000e-14
Partially contracted basis set               ... off
Rotationally invariant grid construction     ... off
Angular grids for H and He will be reduced by one unit
Diffuse basis detected: some atoms will have their outermost
                        angular grid increased by 1.
Core-polarized basis detected: some atoms will have their core
                               angular grid increased.

Total number of grid points                  ...    40303
Total number of batches                      ...      636
Average number of points per batch           ...       63
Average number of grid points per atom       ...     5038
Initializing property integral containers    ... done (  0.0 sec)

SHARK setup successfully completed in   0.3 seconds

Maximum memory used throughout the entire STARTUP-calculation: 15.2 MB


           ************************************************************
           *        Program running with 4 parallel MPI-processes     *
           *              working on a common directory               *
           ************************************************************
Occupation numbers will be reassigned to an Aufbau configuration
             **** ENERGY FILE WAS UPDATED (job.en.tmp) ****
Finished Guess after   0.3 sec
Maximum memory used throughout the entire GUESS-calculation: 7.0 MB


           ************************************************************
           *        Program running with 4 parallel MPI-processes     *
           *              working on a common directory               *
           ************************************************************
--------------------
CPCM SOLVATION MODEL
--------------------
CPCM parameters:
  Epsilon                                         ...      35.6880
  Refrac                                          ...       1.3442
  Rsolv                                           ...       1.3000
  Surface type                                    ... GAUSSIAN VDW
  Discretization scheme                           ... Constant charge density
    Threshold for H atoms                         ...       5.0000 (charges/Ang^2)
    Threshold for non-H atoms                     ...       5.0000 (charges/Ang^2)
  Epsilon function type                           ...         CPCM
Solvent:                                          ... ACETONITRILE
SMD-CDS solvent descriptors:
  Soln                                            ...       1.3442
  Soln25                                          ...       1.3416
  Sola                                            ...       0.0700
  Solb                                            ...       0.3200
  Solg                                            ...      41.2500
  Solc                                            ...       0.0000
  Solh                                            ...       0.0000
Radii:
  Scheme                                          ... Element-dependent radii
  Radius for C  used is    3.4960 Bohr (=   1.8500 Ang.)
  Radius for H  used is    2.2677 Bohr (=   1.2000 Ang.)
  Radius for Br used is    5.7826 Bohr (=   3.0600 Ang.)
Calculating surface                               ...        done! (  0.0s)
Cavity surface points                             ...          919
Cavity Volume                                     ...     959.2380
Cavity Surface-area                               ...     497.5291
Calculating surface distance matrix               ...        done! (  0.0s)
Performing Cholesky decomposition & store         ...        done! (  0.0s)
Overall time for CPCM initialization              ...                 0.0s

----------------------------------------D-I-I-S--------------------------------------------
Iteration    Energy (Eh)           Delta-E    RMSDP     MaxDP     DIISErr   Damp  Time(sec)
-------------------------------------------------------------------------------------------
               ***  Starting incremental Fock matrix formation  ***
                              *** Initializing SOSCF ***
---------------------------------------S-O-S-C-F--------------------------------------
Iteration    Energy (Eh)           Delta-E    RMSDP     MaxDP     MaxGrad    Time(sec)
--------------------------------------------------------------------------------------
    1    -2652.5172383946151058     0.00e+00  2.26e-04  3.80e-03  4.58e-04     0.2
               *** Restarting incremental Fock matrix formation ***
    2    -2652.5172896495046189    -5.13e-05  9.28e-05  1.14e-03  3.56e-04     0.1
    3    -2652.5172935296864125    -3.88e-06  4.40e-05  8.40e-04  2.65e-04     0.1
    4    -2652.5172935786845301    -4.90e-08  2.93e-05  6.32e-04  2.22e-04     0.1
    5    -2652.5172943555298843    -7.77e-07  1.14e-05  2.68e-04  4.45e-05     0.1
    6    -2652.5172943248944648     3.06e-08  6.59e-06  1.42e-04  4.28e-05     0.1
    7    -2652.5172943904422027    -6.55e-08  1.16e-06  2.99e-05  2.98e-06     0.1
    8    -2652.5172943923230378    -1.88e-09  6.41e-07  1.95e-05  4.20e-06     0.1
                 **** Energy Check signals convergence ****

               *****************************************************
               *                     SUCCESS                       *
               *           SCF CONVERGED AFTER   8 CYCLES          *
               *****************************************************


SMD CDS free energy correction energy :                -1.91804     Kcal/mol
Total Energy after SMD CDS correction =             -2652.520350980 Eh
             **** ENERGY FILE WAS UPDATED (job.en.tmp) ****

----------------
TOTAL SCF ENERGY
----------------

Total Energy       :      -2652.52035097976704 Eh          -72178.74825 eV

Components:
Nuclear Repulsion  :        161.74608183338640 Eh            4401.33465 eV
Electronic Energy  :      -2814.25833667088045 Eh          -76579.86259 eV
One Electron Energy:      -4009.10035870478441 Eh         -109093.16695 eV
Two Electron Energy:       1194.84202203390373 Eh           32513.30436 eV
CPCM Dielectric    :         -0.00503955482922 Eh              -0.13713 eV
SMD CDS (Gcds)     :         -0.00305658744379 Eh              -0.08317 eV

Virial components:
Potential Energy   :      -5300.97401813569013 Eh         -144246.83640 eV
Kinetic Energy     :       2648.45366715592354 Eh           72068.08815 eV
Virial Ratio       :          2.00153549366344

DFT components:
N(Alpha)           :       26.000010153213 electrons
N(Beta)            :       26.000010153213 electrons
N(Total)           :       52.000020306426 electrons
E(X)               :     -101.191033353948 Eh       
E(C)               :       -2.256863697589 Eh       
E(XC)              :     -103.447897051537 Eh       

CPCM Solvation Model Properties:
Surface-charge          :         -0.01703034422982
Corrected charge        :          0.00000000000000
Outlying charge corr.   :          0.00002262438732 Eh               0.00062 eV
Free-energy (cav+disp)  :         -0.00305658744379 Eh              -0.08317 eV

---------------
SCF CONVERGENCE
---------------

  Last Energy change         ...    1.8808e-09  Tolerance :   1.0000e-08
  Last MAX-Density change    ...    1.9547e-05  Tolerance :   1.0000e-07
  Last RMS-Density change    ...    6.4136e-07  Tolerance :   5.0000e-09
  Last DIIS Error            ...    2.4984e-03  Tolerance :   5.0000e-07
  Last Orbital Gradient      ...    4.2006e-06  Tolerance :   1.0000e-05
  Last Orbital Rotation      ...    4.0396e-06  Tolerance :   1.0000e-05


Total SCF time: 0 days 0 hours 0 min 1 sec 
Finished LeanSCF after   1.4 sec

Maximum memory used throughout the entire LEANSCF-calculation: 9.9 MB


           ************************************************************
           *        Program running with 4 parallel MPI-processes     *
           *              working on a common directory               *
           ************************************************************

------------------------------------------------------------------------------
                         ORCA PROPERTY INTEGRAL CALCULATIONS
------------------------------------------------------------------------------

GBWName                                   ... job.gbw
Number of atoms                           ...      8
Number of basis functions                 ...     97
Max core memory                           ...   3000 MB

Dipole integrals                          ... YES
Quadrupole integrals                      ...  NO
Linear momentum integrals                 ...  NO
Angular momentum integrals                ...  NO
Higher moments length integrals           ...  NO
Higher moments velocity integrals         ...  NO
Kinetic energy integrals                  ...  NO
GIAO right hand sides                     ...  NO
GIAO dipole derivative integrals          ...  NO
SOC integrals                             ...  NO
EPR diamagnetic integrals (GIAO)          ...  NO
EPR gauge integrals                       ...  NO
Field gradient integrals                  ...  NO (   0 nuclei)
Spin-dipole/Fermi contact integrals       ...  NO (   0 nuclei)
Contact density integrals                 ...  NO (   0 nuclei)
Nucleus-orbit integrals                   ...  NO (   0 nuclei)
Geometric perturbations                   ...  NO (   8 nuclei)

Choice of electric origin   ... Center of mass
Position of electric origin ... ( -8.3002, -3.8078, -1.5623) 
Choice of magnetic origin   ... GIAO
Position of magnetic origin ... (  0.0000,  0.0000,  0.0000) 

Calculating integrals                     ... Electric Dipole (Length)     done (  0.0 sec)

Property integrals calculated in   0.0 sec

Maximum memory used throughout the entire PROPINT-calculation: 7.1 MB

-------------------------   --------------------
FINAL SINGLE POINT ENERGY     -2652.520350979767
-------------------------   --------------------



           ************************************************************
           *        Program running with 4 parallel MPI-processes     *
           *              working on a common directory               *
           ************************************************************
------------------------------------------------------------------------------
                         ORCA SCF GRADIENT CALCULATION
------------------------------------------------------------------------------

Nuc. rep. gradient        (SHARK) ... done (  0.0 sec)
HCore & Overlap gradient  (SHARK) ... done (  0.0 sec)
Split-RIJ-J gradient      (SHARK) ... done (  0.2 sec)
XC gradient                       ... done (  0.3 sec)
CPCM gradient                     ... done (  0.1 sec)
SMD gradient                      ... done (  0.0 sec)

------------------
CARTESIAN GRADIENT
------------------

   1   C   :    0.000487697    0.000259143    0.000207687
   2   H   :   -0.000063554    0.000019322    0.000021627
   3   H   :    0.000015978   -0.000087121   -0.000149999
   4   C   :   -0.002702897   -0.001250902    0.000365795
   5   H   :    0.000820889    0.000749437   -0.000314316
   6   Br  :    0.000535035   -0.000525427   -0.000068128
   7   H   :    0.000775153    0.000762255   -0.000015235
   8   H   :    0.000131698    0.000073294   -0.000047430

Difference to translation invariance:
           :   -0.0000000001    0.0000000007    0.0000000000

Difference to rotation invariance:
           :   -0.0000130015    0.0000172582   -0.0000392545

Norm of the Cartesian gradient     ...    0.0035349627
RMS gradient                       ...    0.0007215712
MAX gradient                       ...    0.0027028975

-------
TIMINGS
-------

Total SCF gradient time     ....        0.610 sec

Densities                   ....       0.000 sec  (  0.0%)
One electron gradient       ....       0.012 sec  (  2.0%)
RI-J Coulomb gradient       ....       0.173 sec  ( 28.3%)
XC gradient                 ....       0.283 sec  ( 46.3%)
CPCM gradient               ....       0.078 sec  ( 12.7%)
   A-Matrix (El+Nuc)        ....       0.024 sec  (  3.9%)
   Potential                ....       0.054 sec  (  8.8%)
SMD gradient                ....       0.001 sec  (  0.2%)

Maximum memory used throughout the entire SCFGRAD-calculation: 12.1 MB
------------------------------------------------------------------------------
                         ORCA GEOMETRY RELAXATION STEP
------------------------------------------------------------------------------

Reading the OPT-File                    .... done
Getting information on internals        .... done
Copying old internal coords+grads       .... done
Making the new internal coordinates     .... (2022 redundants) done
Validating the new internal coordinates .... (2022 redundants) done
Calculating the B-matrix                .... done
Calculating the G,G- and P matrices     .... done
Transforming gradient to internals      .... done
Projecting the internal gradient        .... done
Number of atoms                         ....   8
Number of internal coordinates          ....  25
Current Energy                          .... -2652.520350980 Eh
Current gradient norm                   ....     0.003534963 Eh/bohr
Maximum allowed component of the step   ....  0.300
Current trust radius                    ....  0.675
Updating the Hessian (BFGS)             .... done
Forming the augmented Hessian           .... done
Diagonalizing the augmented Hessian     .... done
Last element of RFO vector              ....  0.999792563
Lowest eigenvalues of augmented Hessian:
 -0.000043100  0.014272167  0.071463797  0.118958823  0.137746481
Length of the computed step             ....  0.020371609
The final length of the internal step   ....  0.020371609
Converting the step to Cartesian space:
 Initial RMS(Int)=    0.0040743218
Transforming coordinates:
 Iter   0:  RMS(Cart)=    0.0036655162 RMS(Int)=    1.2557697873
done
Storing new coordinates                 .... done
The predicted energy change is          ....    -0.000021559
Previously predicted energy change      ....    -0.000081663
Actually observed energy change         ....    -0.000104243
Ratio of predicted to observed change   ....     1.276498103
New trust radius                        ....     0.675000000

                                .--------------------.
          ----------------------|Geometry convergence|-------------------------
          Item                value                   Tolerance       Converged
          ---------------------------------------------------------------------
          Energy change      -0.0001042425            0.0000050000      NO
          RMS gradient        0.0005699177            0.0001000000      NO
          MAX gradient        0.0017225463            0.0003000000      NO
          RMS step            0.0040743218            0.0020000000      NO
          MAX step            0.0106131084            0.0040000000      NO
          ........................................................
          Max(Bonds)      0.0025      Max(Angles)    0.61
          Max(Dihed)        0.33      Max(Improp)    0.00
          ---------------------------------------------------------------------

The optimization has not yet converged - more geometry cycles are needed


    ---------------------------------------------------------------------------
                         Redundant Internal Coordinates
                            (Angstroem and degrees)

        Definition                    Value    dE/dq     Step     New-Value
    ----------------------------------------------------------------------------
     1. B(H   1,C   0)                1.1119  0.000021  0.0001    1.1120   
     2. B(H   2,C   0)                1.1085 -0.000023 -0.0000    1.1085   
     3. B(C   3,C   0)                1.5136  0.000551 -0.0016    1.5120   
     4. B(H   4,C   3)                1.1057 -0.000161 -0.0002    1.1054   
     5. B(Br  5,C   3)                1.9898  0.000493  0.0025    1.9922   
     6. B(H   6,C   3)                1.1053 -0.000381  0.0010    1.1063   
     7. B(H   7,C   0)                1.1087  0.000033 -0.0002    1.1085   
     8. A(H   1,C   0,H   7)          107.67 -0.000049    0.00    107.68   
     9. A(H   1,C   0,C   3)          108.24 -0.000134   -0.04    108.20   
    10. A(C   3,C   0,H   7)          112.22  0.000208    0.01    112.23   
    11. A(H   2,C   0,H   7)          108.63 -0.000165    0.07    108.70   
    12. A(H   2,C   0,C   3)          112.14  0.000069   -0.01    112.13   
    13. A(H   1,C   0,H   2)          107.74  0.000064   -0.03    107.71   
    14. A(C   0,C   3,H   6)          112.38 -0.000649    0.25    112.64   
    15. A(H   4,C   3,Br  5)          105.11  0.001036   -0.34    104.78   
    16. A(C   0,C   3,Br  5)          112.17 -0.000496    0.02    112.18   
    17. A(Br  5,C   3,H   6)          105.38  0.001723   -0.61    104.78   
    18. A(H   4,C   3,H   6)          109.31  0.000271    0.01    109.33   
    19. A(C   0,C   3,H   4)          112.03 -0.001578    0.52    112.54   
    20. D(H   4,C   3,C   0,H   2)     57.43  0.000024   -0.33     57.09   
    21. D(H   4,C   3,C   0,H   7)   -179.97  0.000014   -0.25   -180.21   
    22. D(Br  5,C   3,C   0,H   1)   -179.23  0.000073   -0.23   -179.45   
    23. D(Br  5,C   3,C   0,H   2)    -60.51  0.000106   -0.30    -60.81   
    24. D(Br  5,C   3,C   0,H   7)     62.10  0.000096   -0.21     61.89   
    25. D(H   4,C   3,C   0,H   1)    -61.29 -0.000009   -0.26    -61.55   
    ----------------------------------------------------------------------------

Geometry step timings:
Preparation and reading OPT file:      0.000 s (11.586 %)
Internal coordinates            :      0.000 s ( 0.483 %)
B/P matrices and projection     :      0.000 s ( 6.103 %)
Hessian update/contruction      :      0.002 s (58.172 %)
Making the step                 :      0.000 s ( 3.793 %)
Converting the step to Cartesian:      0.000 s ( 0.759 %)
Storing new data                :      0.000 s ( 1.310 %)
Checking convergence            :      0.000 s ( 0.207 %)
Final printing                  :      0.001 s (17.483 %)
Total time                      :      0.003 s

Time for energy+gradient        :      4.869 s
Time for complete geometry iter :      5.424 s

         *************************************************************
         *                GEOMETRY OPTIMIZATION CYCLE   8            *
         *************************************************************
---------------------------------
CARTESIAN COORDINATES (ANGSTROEM)
---------------------------------
  C     -3.211120   -0.126454   -1.350467
  H     -3.199496    0.982345   -1.266449
  H     -2.294898   -0.511421   -0.859405
  C     -4.470285   -0.637200   -0.687263
  H     -4.513776   -0.387782    0.388801
  Br    -4.603448   -2.623840   -0.754563
  H     -5.390079   -0.275709   -1.184386
  H     -3.171297   -0.382767   -2.428218

----------------------------
CARTESIAN COORDINATES (A.U.)
----------------------------
  NO LB      ZA    FRAG     MASS         X           Y           Z
   0 C     6.0000    0    12.011   -6.068138   -0.238964   -2.552013
   1 H     1.0000    0     1.008   -6.046171    1.856363   -2.393242
   2 H     1.0000    0     1.008   -4.336728   -0.966445   -1.624039
   3 C     6.0000    0    12.011   -8.447614   -1.204133   -1.298738
   4 H     1.0000    0     1.008   -8.529800   -0.732802    0.734728
   5 Br   35.0000    0    79.900   -8.699256   -4.958340   -1.425918
   6 H     1.0000    0     1.008  -10.185773   -0.521015   -2.238166
   7 H     1.0000    0     1.008   -5.992883   -0.723325   -4.588666

--------------------------------
INTERNAL COORDINATES (ANGSTROEM)
--------------------------------
 C      0   0   0     0.000000000000     0.00000000     0.00000000
 H      1   0   0     1.112038860740     0.00000000     0.00000000
 H      1   2   0     1.108515121016   107.70765028     0.00000000
 C      1   2   3     1.512016941104   108.20229874   121.41637919
 H      4   1   2     1.105447426085   112.55142994   298.44644122
 Br     4   1   2     1.992235675015   112.19056532   180.55005432
 H      4   1   2     1.106268098001   112.63853607    62.60580794
 H      1   2   3     1.108525452599   107.67551129   242.92993146

---------------------------
INTERNAL COORDINATES (A.U.)
---------------------------
 C      0   0   0     0.000000000000     0.00000000     0.00000000
 H      1   0   0     2.101448897077     0.00000000     0.00000000
 H      1   2   0     2.094789994030   107.70765028     0.00000000
 C      1   2   3     2.857297928535   108.20229874   121.41637919
 H      4   1   2     2.088992890750   112.55142994   298.44644122
 Br     4   1   2     3.764779820006   112.19056532   180.55005432
 H      4   1   2     2.090543735916   112.63853607    62.60580794
 H      1   2   3     2.094809517894   107.67551129   242.92993146



           ************************************************************
           *        Program running with 4 parallel MPI-processes     *
           *              working on a common directory               *
           ************************************************************
------------------------------------------------------------------------------
                   ___                                                        
                  /   \      - P O W E R E D   B Y -                         
                 /     \                                                     
                 |  |  |   _    _      __       _____    __    __             
                 |  |  |  | |  | |    /  \     |  _  \  |  |  /  |          
                  \  \/   | |  | |   /    \    | | | |  |  | /  /          
                 / \  \   | |__| |  /  /\  \   | |_| |  |  |/  /          
                |  |  |   |  __  | /  /__\  \  |    /   |      \           
                |  |  |   | |  | | |   __   |  |    \   |  |\   \          
                \     /   | |  | | |  |  |  |  | |\  \  |  | \   \       
                 \___/    |_|  |_| |__|  |__|  |_| \__\ |__|  \__/        
                                                                              
                      - O R C A' S   B I G   F R I E N D -                    
                                      &                                       
                       - I N T E G R A L  F E E D E R -                       
                                                                              
 v1 FN, 2020, v2 2021, v3 2022-2024                                           
------------------------------------------------------------------------------


----------------------
SHARK INTEGRAL PACKAGE
----------------------

Number of atoms                             ...      8
Number of basis functions                   ...     97
Number of shells                            ...     45
Maximum angular momentum                    ...      2
Integral batch strategy                     ... SHARK/LIBINT Hybrid
RI-J (if used) integral strategy            ... SPLIT-RIJ (Revised 2003 algorithm where possible)
Printlevel                                  ...      1
Contraction scheme used                     ... SEGMENTED contraction
Prescreening option                         ... SCHWARTZ
   Thresh                                   ... 2.500e-11
   Tcut                                     ... 2.500e-12
   Tpresel                                  ... 2.500e-12 
Coulomb Range Separation                    ... NOT USED
Exchange Range Separation                   ... NOT USED
Multipole approximations                    ... NOT USED
Finite Nucleus Model                        ... NOT USED
CABS basis                                  ... NOT available
Auxiliary Coulomb fitting basis             ... AVAILABLE
   # of basis functions in Aux-J            ...    211
   # of shells in Aux-J                     ...     73
   Maximum angular momentum in Aux-J        ...      4
Auxiliary J/K fitting basis                 ... NOT available
Auxiliary Correlation fitting basis         ... NOT available
Auxiliary 'external' fitting basis          ... NOT available

Checking pre-screening integrals            ... done (  0.0 sec) Dimension = 45
Check shell pair data                       ... done (  0.0 sec)
Shell pair information
Shell pair cut-off parameter TPreSel        ...   2.5e-12
Total number of shell pairs                 ...      1035
Shell pairs after pre-screening             ...      1018
Total number of primitive shell pairs       ...      3736
Primitive shell pairs kept                  ...      3038
          la=0 lb=0:    294 shell pairs
          la=1 lb=0:    376 shell pairs
          la=1 lb=1:    135 shell pairs
          la=2 lb=0:    119 shell pairs
          la=2 lb=1:     79 shell pairs
          la=2 lb=2:     15 shell pairs

Calculating one electron integrals          ... done (  0.0 sec)
Calculating RI/J V-Matrix + Cholesky decomp.... done (  0.0 sec)
Calculating Nuclear repulsion               ... done (  0.0 sec) ENN=    161.687193103510 Eh

Diagonalization of the overlap matrix:
Smallest eigenvalue                        ... 4.052e-04
Time for diagonalization                   ...    0.001 sec
Threshold for overlap eigenvalues          ... 1.000e-07
Number of eigenvalues below threshold      ... 0
Time for construction of square roots      ...    0.003 sec
Total time needed                          ...    0.004 sec

-------------------
DFT GRID GENERATION
-------------------

General Integration Accuracy     IntAcc      ... 4.388
Radial Grid Type                 RadialGrid  ... OptM3 with GC (2021)
Angular Grid (max. ang.)         AngularGrid ... 4 (Lebedev-302)
Angular grid pruning method      GridPruning ... 4 (adaptive)
Weight generation scheme         WeightScheme... mBecke (2022)
Basis function cutoff            BFCut       ... 1.0000e-11
Integration weight cutoff        WCut        ... 1.0000e-14
Partially contracted basis set               ... off
Rotationally invariant grid construction     ... off
Angular grids for H and He will be reduced by one unit
Diffuse basis detected: some atoms will have their outermost
                        angular grid increased by 1.
Core-polarized basis detected: some atoms will have their core
                               angular grid increased.

Total number of grid points                  ...    40303
Total number of batches                      ...      636
Average number of points per batch           ...       63
Average number of grid points per atom       ...     5038
Initializing property integral containers    ... done (  0.0 sec)

SHARK setup successfully completed in   0.3 seconds

Maximum memory used throughout the entire STARTUP-calculation: 15.2 MB


           ************************************************************
           *        Program running with 4 parallel MPI-processes     *
           *              working on a common directory               *
           ************************************************************
Occupation numbers will be reassigned to an Aufbau configuration
             **** ENERGY FILE WAS UPDATED (job.en.tmp) ****
Finished Guess after   0.4 sec
Maximum memory used throughout the entire GUESS-calculation: 7.0 MB


           ************************************************************
           *        Program running with 4 parallel MPI-processes     *
           *              working on a common directory               *
           ************************************************************
--------------------
CPCM SOLVATION MODEL
--------------------
CPCM parameters:
  Epsilon                                         ...      35.6880
  Refrac                                          ...       1.3442
  Rsolv                                           ...       1.3000
  Surface type                                    ... GAUSSIAN VDW
  Discretization scheme                           ... Constant charge density
    Threshold for H atoms                         ...       5.0000 (charges/Ang^2)
    Threshold for non-H atoms                     ...       5.0000 (charges/Ang^2)
  Epsilon function type                           ...         CPCM
Solvent:                                          ... ACETONITRILE
SMD-CDS solvent descriptors:
  Soln                                            ...       1.3442
  Soln25                                          ...       1.3416
  Sola                                            ...       0.0700
  Solb                                            ...       0.3200
  Solg                                            ...      41.2500
  Solc                                            ...       0.0000
  Solh                                            ...       0.0000
Radii:
  Scheme                                          ... Element-dependent radii
  Radius for C  used is    3.4960 Bohr (=   1.8500 Ang.)
  Radius for H  used is    2.2677 Bohr (=   1.2000 Ang.)
  Radius for Br used is    5.7826 Bohr (=   3.0600 Ang.)
Calculating surface                               ...        done! (  0.0s)
Cavity surface points                             ...          919
Cavity Volume                                     ...     959.3774
Cavity Surface-area                               ...     497.6032
Calculating surface distance matrix               ...        done! (  0.0s)
Performing Cholesky decomposition & store         ...        done! (  0.0s)
Overall time for CPCM initialization              ...                 0.0s

----------------------------------------D-I-I-S--------------------------------------------
Iteration    Energy (Eh)           Delta-E    RMSDP     MaxDP     DIISErr   Damp  Time(sec)
-------------------------------------------------------------------------------------------
               ***  Starting incremental Fock matrix formation  ***
                              *** Initializing SOSCF ***
---------------------------------------S-O-S-C-F--------------------------------------
Iteration    Energy (Eh)           Delta-E    RMSDP     MaxDP     MaxGrad    Time(sec)
--------------------------------------------------------------------------------------
    1    -2652.5173121608113433     0.00e+00  1.12e-04  1.77e-03  1.55e-04     0.1
               *** Restarting incremental Fock matrix formation ***
    2    -2652.5173227073009912    -1.05e-05  5.41e-05  6.71e-04  1.33e-04     0.1
    3    -2652.5173236504242595    -9.43e-07  1.68e-05  3.01e-04  1.09e-04     0.1
    4    -2652.5173236650589388    -1.46e-08  1.14e-05  1.56e-04  8.52e-05     0.1
    5    -2652.5173237833814710    -1.18e-07  3.93e-06  7.21e-05  1.50e-05     0.1
    6    -2652.5173237772005450     6.18e-09  2.26e-06  4.12e-05  1.91e-05     0.1
                 **** Energy Check signals convergence ****

               *****************************************************
               *                     SUCCESS                       *
               *           SCF CONVERGED AFTER   6 CYCLES          *
               *****************************************************


SMD CDS free energy correction energy :                -1.91613     Kcal/mol
Total Energy after SMD CDS correction =             -2652.520377320 Eh
             **** ENERGY FILE WAS UPDATED (job.en.tmp) ****

----------------
TOTAL SCF ENERGY
----------------

Total Energy       :      -2652.52037731996734 Eh          -72178.74896 eV

Components:
Nuclear Repulsion  :        161.68719310351048 Eh            4399.73220 eV
Electronic Energy  :      -2814.19944574533383 Eh          -76578.26008 eV
One Electron Energy:      -4008.99340951213526 Eh         -109090.25671 eV
Two Electron Energy:       1194.79396376680165 Eh           32511.99663 eV
CPCM Dielectric    :         -0.00507113537724 Eh              -0.13799 eV
SMD CDS (Gcds)     :         -0.00305354276674 Eh              -0.08309 eV

Virial components:
Potential Energy   :      -5300.97393367848599 Eh         -144246.83410 eV
Kinetic Energy     :       2648.45355635851865 Eh           72068.08514 eV
Virial Ratio       :          2.00153554550794

DFT components:
N(Alpha)           :       26.000009859651 electrons
N(Beta)            :       26.000009859651 electrons
N(Total)           :       52.000019719302 electrons
E(X)               :     -101.190869538095 Eh       
E(C)               :       -2.256831301457 Eh       
E(XC)              :     -103.447700839553 Eh       

CPCM Solvation Model Properties:
Surface-charge          :         -0.01701269765165
Corrected charge        :          0.00000000000000
Outlying charge corr.   :          0.00002257710806 Eh               0.00061 eV
Free-energy (cav+disp)  :         -0.00305354276674 Eh              -0.08309 eV

---------------
SCF CONVERGENCE
---------------

  Last Energy change         ...   -6.1809e-09  Tolerance :   1.0000e-08
  Last MAX-Density change    ...    4.1177e-05  Tolerance :   1.0000e-07
  Last RMS-Density change    ...    2.2551e-06  Tolerance :   5.0000e-09
  Last DIIS Error            ...    1.2619e-03  Tolerance :   5.0000e-07
  Last Orbital Gradient      ...    1.9138e-05  Tolerance :   1.0000e-05
  Last Orbital Rotation      ...    2.1618e-05  Tolerance :   1.0000e-05


Total SCF time: 0 days 0 hours 0 min 1 sec 
Finished LeanSCF after   1.2 sec

Maximum memory used throughout the entire LEANSCF-calculation: 10.0 MB


           ************************************************************
           *        Program running with 4 parallel MPI-processes     *
           *              working on a common directory               *
           ************************************************************

------------------------------------------------------------------------------
                         ORCA PROPERTY INTEGRAL CALCULATIONS
------------------------------------------------------------------------------

GBWName                                   ... job.gbw
Number of atoms                           ...      8
Number of basis functions                 ...     97
Max core memory                           ...   3000 MB

Dipole integrals                          ... YES
Quadrupole integrals                      ...  NO
Linear momentum integrals                 ...  NO
Angular momentum integrals                ...  NO
Higher moments length integrals           ...  NO
Higher moments velocity integrals         ...  NO
Kinetic energy integrals                  ...  NO
GIAO right hand sides                     ...  NO
GIAO dipole derivative integrals          ...  NO
SOC integrals                             ...  NO
EPR diamagnetic integrals (GIAO)          ...  NO
EPR gauge integrals                       ...  NO
Field gradient integrals                  ...  NO (   0 nuclei)
Spin-dipole/Fermi contact integrals       ...  NO (   0 nuclei)
Contact density integrals                 ...  NO (   0 nuclei)
Nucleus-orbit integrals                   ...  NO (   0 nuclei)
Geometric perturbations                   ...  NO (   8 nuclei)

Choice of electric origin   ... Center of mass
Position of electric origin ... ( -8.3037, -3.8050, -1.5636) 
Choice of magnetic origin   ... GIAO
Position of magnetic origin ... (  0.0000,  0.0000,  0.0000) 

Calculating integrals                     ... Electric Dipole (Length)     done (  0.0 sec)

Property integrals calculated in   0.0 sec

Maximum memory used throughout the entire PROPINT-calculation: 7.1 MB

-------------------------   --------------------
FINAL SINGLE POINT ENERGY     -2652.520377319967
-------------------------   --------------------



           ************************************************************
           *        Program running with 4 parallel MPI-processes     *
           *              working on a common directory               *
           ************************************************************
------------------------------------------------------------------------------
                         ORCA SCF GRADIENT CALCULATION
------------------------------------------------------------------------------

Nuc. rep. gradient        (SHARK) ... done (  0.0 sec)
HCore & Overlap gradient  (SHARK) ... done (  0.0 sec)
Split-RIJ-J gradient      (SHARK) ... done (  0.2 sec)
XC gradient                       ... done (  0.3 sec)
CPCM gradient                     ... done (  0.1 sec)
SMD gradient                      ... done (  0.0 sec)

------------------
CARTESIAN GRADIENT
------------------

   1   C   :    0.000193465   -0.000206280   -0.000079064
   2   H   :   -0.000108243    0.000025597    0.000060166
   3   H   :   -0.000013208   -0.000064644   -0.000072934
   4   C   :   -0.000645685    0.000153535    0.000773294
   5   H   :    0.000341176    0.000174839   -0.000270912
   6   Br  :    0.000189461   -0.000423597   -0.000086365
   7   H   :   -0.000077975    0.000232427   -0.000310721
   8   H   :    0.000121008    0.000108124   -0.000013464

Difference to translation invariance:
           :   -0.0000000011   -0.0000000002    0.0000000002

Difference to rotation invariance:
           :   -0.0000185719    0.0000175586   -0.0000482287

Norm of the Cartesian gradient     ...    0.0013329212
RMS gradient                       ...    0.0002720814
MAX gradient                       ...    0.0007732941

-------
TIMINGS
-------

Total SCF gradient time     ....        0.616 sec

Densities                   ....       0.000 sec  (  0.0%)
One electron gradient       ....       0.014 sec  (  2.2%)
RI-J Coulomb gradient       ....       0.174 sec  ( 28.3%)
XC gradient                 ....       0.271 sec  ( 44.0%)
CPCM gradient               ....       0.079 sec  ( 12.8%)
   A-Matrix (El+Nuc)        ....       0.025 sec  (  4.0%)
   Potential                ....       0.054 sec  (  8.7%)
SMD gradient                ....       0.002 sec  (  0.3%)

Maximum memory used throughout the entire SCFGRAD-calculation: 12.1 MB
------------------------------------------------------------------------------
                         ORCA GEOMETRY RELAXATION STEP
------------------------------------------------------------------------------

Reading the OPT-File                    .... done
Getting information on internals        .... done
Copying old internal coords+grads       .... done
Making the new internal coordinates     .... (2022 redundants) done
Validating the new internal coordinates .... (2022 redundants) done
Calculating the B-matrix                .... done
Calculating the G,G- and P matrices     .... done
Transforming gradient to internals      .... done
Projecting the internal gradient        .... done
Number of atoms                         ....   8
Number of internal coordinates          ....  25
Current Energy                          .... -2652.520377320 Eh
Current gradient norm                   ....     0.001332921 Eh/bohr
Maximum allowed component of the step   ....  0.300
Current trust radius                    ....  0.675
Updating the Hessian (BFGS)             .... done
Forming the augmented Hessian           .... done
Diagonalizing the augmented Hessian     .... done
Last element of RFO vector              ....  0.999924857
Lowest eigenvalues of augmented Hessian:
 -0.000007717  0.013388099  0.077894795  0.115583376  0.136352688
Length of the computed step             ....  0.012259821
The final length of the internal step   ....  0.012259821
Converting the step to Cartesian space:
 Initial RMS(Int)=    0.0024519642
Transforming coordinates:
 Iter   0:  RMS(Cart)=    0.0027944648 RMS(Int)=    0.0024524898
done
Storing new coordinates                 .... done
The predicted energy change is          ....    -0.000003859
Previously predicted energy change      ....    -0.000021559
Actually observed energy change         ....    -0.000026340
Ratio of predicted to observed change   ....     1.221769536
New trust radius                        ....     0.700000000

                                .--------------------.
          ----------------------|Geometry convergence|-------------------------
          Item                value                   Tolerance       Converged
          ---------------------------------------------------------------------
          Energy change      -0.0000263402            0.0000050000      NO
          RMS gradient        0.0002295537            0.0001000000      NO
          MAX gradient        0.0004528412            0.0003000000      NO
          RMS step            0.0024519642            0.0020000000      NO
          MAX step            0.0050357268            0.0040000000      NO
          ........................................................
          Max(Bonds)      0.0008      Max(Angles)    0.18
          Max(Dihed)        0.29      Max(Improp)    0.00
          ---------------------------------------------------------------------

The optimization has not yet converged - more geometry cycles are needed


    ---------------------------------------------------------------------------
                         Redundant Internal Coordinates
                            (Angstroem and degrees)

        Definition                    Value    dE/dq     Step     New-Value
    ----------------------------------------------------------------------------
     1. B(H   1,C   0)                1.1120  0.000030 -0.0000    1.1120   
     2. B(H   2,C   0)                1.1085 -0.000021  0.0000    1.1086   
     3. B(C   3,C   0)                1.5120  0.000160 -0.0005    1.5115   
     4. B(H   4,C   3)                1.1054 -0.000239  0.0002    1.1057   
     5. B(Br  5,C   3)                1.9922  0.000414 -0.0008    1.9914   
     6. B(H   6,C   3)                1.1063  0.000280 -0.0005    1.1058   
     7. B(H   7,C   0)                1.1085 -0.000009 -0.0000    1.1085   
     8. A(H   1,C   0,H   7)          107.68 -0.000026    0.01    107.69   
     9. A(H   1,C   0,C   3)          108.20 -0.000229    0.05    108.25   
    10. A(C   3,C   0,H   7)          112.23  0.000261   -0.06    112.16   
    11. A(H   2,C   0,H   7)          108.71 -0.000106    0.02    108.73   
    12. A(H   2,C   0,C   3)          112.13  0.000001   -0.01    112.12   
    13. A(H   1,C   0,H   2)          107.71  0.000092   -0.02    107.69   
    14. A(C   0,C   3,H   6)          112.64 -0.000180    0.07    112.71   
    15. A(H   4,C   3,Br  5)          104.79  0.000414   -0.10    104.69   
    16. A(C   0,C   3,Br  5)          112.19 -0.000453    0.09    112.28   
    17. A(Br  5,C   3,H   6)          104.78  0.000348   -0.18    104.60   
    18. A(H   4,C   3,H   6)          109.33  0.000369   -0.12    109.21   
    19. A(C   0,C   3,H   4)          112.55 -0.000397    0.18    112.73   
    20. D(H   4,C   3,C   0,H   2)     57.09 -0.000013   -0.21     56.88   
    21. D(H   4,C   3,C   0,H   7)    179.78  0.000043   -0.22    179.56   
    22. D(Br  5,C   3,C   0,H   1)   -179.45  0.000071   -0.28   -179.73   
    23. D(Br  5,C   3,C   0,H   2)    -60.81  0.000038   -0.27    -61.08   
    24. D(Br  5,C   3,C   0,H   7)     61.89  0.000095   -0.29     61.60   
    25. D(H   4,C   3,C   0,H   1)    -61.55  0.000020   -0.21    -61.76   
    ----------------------------------------------------------------------------

Geometry step timings:
Preparation and reading OPT file:      0.000 s (12.089 %)
Internal coordinates            :      0.000 s ( 0.591 %)
B/P matrices and projection     :      0.000 s ( 6.765 %)
Hessian update/contruction      :      0.002 s (55.823 %)
Making the step                 :      0.000 s ( 4.104 %)
Converting the step to Cartesian:      0.000 s ( 0.776 %)
Storing new data                :      0.000 s ( 1.479 %)
Checking convergence            :      0.000 s ( 0.222 %)
Final printing                  :      0.000 s (18.004 %)
Total time                      :      0.003 s

Time for energy+gradient        :      4.573 s
Time for complete geometry iter :      5.154 s

         *************************************************************
         *                GEOMETRY OPTIMIZATION CYCLE   9            *
         *************************************************************
---------------------------------
CARTESIAN COORDINATES (ANGSTROEM)
---------------------------------
  C     -3.210611   -0.125902   -1.350567
  H     -3.199809    0.983066   -1.269304
  H     -2.294073   -0.508646   -0.858265
  C     -4.468885   -0.637016   -0.687074
  H     -4.514648   -0.390265    0.389764
  Br    -4.606081   -2.622495   -0.756501
  H     -5.389408   -0.276457   -1.182389
  H     -3.170884   -0.385113   -2.427615

----------------------------
CARTESIAN COORDINATES (A.U.)
----------------------------
  NO LB      ZA    FRAG     MASS         X           Y           Z
   0 C     6.0000    0    12.011   -6.067175   -0.237921   -2.552201
   1 H     1.0000    0     1.008   -6.046763    1.857725   -2.398638
   2 H     1.0000    0     1.008   -4.335169   -0.961201   -1.621886
   3 C     6.0000    0    12.011   -8.444969   -1.203786   -1.298381
   4 H     1.0000    0     1.008   -8.531448   -0.737494    0.736548
   5 Br   35.0000    0    79.900   -8.704232   -4.955797   -1.429579
   6 H     1.0000    0     1.008  -10.184505   -0.522429   -2.234391
   7 H     1.0000    0     1.008   -5.992102   -0.727758   -4.587527

--------------------------------
INTERNAL COORDINATES (ANGSTROEM)
--------------------------------
 C      0   0   0     0.000000000000     0.00000000     0.00000000
 H      1   0   0     1.111993719529     0.00000000     0.00000000
 H      1   2   0     1.108555436133   107.68832415     0.00000000
 C      1   2   3     1.511527338939   108.25411930   121.42581910
 H      4   1   2     1.105694626304   112.73637133   298.23631932
 Br     4   1   2     1.991423939198   112.28299085   180.27476867
 H      4   1   2     1.105758185495   112.71295652    62.44077836
 H      1   2   3     1.108512945155   107.68933749   242.90303320

---------------------------
INTERNAL COORDINATES (A.U.)
---------------------------
 C      0   0   0     0.000000000000     0.00000000     0.00000000
 H      1   0   0     2.101363592550     0.00000000     0.00000000
 H      1   2   0     2.094866178561   107.68832415     0.00000000
 C      1   2   3     2.856372714530   108.25411930   121.42581910
 H      4   1   2     2.089460031462   112.73637133   298.23631932
 Br     4   1   2     3.763245861618   112.28299085   180.27476867
 H      4   1   2     2.089580140927   112.71295652    62.44077836
 H      1   2   3     2.094785882249   107.68933749   242.90303320



           ************************************************************
           *        Program running with 4 parallel MPI-processes     *
           *              working on a common directory               *
           ************************************************************
------------------------------------------------------------------------------
                   ___                                                        
                  /   \      - P O W E R E D   B Y -                         
                 /     \                                                     
                 |  |  |   _    _      __       _____    __    __             
                 |  |  |  | |  | |    /  \     |  _  \  |  |  /  |          
                  \  \/   | |  | |   /    \    | | | |  |  | /  /          
                 / \  \   | |__| |  /  /\  \   | |_| |  |  |/  /          
                |  |  |   |  __  | /  /__\  \  |    /   |      \           
                |  |  |   | |  | | |   __   |  |    \   |  |\   \          
                \     /   | |  | | |  |  |  |  | |\  \  |  | \   \       
                 \___/    |_|  |_| |__|  |__|  |_| \__\ |__|  \__/        
                                                                              
                      - O R C A' S   B I G   F R I E N D -                    
                                      &                                       
                       - I N T E G R A L  F E E D E R -                       
                                                                              
 v1 FN, 2020, v2 2021, v3 2022-2024                                           
------------------------------------------------------------------------------


----------------------
SHARK INTEGRAL PACKAGE
----------------------

Number of atoms                             ...      8
Number of basis functions                   ...     97
Number of shells                            ...     45
Maximum angular momentum                    ...      2
Integral batch strategy                     ... SHARK/LIBINT Hybrid
RI-J (if used) integral strategy            ... SPLIT-RIJ (Revised 2003 algorithm where possible)
Printlevel                                  ...      1
Contraction scheme used                     ... SEGMENTED contraction
Prescreening option                         ... SCHWARTZ
   Thresh                                   ... 2.500e-11
   Tcut                                     ... 2.500e-12
   Tpresel                                  ... 2.500e-12 
Coulomb Range Separation                    ... NOT USED
Exchange Range Separation                   ... NOT USED
Multipole approximations                    ... NOT USED
Finite Nucleus Model                        ... NOT USED
CABS basis                                  ... NOT available
Auxiliary Coulomb fitting basis             ... AVAILABLE
   # of basis functions in Aux-J            ...    211
   # of shells in Aux-J                     ...     73
   Maximum angular momentum in Aux-J        ...      4
Auxiliary J/K fitting basis                 ... NOT available
Auxiliary Correlation fitting basis         ... NOT available
Auxiliary 'external' fitting basis          ... NOT available

Checking pre-screening integrals            ... done (  0.0 sec) Dimension = 45
Check shell pair data                       ... done (  0.0 sec)
Shell pair information
Shell pair cut-off parameter TPreSel        ...   2.5e-12
Total number of shell pairs                 ...      1035
Shell pairs after pre-screening             ...      1018
Total number of primitive shell pairs       ...      3736
Primitive shell pairs kept                  ...      3038
          la=0 lb=0:    294 shell pairs
          la=1 lb=0:    376 shell pairs
          la=1 lb=1:    135 shell pairs
          la=2 lb=0:    119 shell pairs
          la=2 lb=1:     79 shell pairs
          la=2 lb=2:     15 shell pairs

Calculating one electron integrals          ... done (  0.0 sec)
Calculating RI/J V-Matrix + Cholesky decomp.... done (  0.0 sec)
Calculating Nuclear repulsion               ... done (  0.0 sec) ENN=    161.722796750317 Eh

Diagonalization of the overlap matrix:
Smallest eigenvalue                        ... 4.047e-04
Time for diagonalization                   ...    0.001 sec
Threshold for overlap eigenvalues          ... 1.000e-07
Number of eigenvalues below threshold      ... 0
Time for construction of square roots      ...    0.002 sec
Total time needed                          ...    0.004 sec

-------------------
DFT GRID GENERATION
-------------------

General Integration Accuracy     IntAcc      ... 4.388
Radial Grid Type                 RadialGrid  ... OptM3 with GC (2021)
Angular Grid (max. ang.)         AngularGrid ... 4 (Lebedev-302)
Angular grid pruning method      GridPruning ... 4 (adaptive)
Weight generation scheme         WeightScheme... mBecke (2022)
Basis function cutoff            BFCut       ... 1.0000e-11
Integration weight cutoff        WCut        ... 1.0000e-14
Partially contracted basis set               ... off
Rotationally invariant grid construction     ... off
Angular grids for H and He will be reduced by one unit
Diffuse basis detected: some atoms will have their outermost
                        angular grid increased by 1.
Core-polarized basis detected: some atoms will have their core
                               angular grid increased.

Total number of grid points                  ...    40302
Total number of batches                      ...      636
Average number of points per batch           ...       63
Average number of grid points per atom       ...     5038
Initializing property integral containers    ... done (  0.0 sec)

SHARK setup successfully completed in   0.3 seconds

Maximum memory used throughout the entire STARTUP-calculation: 15.2 MB


           ************************************************************
           *        Program running with 4 parallel MPI-processes     *
           *              working on a common directory               *
           ************************************************************
Occupation numbers will be reassigned to an Aufbau configuration
             **** ENERGY FILE WAS UPDATED (job.en.tmp) ****
Finished Guess after   0.3 sec
Maximum memory used throughout the entire GUESS-calculation: 7.0 MB


           ************************************************************
           *        Program running with 4 parallel MPI-processes     *
           *              working on a common directory               *
           ************************************************************
--------------------
CPCM SOLVATION MODEL
--------------------
CPCM parameters:
  Epsilon                                         ...      35.6880
  Refrac                                          ...       1.3442
  Rsolv                                           ...       1.3000
  Surface type                                    ... GAUSSIAN VDW
  Discretization scheme                           ... Constant charge density
    Threshold for H atoms                         ...       5.0000 (charges/Ang^2)
    Threshold for non-H atoms                     ...       5.0000 (charges/Ang^2)
  Epsilon function type                           ...         CPCM
Solvent:                                          ... ACETONITRILE
SMD-CDS solvent descriptors:
  Soln                                            ...       1.3442
  Soln25                                          ...       1.3416
  Sola                                            ...       0.0700
  Solb                                            ...       0.3200
  Solg                                            ...      41.2500
  Solc                                            ...       0.0000
  Solh                                            ...       0.0000
Radii:
  Scheme                                          ... Element-dependent radii
  Radius for C  used is    3.4960 Bohr (=   1.8500 Ang.)
  Radius for H  used is    2.2677 Bohr (=   1.2000 Ang.)
  Radius for Br used is    5.7826 Bohr (=   3.0600 Ang.)
Calculating surface                               ...        done! (  0.0s)
Cavity surface points                             ...          918
Cavity Volume                                     ...     959.3106
Cavity Surface-area                               ...     497.5797
Calculating surface distance matrix               ...        done! (  0.0s)
Performing Cholesky decomposition & store         ...        done! (  0.0s)
Overall time for CPCM initialization              ...                 0.0s

----------------------------------------D-I-I-S--------------------------------------------
Iteration    Energy (Eh)           Delta-E    RMSDP     MaxDP     DIISErr   Damp  Time(sec)
-------------------------------------------------------------------------------------------
               ***  Starting incremental Fock matrix formation  ***
                              *** Initializing SOSCF ***
---------------------------------------S-O-S-C-F--------------------------------------
Iteration    Energy (Eh)           Delta-E    RMSDP     MaxDP     MaxGrad    Time(sec)
--------------------------------------------------------------------------------------
    1    -2652.5173254197970891     0.00e+00  5.67e-05  6.90e-04  9.42e-05     0.1
               *** Restarting incremental Fock matrix formation ***
    2    -2652.5173286411827576    -3.22e-06  3.10e-05  4.09e-04  8.25e-05     0.2
    3    -2652.5173289432027559    -3.02e-07  1.30e-05  2.33e-04  5.98e-05     0.1
    4    -2652.5173289271028807     1.61e-08  9.82e-06  1.24e-04  6.29e-05     0.1
    5    -2652.5173290109923983    -8.39e-08  1.89e-06  3.67e-05  5.27e-06     0.1
    6    -2652.5173290102097781     7.83e-10  8.34e-07  1.83e-05  4.43e-06     0.1
                 **** Energy Check signals convergence ****

               *****************************************************
               *                     SUCCESS                       *
               *           SCF CONVERGED AFTER   6 CYCLES          *
               *****************************************************


SMD CDS free energy correction energy :                -1.91578     Kcal/mol
Total Energy after SMD CDS correction =             -2652.520382003 Eh
             **** ENERGY FILE WAS UPDATED (job.en.tmp) ****

----------------
TOTAL SCF ENERGY
----------------

Total Energy       :      -2652.52038200256675 Eh          -72178.74909 eV

Components:
Nuclear Repulsion  :        161.72279675031726 Eh            4400.70103 eV
Electronic Energy  :      -2814.23506360335659 Eh          -76579.22929 eV
One Electron Energy:      -4009.06321927620638 Eh         -109092.15633 eV
Two Electron Energy:       1194.82815567284979 Eh           32512.92704 eV
CPCM Dielectric    :         -0.00506215717026 Eh              -0.13775 eV
SMD CDS (Gcds)     :         -0.00305299235679 Eh              -0.08308 eV

Virial components:
Potential Energy   :      -5300.97599263848679 Eh         -144246.89013 eV
Kinetic Energy     :       2648.45561063591958 Eh           72068.14104 eV
Virial Ratio       :          2.00153477043388

DFT components:
N(Alpha)           :       26.000009593154 electrons
N(Beta)            :       26.000009593154 electrons
N(Total)           :       52.000019186307 electrons
E(X)               :     -101.191329645612 Eh       
E(C)               :       -2.256882715807 Eh       
E(XC)              :     -103.448212361419 Eh       

CPCM Solvation Model Properties:
Surface-charge          :         -0.01700382438117
Corrected charge        :          0.00000000000000
Outlying charge corr.   :          0.00002255417546 Eh               0.00061 eV
Free-energy (cav+disp)  :         -0.00305299235679 Eh              -0.08308 eV

---------------
SCF CONVERGENCE
---------------

  Last Energy change         ...   -7.8262e-10  Tolerance :   1.0000e-08
  Last MAX-Density change    ...    1.8311e-05  Tolerance :   1.0000e-07
  Last RMS-Density change    ...    8.3440e-07  Tolerance :   5.0000e-09
  Last DIIS Error            ...    6.6729e-04  Tolerance :   5.0000e-07
  Last Orbital Gradient      ...    4.4319e-06  Tolerance :   1.0000e-05
  Last Orbital Rotation      ...    3.0731e-06  Tolerance :   1.0000e-05


Total SCF time: 0 days 0 hours 0 min 1 sec 
Finished LeanSCF after   1.2 sec

Maximum memory used throughout the entire LEANSCF-calculation: 10.1 MB


           ************************************************************
           *        Program running with 4 parallel MPI-processes     *
           *              working on a common directory               *
           ************************************************************

------------------------------------------------------------------------------
                         ORCA PROPERTY INTEGRAL CALCULATIONS
------------------------------------------------------------------------------

GBWName                                   ... job.gbw
Number of atoms                           ...      8
Number of basis functions                 ...     97
Max core memory                           ...   3000 MB

Dipole integrals                          ... YES
Quadrupole integrals                      ...  NO
Linear momentum integrals                 ...  NO
Angular momentum integrals                ...  NO
Higher moments length integrals           ...  NO
Higher moments velocity integrals         ...  NO
Kinetic energy integrals                  ...  NO
GIAO right hand sides                     ...  NO
GIAO dipole derivative integrals          ...  NO
SOC integrals                             ...  NO
EPR diamagnetic integrals (GIAO)          ...  NO
EPR gauge integrals                       ...  NO
Field gradient integrals                  ...  NO (   0 nuclei)
Spin-dipole/Fermi contact integrals       ...  NO (   0 nuclei)
Contact density integrals                 ...  NO (   0 nuclei)
Nucleus-orbit integrals                   ...  NO (   0 nuclei)
Geometric perturbations                   ...  NO (   8 nuclei)

Choice of electric origin   ... Center of mass
Position of electric origin ... ( -8.3070, -3.8030, -1.5662) 
Choice of magnetic origin   ... GIAO
Position of magnetic origin ... (  0.0000,  0.0000,  0.0000) 

Calculating integrals                     ... Electric Dipole (Length)     done (  0.0 sec)

Property integrals calculated in   0.0 sec

Maximum memory used throughout the entire PROPINT-calculation: 7.1 MB

-------------------------   --------------------
FINAL SINGLE POINT ENERGY     -2652.520382002567
-------------------------   --------------------



           ************************************************************
           *        Program running with 4 parallel MPI-processes     *
           *              working on a common directory               *
           ************************************************************
------------------------------------------------------------------------------
                         ORCA SCF GRADIENT CALCULATION
------------------------------------------------------------------------------

Nuc. rep. gradient        (SHARK) ... done (  0.0 sec)
HCore & Overlap gradient  (SHARK) ... done (  0.0 sec)
Split-RIJ-J gradient      (SHARK) ... done (  0.2 sec)
XC gradient                       ... done (  0.3 sec)
CPCM gradient                     ... done (  0.1 sec)
SMD gradient                      ... done (  0.0 sec)

------------------
CARTESIAN GRADIENT
------------------

   1   C   :    0.000043722   -0.000154965   -0.000120989
   2   H   :   -0.000055600    0.000018774    0.000046123
   3   H   :   -0.000008907   -0.000037462   -0.000014001
   4   C   :   -0.000192808    0.000228600    0.000291860
   5   H   :    0.000066351    0.000029380   -0.000092790
   6   Br  :    0.000024956   -0.000057750   -0.000047900
   7   H   :    0.000066549   -0.000085027   -0.000058760
   8   H   :    0.000055737    0.000058451   -0.000003543

Difference to translation invariance:
           :    0.0000000005    0.0000000004    0.0000000001

Difference to rotation invariance:
           :   -0.0000247731    0.0000160135   -0.0000527313

Norm of the Cartesian gradient     ...    0.0005140073
RMS gradient                       ...    0.0001049213
MAX gradient                       ...    0.0002918599

-------
TIMINGS
-------

Total SCF gradient time     ....        0.603 sec

Densities                   ....       0.000 sec  (  0.0%)
One electron gradient       ....       0.013 sec  (  2.1%)
RI-J Coulomb gradient       ....       0.168 sec  ( 27.9%)
XC gradient                 ....       0.278 sec  ( 46.2%)
CPCM gradient               ....       0.077 sec  ( 12.8%)
   A-Matrix (El+Nuc)        ....       0.023 sec  (  3.8%)
   Potential                ....       0.054 sec  (  9.0%)
SMD gradient                ....       0.002 sec  (  0.3%)

Maximum memory used throughout the entire SCFGRAD-calculation: 12.1 MB
------------------------------------------------------------------------------
                         ORCA GEOMETRY RELAXATION STEP
------------------------------------------------------------------------------

Reading the OPT-File                    .... done
Getting information on internals        .... done
Copying old internal coords+grads       .... done
Making the new internal coordinates     .... (2022 redundants) done
Validating the new internal coordinates .... (2022 redundants) done
Calculating the B-matrix                .... done
Calculating the G,G- and P matrices     .... done
Transforming gradient to internals      .... done
Projecting the internal gradient        .... done
Number of atoms                         ....   8
Number of internal coordinates          ....  25
Current Energy                          .... -2652.520382003 Eh
Current gradient norm                   ....     0.000514007 Eh/bohr
Maximum allowed component of the step   ....  0.300
Current trust radius                    ....  0.700
Updating the Hessian (BFGS)             .... done
Forming the augmented Hessian           .... done
Diagonalizing the augmented Hessian     .... done
Last element of RFO vector              ....  0.999977672
Lowest eigenvalues of augmented Hessian:
 -0.000001122  0.011482978  0.075733828  0.122337729  0.137740306
Length of the computed step             ....  0.006682676
The final length of the internal step   ....  0.006682676
Converting the step to Cartesian space:
 Initial RMS(Int)=    0.0013365351
Transforming coordinates:
 Iter   0:  RMS(Cart)=    0.0016171630 RMS(Int)=    0.0013365296
done
Storing new coordinates                 .... done
The predicted energy change is          ....    -0.000000561
Previously predicted energy change      ....    -0.000003859
Actually observed energy change         ....    -0.000004683
Ratio of predicted to observed change   ....     1.213416725
New trust radius                        ....     0.700000000

                                .--------------------.
          ----------------------|Geometry convergence|-------------------------
          Item                value                   Tolerance       Converged
          ---------------------------------------------------------------------
          Energy change      -0.0000046826            0.0000050000      YES
          RMS gradient        0.0000774280            0.0001000000      YES
          MAX gradient        0.0001875119            0.0003000000      YES
          RMS step            0.0013365351            0.0020000000      YES
          MAX step            0.0029583733            0.0040000000      YES
          ........................................................
          Max(Bonds)      0.0006      Max(Angles)    0.07
          Max(Dihed)        0.17      Max(Improp)    0.00
          ---------------------------------------------------------------------

                    ***********************HURRAY********************
                    ***        THE OPTIMIZATION HAS CONVERGED     ***
                    *************************************************


    ---------------------------------------------------------------------------
                         Redundant Internal Coordinates

                          --- Optimized Parameters ---  
                            (Angstroem and degrees)

        Definition                    OldVal   dE/dq     Step     FinalVal
    ----------------------------------------------------------------------------
     1. B(H   1,C   0)                1.1120  0.000023 -0.0001    1.1119   
     2. B(H   2,C   0)                1.1086 -0.000001  0.0000    1.1086   
     3. B(C   3,C   0)                1.5115  0.000030 -0.0001    1.5114   
     4. B(H   4,C   3)                1.1057 -0.000087  0.0002    1.1059   
     5. B(Br  5,C   3)                1.9914  0.000059 -0.0006    1.9909   
     6. B(H   6,C   3)                1.1058 -0.000057  0.0002    1.1059   
     7. B(H   7,C   0)                1.1085 -0.000009  0.0000    1.1085   
     8. A(H   1,C   0,H   7)          107.69 -0.000004    0.01    107.69   
     9. A(H   1,C   0,C   3)          108.25 -0.000129    0.04    108.30   
    10. A(C   3,C   0,H   7)          112.16  0.000141   -0.04    112.12   
    11. A(H   2,C   0,H   7)          108.73 -0.000036    0.00    108.73   
    12. A(H   2,C   0,C   3)          112.12 -0.000025    0.00    112.12   
    13. A(H   1,C   0,H   2)          107.69  0.000052   -0.01    107.68   
    14. A(C   0,C   3,H   6)          112.71 -0.000007    0.01    112.72   
    15. A(H   4,C   3,Br  5)          104.69  0.000104   -0.02    104.67   
    16. A(C   0,C   3,Br  5)          112.28 -0.000188    0.05    112.33   
    17. A(Br  5,C   3,H   6)          104.60 -0.000089    0.00    104.61   
    18. A(H   4,C   3,H   6)          109.21  0.000183   -0.07    109.14   
    19. A(C   0,C   3,H   4)          112.74  0.000004    0.03    112.76   
    20. D(H   4,C   3,C   0,H   2)     56.89  0.000003   -0.12     56.77   
    21. D(H   4,C   3,C   0,H   7)    179.56  0.000041   -0.14    179.42   
    22. D(Br  5,C   3,C   0,H   1)   -179.73  0.000031   -0.16   -179.89   
    23. D(Br  5,C   3,C   0,H   2)    -61.08 -0.000004   -0.14    -61.22   
    24. D(Br  5,C   3,C   0,H   7)     61.60  0.000035   -0.17     61.43   
    25. D(H   4,C   3,C   0,H   1)    -61.76  0.000037   -0.14    -61.90   
    ----------------------------------------------------------------------------

Geometry step timings:
Preparation and reading OPT file:      0.000 s (10.120 %)
Internal coordinates            :      0.000 s ( 0.390 %)
B/P matrices and projection     :      0.000 s ( 5.255 %)
Hessian update/contruction      :      0.002 s (60.210 %)
Making the step                 :      0.000 s ( 3.363 %)
Converting the step to Cartesian:      0.000 s ( 0.631 %)
Storing new data                :      0.000 s ( 1.081 %)
Checking convergence            :      0.000 s ( 0.210 %)
Final printing                  :      0.001 s (18.709 %)
Total time                      :      0.003 s
                 *******************************************************
                 *** FINAL ENERGY EVALUATION AT THE STATIONARY POINT ***
                 ***               (AFTER    9 CYCLES)               ***
                 *******************************************************
---------------------------------
CARTESIAN COORDINATES (ANGSTROEM)
---------------------------------
  C     -3.210453   -0.125677   -1.350477
  H     -3.200327    0.983371   -1.271058
  H     -2.293723   -0.506923   -0.857349
  C     -4.468447   -0.637395   -0.687111
  H     -4.514454   -0.391583    0.390093
  Br    -4.607174   -2.622152   -0.757740
  H     -5.389368   -0.275719   -1.181223
  H     -3.170452   -0.386751   -2.427084

----------------------------
CARTESIAN COORDINATES (A.U.)
----------------------------
  NO LB      ZA    FRAG     MASS         X           Y           Z
   0 C     6.0000    0    12.011   -6.066876   -0.237494   -2.552032
   1 H     1.0000    0     1.008   -6.047742    1.858302   -2.401951
   2 H     1.0000    0     1.008   -4.334509   -0.957945   -1.620155
   3 C     6.0000    0    12.011   -8.444141   -1.204502   -1.298452
   4 H     1.0000    0     1.008   -8.531082   -0.739985    0.737169
   5 Br   35.0000    0    79.900   -8.706297   -4.955150   -1.431922
   6 H     1.0000    0     1.008  -10.184429   -0.521034   -2.232188
   7 H     1.0000    0     1.008   -5.991286   -0.730853   -4.586524

--------------------------------
INTERNAL COORDINATES (ANGSTROEM)
--------------------------------
 C      0   0   0     0.000000000000     0.00000000     0.00000000
 H      1   0   0     1.111933502028     0.00000000     0.00000000
 H      1   2   0     1.108565078525   107.68082540     0.00000000
 C      1   2   3     1.511442879491   108.29533501   121.44794165
 H      4   1   2     1.105852005884   112.76150340   298.09835998
 Br     4   1   2     1.990853017054   112.33077919   180.11217634
 H      4   1   2     1.105916299482   112.72254024    62.23651939
 H      1   2   3     1.108531328225   107.69450580   242.89950961

---------------------------
INTERNAL COORDINATES (A.U.)
---------------------------
 C      0   0   0     0.000000000000     0.00000000     0.00000000
 H      1   0   0     2.101249797965     0.00000000     0.00000000
 H      1   2   0     2.094884400040   107.68082540     0.00000000
 C      1   2   3     2.856213109303   108.29533501   121.44794165
 H      4   1   2     2.089757435767   112.76150340   298.09835998
 Br     4   1   2     3.762166975122   112.33077919   180.11217634
 H      4   1   2     2.089878933060   112.72254024    62.23651939
 H      1   2   3     2.094820621217   107.69450580   242.89950961

---------------------
BASIS SET INFORMATION
---------------------
There are 3 groups of distinct atoms

 Group   1 Type C   : 8s5p1d contracted to 4s3p1d pattern {5111/311/1}
 Group   2 Type H   : 4s1p contracted to 2s1p pattern {31/1}
 Group   3 Type Br  : 15s11p6d contracted to 6s5p3d pattern {633111/53111/411}

Atom   0C    basis set group =>   1
Atom   1H    basis set group =>   2
Atom   2H    basis set group =>   2
Atom   3C    basis set group =>   1
Atom   4H    basis set group =>   2
Atom   5Br   basis set group =>   3
Atom   6H    basis set group =>   2
Atom   7H    basis set group =>   2
---------------------------------
AUXILIARY/J BASIS SET INFORMATION
---------------------------------
There are 3 groups of distinct atoms

 Group   1 Type C   : 12s5p4d2f1g contracted to 6s4p3d1f1g pattern {711111/2111/211/2/1}
 Group   2 Type H   : 5s2p1d contracted to 3s1p1d pattern {311/2/1}
 Group   3 Type Br  : 19s5p5d3f1g contracted to 8s4p3d2f1g pattern {121111111/2111/311/21/1}

Atom   0C    basis set group =>   1
Atom   1H    basis set group =>   2
Atom   2H    basis set group =>   2
Atom   3C    basis set group =>   1
Atom   4H    basis set group =>   2
Atom   5Br   basis set group =>   3
Atom   6H    basis set group =>   2
Atom   7H    basis set group =>   2


           ************************************************************
           *        Program running with 4 parallel MPI-processes     *
           *              working on a common directory               *
           ************************************************************
------------------------------------------------------------------------------
                             ORCA STARTUP CALCULATIONS
                           -- RI-GTO INTEGRALS CHOSEN --
------------------------------------------------------------------------------
------------------------------------------------------------------------------
                   ___                                                        
                  /   \      - P O W E R E D   B Y -                         
                 /     \                                                     
                 |  |  |   _    _      __       _____    __    __             
                 |  |  |  | |  | |    /  \     |  _  \  |  |  /  |          
                  \  \/   | |  | |   /    \    | | | |  |  | /  /          
                 / \  \   | |__| |  /  /\  \   | |_| |  |  |/  /          
                |  |  |   |  __  | /  /__\  \  |    /   |      \           
                |  |  |   | |  | | |   __   |  |    \   |  |\   \          
                \     /   | |  | | |  |  |  |  | |\  \  |  | \   \       
                 \___/    |_|  |_| |__|  |__|  |_| \__\ |__|  \__/        
                                                                              
                      - O R C A' S   B I G   F R I E N D -                    
                                      &                                       
                       - I N T E G R A L  F E E D E R -                       
                                                                              
 v1 FN, 2020, v2 2021, v3 2022-2024                                           
------------------------------------------------------------------------------


----------------------
SHARK INTEGRAL PACKAGE
----------------------

Number of atoms                             ...      8
Number of basis functions                   ...     97
Number of shells                            ...     45
Maximum angular momentum                    ...      2
Integral batch strategy                     ... SHARK/LIBINT Hybrid
RI-J (if used) integral strategy            ... SPLIT-RIJ (Revised 2003 algorithm where possible)
Printlevel                                  ...      1
Contraction scheme used                     ... SEGMENTED contraction
Prescreening option                         ... SCHWARTZ
   Thresh                                   ... 2.500e-11
   Tcut                                     ... 2.500e-12
   Tpresel                                  ... 2.500e-12 
Coulomb Range Separation                    ... NOT USED
Exchange Range Separation                   ... NOT USED
Multipole approximations                    ... NOT USED
Finite Nucleus Model                        ... NOT USED
CABS basis                                  ... NOT available
Auxiliary Coulomb fitting basis             ... AVAILABLE
   # of basis functions in Aux-J            ...    211
   # of shells in Aux-J                     ...     73
   Maximum angular momentum in Aux-J        ...      4
Auxiliary J/K fitting basis                 ... NOT available
Auxiliary Correlation fitting basis         ... NOT available
Auxiliary 'external' fitting basis          ... NOT available

Checking pre-screening integrals            ... done (  0.0 sec) Dimension = 45
Check shell pair data                       ... done (  0.0 sec)
Shell pair information
Shell pair cut-off parameter TPreSel        ...   2.5e-12
Total number of shell pairs                 ...      1035
Shell pairs after pre-screening             ...      1018
Total number of primitive shell pairs       ...      3736
Primitive shell pairs kept                  ...      3040
          la=0 lb=0:    294 shell pairs
          la=1 lb=0:    376 shell pairs
          la=1 lb=1:    135 shell pairs
          la=2 lb=0:    119 shell pairs
          la=2 lb=1:     79 shell pairs
          la=2 lb=2:     15 shell pairs

Calculating one electron integrals          ... done (  0.0 sec)
Calculating RI/J V-Matrix + Cholesky decomp.... done (  0.0 sec)
Calculating Nuclear repulsion               ... done (  0.0 sec) ENN=    161.737960352564 Eh

Diagonalization of the overlap matrix:
Smallest eigenvalue                        ... 4.047e-04
Time for diagonalization                   ...    0.001 sec
Threshold for overlap eigenvalues          ... 1.000e-07
Number of eigenvalues below threshold      ... 0
Time for construction of square roots      ...    0.003 sec
Total time needed                          ...    0.005 sec

-------------------
DFT GRID GENERATION
-------------------

General Integration Accuracy     IntAcc      ... 4.388
Radial Grid Type                 RadialGrid  ... OptM3 with GC (2021)
Angular Grid (max. ang.)         AngularGrid ... 4 (Lebedev-302)
Angular grid pruning method      GridPruning ... 4 (adaptive)
Weight generation scheme         WeightScheme... mBecke (2022)
Basis function cutoff            BFCut       ... 1.0000e-11
Integration weight cutoff        WCut        ... 1.0000e-14
Partially contracted basis set               ... off
Rotationally invariant grid construction     ... off
Angular grids for H and He will be reduced by one unit
Diffuse basis detected: some atoms will have their outermost
                        angular grid increased by 1.
Core-polarized basis detected: some atoms will have their core
                               angular grid increased.

Total number of grid points                  ...    40302
Total number of batches                      ...      636
Average number of points per batch           ...       63
Average number of grid points per atom       ...     5038
Initializing property integral containers    ... done (  0.0 sec)

SHARK setup successfully completed in   0.3 seconds

Maximum memory used throughout the entire STARTUP-calculation: 15.2 MB


           ************************************************************
           *        Program running with 4 parallel MPI-processes     *
           *              working on a common directory               *
           ************************************************************
-------------------------------------------------------------------------------
                                 ORCA GUESS
                   Start orbitals & Density for SCF / CASSCF
-------------------------------------------------------------------------------

------------
SCF SETTINGS
------------
Hamiltonian:
 Density Functional     Method          .... DFT(GTOs)
 Exchange Functional    Exchange        .... PBE
   PBE kappa parameter   XKappa         ....  0.804000
   PBE mue parameter    XMuePBE         ....  0.219520
 Correlation Functional Correlation     .... PBE
   PBE beta parameter  CBetaPBE         ....  0.066725
 LDA part of GGA corr.  LDAOpt          .... PW91-LDA
 Gradients option       PostSCFGGA      .... off
   NL short-range parameter             ....  6.400000
 RI-approximation to the Coulomb term is turned on
   Number of AuxJ basis functions       .... 211


General Settings:
 Integral files         IntName         .... job
 Hartree-Fock type      HFTyp           .... RHF
 Total Charge           Charge          ....    0
 Multiplicity           Mult            ....    1
 Number of Electrons    NEL             ....   52
 Basis Dimension        Dim             ....   97
 Nuclear Repulsion      ENuc            ....    161.7379603526 Eh

Convergence Acceleration:
 AO-DIIS                CNVDIIS         .... on
   Start iteration      DIISMaxIt       ....    12
   Startup error        DIISStart       ....  0.200000
   # of expansion vecs  DIISMaxEq       ....     5
   Bias factor          DIISBfac        ....   1.050
   Max. coefficient     DIISMaxC        ....  10.000
 MO-DIIS                CNVKDIIS        .... off
 Trust-Rad. Augm. Hess. CNVTRAH         .... auto
   Auto Start mean grad. ratio tolernc. ....  1.125000
   Auto Start start iteration           ....     1
   Auto Start num. interpolation iter.  ....    10
   Max. Number of Micro iterations      ....    24
   Max. Number of Macro iterations      .... Maxiter - #DIIS iter
   Number of Davidson start vectors     ....     2
   Converg. threshold    (grad. norm)   ....   1.000e-05
   Grad. Scal. Fac. for Micro threshold ....   0.100
   Minimum threshold for Micro iter.    ....   1.000e-02
   NR start threshold (gradient norm)   ....   1.000e-04
   Initial trust radius                 ....   0.400
   Minimum AH scaling param. (alpha)    ....   1.000
   Maximum AH scaling param. (alpha)    .... 1000.000
   Quad. conv. algorithm                .... NR
   White noise on init. David. guess    .... on
   Maximum white noise                  ....   0.010
   Pseudo random numbers                .... off
   Inactive MOs                         .... canonical
   Orbital update algorithm             .... Taylor
   Preconditioner                       .... Diag
   Full preconditioner red. dimension   ....   250
 SOSCF                  CNVSOSCF        .... on
   Start iteration      SOSCFMaxIt      ....   150
   Startup grad/error   SOSCFStart      ....  0.003300
   Hessian update       SOSCFHessUp     .... L-BFGS
 Level Shifting         CNVShift        .... on
   Level shift para.    LevelShift      ....    0.2500
   Turn off err/grad.   ShiftErr        ....    0.0010
 Zerner damping         CNVZerner       .... off
 Static damping         CNVDamp         .... on
   Fraction old density DampFac         ....    0.7000
   Max. Damping (<1)    DampMax         ....    0.9800
   Min. Damping (>=0)   DampMin         ....    0.0000
   Turn off err/grad.   DampErr         ....    0.1000

SCF Procedure:
 Maximum # iterations   MaxIter         ....   125
 SCF integral mode      SCFMode         .... Direct
   Integral package                     .... SHARK and LIBINT hybrid scheme
 Reset frequency        DirectResetFreq ....    20
 Integral Threshold     Thresh          ....  2.500e-11 Eh
 Primitive CutOff       TCut            ....  2.500e-12 Eh

Convergence Tolerance:
 Convergence Check Mode ConvCheckMode   .... Total+1el-Energy
 Convergence forced     ConvForced      .... 0
 Energy Change          TolE            ....  1.000e-08 Eh
 1-El. energy change                    ....  1.000e-05 Eh
 Orbital Gradient       TolG            ....  1.000e-05
 Orbital Rotation angle TolX            ....  1.000e-05
 DIIS Error             TolErr          ....  5.000e-07

---------------------
INITIAL GUESS: MOREAD
---------------------
Guess MOs are being read from file: job.gbw
Input Geometry matches current geometry (good)
Input basis set matches current basis set (good)
Occupation numbers will be reassigned to an Aufbau configuration
MOs were renormalized
MOs were reorthogonalized (Cholesky)
                      ------------------
                      INITIAL GUESS DONE (   0.0 sec)
                      ------------------
             **** ENERGY FILE WAS UPDATED (job.en.tmp) ****
Finished Guess after   0.3 sec
Maximum memory used throughout the entire GUESS-calculation: 7.0 MB


           ************************************************************
           *        Program running with 4 parallel MPI-processes     *
           *              working on a common directory               *
           ************************************************************

-------------------------------------------------------------------------------------------
                                      ORCA LEAN-SCF
                              memory conserving SCF solver
-------------------------------------------------------------------------------------------

--------------------
CPCM SOLVATION MODEL
--------------------
CPCM parameters:
  Epsilon                                         ...      35.6880
  Refrac                                          ...       1.3442
  Rsolv                                           ...       1.3000
  Surface type                                    ... GAUSSIAN VDW
  Discretization scheme                           ... Constant charge density
    Threshold for H atoms                         ...       5.0000 (charges/Ang^2)
    Threshold for non-H atoms                     ...       5.0000 (charges/Ang^2)
  Epsilon function type                           ...         CPCM
Solvent:                                          ... ACETONITRILE
SMD-CDS solvent descriptors:
  Soln                                            ...       1.3442
  Soln25                                          ...       1.3416
  Sola                                            ...       0.0700
  Solb                                            ...       0.3200
  Solg                                            ...      41.2500
  Solc                                            ...       0.0000
  Solh                                            ...       0.0000
Radii:
  Scheme                                          ... Element-dependent radii
  Radius for C  used is    3.4960 Bohr (=   1.8500 Ang.)
  Radius for H  used is    2.2677 Bohr (=   1.2000 Ang.)
  Radius for Br used is    5.7826 Bohr (=   3.0600 Ang.)
Calculating surface                               ...        done! (  0.0s)
Cavity surface points                             ...          918
Cavity Volume                                     ...     959.2857
Cavity Surface-area                               ...     497.5762
Calculating surface distance matrix               ...        done! (  0.0s)
Performing Cholesky decomposition & store         ...        done! (  0.0s)
Overall time for CPCM initialization              ...                 0.0s

----------------------------------------D-I-I-S--------------------------------------------
Iteration    Energy (Eh)           Delta-E    RMSDP     MaxDP     DIISErr   Damp  Time(sec)
-------------------------------------------------------------------------------------------
               ***  Starting incremental Fock matrix formation  ***
                              *** Initializing SOSCF ***
---------------------------------------S-O-S-C-F--------------------------------------
Iteration    Energy (Eh)           Delta-E    RMSDP     MaxDP     MaxGrad    Time(sec)
--------------------------------------------------------------------------------------
    1    -2652.5173281889474310     0.00e+00  2.75e-05  4.38e-04  4.90e-05     0.1
               *** Restarting incremental Fock matrix formation ***
    2    -2652.5173292207960003    -1.03e-06  1.41e-05  1.71e-04  4.68e-05     0.1
    3    -2652.5173293193824975    -9.86e-08  3.14e-06  5.18e-05  9.53e-06     0.1
    4    -2652.5173293177654159     1.62e-09  1.94e-06  3.84e-05  1.82e-05     0.1
                 **** Energy Check signals convergence ****

               *****************************************************
               *                     SUCCESS                       *
               *           SCF CONVERGED AFTER   4 CYCLES          *
               *****************************************************


SMD CDS free energy correction energy :                -1.91601     Kcal/mol
Total Energy after SMD CDS correction =             -2652.520382674 Eh
             **** ENERGY FILE WAS UPDATED (job.en.tmp) ****

----------------
TOTAL SCF ENERGY
----------------

Total Energy       :      -2652.52038267441321 Eh          -72178.74911 eV

Components:
Nuclear Repulsion  :        161.73796035256402 Eh            4401.11365 eV
Electronic Energy  :      -2814.25023563180412 Eh          -76579.64215 eV
One Electron Energy:      -4009.09279379329291 Eh         -109092.96110 eV
Two Electron Energy:       1194.84255816148880 Eh           32513.31895 eV
CPCM Dielectric    :         -0.00505403852550 Eh              -0.13753 eV
SMD CDS (Gcds)     :         -0.00305335664793 Eh              -0.08309 eV

Virial components:
Potential Energy   :      -5300.97631469507996 Eh         -144246.89889 eV
Kinetic Energy     :       2648.45593202066675 Eh           72068.14978 eV
Virial Ratio       :          2.00153464915334

DFT components:
N(Alpha)           :       26.000009433884 electrons
N(Beta)            :       26.000009433884 electrons
N(Total)           :       52.000018867769 electrons
E(X)               :     -101.191432832501 Eh       
E(C)               :       -2.256902702592 Eh       
E(XC)              :     -103.448335535094 Eh       

CPCM Solvation Model Properties:
Surface-charge          :         -0.01700273579847
Corrected charge        :          0.00000000000000
Outlying charge corr.   :          0.00002255136719 Eh               0.00061 eV
Free-energy (cav+disp)  :         -0.00305335664793 Eh              -0.08309 eV

---------------
SCF CONVERGENCE
---------------

  Last Energy change         ...   -1.6171e-09  Tolerance :   1.0000e-08
  Last MAX-Density change    ...    3.8401e-05  Tolerance :   1.0000e-07
  Last RMS-Density change    ...    1.9400e-06  Tolerance :   5.0000e-09
  Last DIIS Error            ...    4.0565e-04  Tolerance :   5.0000e-07
  Last Orbital Gradient      ...    1.8233e-05  Tolerance :   1.0000e-05
  Last Orbital Rotation      ...    2.5116e-05  Tolerance :   1.0000e-05


----------------
ORBITAL ENERGIES
----------------

  NO   OCC          E(Eh)            E(eV) 
   0   2.0000    -480.928930    -13086.7415 
   1   2.0000     -61.769726     -1680.8397 
   2   2.0000     -55.700434     -1515.6859 
   3   2.0000     -55.697338     -1515.6016 
   4   2.0000     -55.697223     -1515.5985 
   5   2.0000      -9.946820      -270.6667 
   6   2.0000      -9.898021      -269.3389 
   7   2.0000      -8.394323      -228.4211 
   8   2.0000      -6.275439      -170.7634 
   9   2.0000      -6.262312      -170.4062 
  10   2.0000      -6.262228      -170.4039 
  11   2.0000      -2.476758       -67.3960 
  12   2.0000      -2.473557       -67.3089 
  13   2.0000      -2.473500       -67.3074 
  14   2.0000      -2.463611       -67.0383 
  15   2.0000      -2.463604       -67.0381 
  16   2.0000      -0.735310       -20.0088 
  17   2.0000      -0.652948       -17.7676 
  18   2.0000      -0.539448       -14.6791 
  19   2.0000      -0.409585       -11.1454 
  20   2.0000      -0.386997       -10.5307 
  21   2.0000      -0.355233        -9.6664 
  22   2.0000      -0.315817        -8.5938 
  23   2.0000      -0.307097        -8.3565 
  24   2.0000      -0.241225        -6.5641 
  25   2.0000      -0.238927        -6.5015 
  26   0.0000      -0.040733        -1.1084 
  27   0.0000       0.004044         0.1101 
  28   0.0000       0.027384         0.7452 
  29   0.0000       0.040208         1.0941 
  30   0.0000       0.048749         1.3265 
  31   0.0000       0.081453         2.2164 
  32   0.0000       0.086653         2.3579 
  33   0.0000       0.091961         2.5024 
  34   0.0000       0.092787         2.5249 
  35   0.0000       0.100126         2.7246 
  36   0.0000       0.112677         3.0661 
*Only the first 10 virtual orbitals were printed.

                    ********************************
                    * MULLIKEN POPULATION ANALYSIS *
                    ********************************

-----------------------
MULLIKEN ATOMIC CHARGES
-----------------------
   0 C :   -0.255767
   1 H :    0.127544
   2 H :    0.125175
   3 C :   -0.298051
   4 H :    0.164239
   5 Br:   -0.152590
   6 H :    0.164035
   7 H :    0.125417
Sum of atomic charges:   -0.0000000

--------------------------------
MULLIKEN REDUCED ORBITAL CHARGES
--------------------------------
  0 C s       :     3.111837  s :     3.111837
      pz      :     1.049925  p :     3.119697
      px      :     0.982542
      py      :     1.087229
      dz2     :     0.006987  d :     0.024233
      dxz     :     0.005059
      dyz     :     0.001832
      dx2y2   :     0.007126
      dxy     :     0.003230

  1 H s       :     0.849578  s :     0.849578
      pz      :     0.005080  p :     0.022878
      px      :     0.004576
      py      :     0.013222

  2 H s       :     0.852549  s :     0.852549
      pz      :     0.006372  p :     0.022276
      px      :     0.010015
      py      :     0.005889

  3 C s       :     3.270228  s :     3.270228
      pz      :     1.144168  p :     2.994653
      px      :     1.073574
      py      :     0.776911
      dz2     :     0.008259  d :     0.033171
      dxz     :     0.005420
      dyz     :     0.004044
      dx2y2   :     0.009292
      dxy     :     0.006155

  4 H s       :     0.814435  s :     0.814435
      pz      :     0.013293  p :     0.021326
      px      :     0.004177
      py      :     0.003856

  5 Brs       :     7.953180  s :     7.953180
      pz      :     5.973336  p :    17.159465
      px      :     5.972291
      py      :     5.213838
      dz2     :     2.005712  d :    10.039945
      dxz     :     2.000164
      dyz     :     2.009097
      dx2y2   :     2.016517
      dxy     :     2.008456

  6 H s       :     0.814639  s :     0.814639
      pz      :     0.006454  p :     0.021326
      px      :     0.010454
      py      :     0.004418

  7 H s       :     0.852310  s :     0.852310
      pz      :     0.012584  p :     0.022273
      px      :     0.004328
      py      :     0.005362



                     *******************************
                     * LOEWDIN POPULATION ANALYSIS *
                     *******************************

----------------------
LOEWDIN ATOMIC CHARGES
----------------------
   0 C :   -0.258409
   1 H :    0.108368
   2 H :    0.098871
   3 C :   -0.264445
   4 H :    0.099710
   5 Br:    0.017313
   6 H :    0.099680
   7 H :    0.098913

-------------------------------
LOEWDIN REDUCED ORBITAL CHARGES
-------------------------------
  0 C s       :     2.891829  s :     2.891829
      pz      :     1.106228  p :     3.300467
      px      :     1.078022
      py      :     1.116217
      dz2     :     0.018408  d :     0.066114
      dxz     :     0.014233
      dyz     :     0.004940
      dx2y2   :     0.019185
      dxy     :     0.009347

  1 H s       :     0.825905  s :     0.825905
      pz      :     0.012100  p :     0.065726
      px      :     0.011694
      py      :     0.041932

  2 H s       :     0.835530  s :     0.835530
      pz      :     0.017767  p :     0.065600
      px      :     0.032426
      py      :     0.015407

  3 C s       :     2.948711  s :     2.948711
      pz      :     1.149823  p :     3.237639
      px      :     1.140991
      py      :     0.946825
      dz2     :     0.019976  d :     0.078095
      dxz     :     0.014104
      dyz     :     0.008711
      dx2y2   :     0.021422
      dxy     :     0.013881

  4 H s       :     0.830696  s :     0.830696
      pz      :     0.044617  p :     0.069594
      px      :     0.012427
      py      :     0.012551

  5 Brs       :     7.770184  s :     7.770184
      pz      :     5.954118  p :    17.163400
      px      :     5.941607
      py      :     5.267676
      dz2     :     2.007637  d :    10.049102
      dxz     :     2.000124
      dyz     :     2.009714
      dx2y2   :     2.021976
      dxy     :     2.009651

  6 H s       :     0.830737  s :     0.830737
      pz      :     0.019171  p :     0.069583
      px      :     0.035626
      py      :     0.014786

  7 H s       :     0.835479  s :     0.835479
      pz      :     0.040610  p :     0.065608
      px      :     0.011471
      py      :     0.013527



                      *****************************
                      * MAYER POPULATION ANALYSIS *
                      *****************************

  NA   - Mulliken gross atomic population
  ZA   - Total nuclear charge
  QA   - Mulliken gross atomic charge
  VA   - Mayer's total valence
  BVA  - Mayer's bonded valence
  FA   - Mayer's free valence

  ATOM       NA         ZA         QA         VA         BVA        FA
  0 C      6.2558     6.0000    -0.2558     3.9605     3.9605    -0.0000
  1 H      0.8725     1.0000     0.1275     0.9792     0.9792     0.0000
  2 H      0.8748     1.0000     0.1252     0.9801     0.9801    -0.0000
  3 C      6.2981     6.0000    -0.2981     3.9498     3.9498    -0.0000
  4 H      0.8358     1.0000     0.1642     0.9418     0.9418     0.0000
  5 Br    35.1526    35.0000    -0.1526     0.9068     0.9068    -0.0000
  6 H      0.8360     1.0000     0.1640     0.9418     0.9418     0.0000
  7 H      0.8746     1.0000     0.1254     0.9800     0.9800    -0.0000

  Mayer bond orders larger than 0.100000
B(  0-C ,  1-H ) :   0.9419 B(  0-C ,  2-H ) :   0.9553 B(  0-C ,  3-C ) :   1.1067 
B(  0-C ,  7-H ) :   0.9551 B(  3-C ,  4-H ) :   0.9538 B(  3-C ,  5-Br) :   0.8943 
B(  3-C ,  6-H ) :   0.9540 

-------
TIMINGS
-------

Total SCF time: 0 days 0 hours 0 min 0 sec 

Total time                  ....       0.899 sec
Sum of individual times     ....       0.879 sec  ( 97.9%)

SCF preparation             ....       0.363 sec  ( 40.4%)
Fock matrix formation       ....       0.456 sec  ( 50.8%)
  Startup                   ....       0.005 sec  (  1.2% of F)
  Split-RI-J                ....       0.070 sec  ( 15.4% of F)
  XC integration            ....       0.216 sec  ( 47.4% of F)
    Basis function eval.    ....       0.074 sec  ( 34.4% of XC)
    Density eval.           ....       0.038 sec  ( 17.4% of XC)
    XC-Functional eval.     ....       0.018 sec  (  8.3% of XC)
    XC-Potential eval.      ....       0.042 sec  ( 19.7% of XC)
  CPCM terms                ....       0.147 sec  ( 32.1% of F)
Diagonalization             ....       0.000 sec  (  0.0%)
Density matrix formation    ....       0.008 sec  (  0.8%)
Total Energy calculation    ....       0.004 sec  (  0.4%)
Population analysis         ....       0.018 sec  (  2.0%)
Orbital Transformation      ....       0.005 sec  (  0.6%)
Orbital Orthonormalization  ....       0.000 sec  (  0.0%)
DIIS solution               ....       0.008 sec  (  0.9%)
SOSCF solution              ....       0.018 sec  (  2.0%)
Finished LeanSCF after   0.9 sec

Maximum memory used throughout the entire LEANSCF-calculation: 10.2 MB


           ************************************************************
           *        Program running with 4 parallel MPI-processes     *
           *              working on a common directory               *
           ************************************************************

------------------------------------------------------------------------------
                         ORCA PROPERTY INTEGRAL CALCULATIONS
------------------------------------------------------------------------------

GBWName                                   ... job.gbw
Number of atoms                           ...      8
Number of basis functions                 ...     97
Max core memory                           ...   3000 MB

Dipole integrals                          ... YES
Quadrupole integrals                      ...  NO
Linear momentum integrals                 ...  NO
Angular momentum integrals                ...  NO
Higher moments length integrals           ...  NO
Higher moments velocity integrals         ...  NO
Kinetic energy integrals                  ...  NO
GIAO right hand sides                     ...  NO
GIAO dipole derivative integrals          ...  NO
SOC integrals                             ...  NO
EPR diamagnetic integrals (GIAO)          ...  NO
EPR gauge integrals                       ...  NO
Field gradient integrals                  ...  NO (   0 nuclei)
Spin-dipole/Fermi contact integrals       ...  NO (   0 nuclei)
Contact density integrals                 ...  NO (   0 nuclei)
Nucleus-orbit integrals                   ...  NO (   0 nuclei)
Geometric perturbations                   ... YES (   8 nuclei)

Choice of electric origin   ... Center of mass
Position of electric origin ... ( -8.3084, -3.8026, -1.5679) 
Choice of magnetic origin   ... GIAO
Position of magnetic origin ... (  0.0000,  0.0000,  0.0000) 

Calculating integrals                     ... Electric Dipole (Length)     done (  0.0 sec)
Calculating integrals                     ... Geometrical perturbation right hand sides

-----------------------
GEOMETRIC PERTURBATIONS (8 nuclei)
-----------------------

MaxCore                            ...   3000 MB
Number of batches                  ...      1

BATCH   0: Atoms    0 -    7 ( 24 perturbations)
   => H(core) and overlap derivative integrals     ... done (     0.0 sec)
   => Making and storing internal U-coefficients   ... done (     0.0 sec)
   => RI-J derivative integrals                    ... done (     0.2 sec)
   => RI-J response operators                      ... done (     0.0 sec)
   => XC derivative integrals                      ... done (     2.6 sec)
   => XC response operators                        ... done (     0.5 sec)
   => CPCM derivative integrals                    ... done (     1.1 sec)
   => CPCM response operators                      ... done (     1.3 sec)
   => Completing and storing right hand sides      ... done (     0.0 sec)
   => Total time for right hand sides =   5.0 sec

  geometrical perturbations done (  5.0 sec)

Property integrals calculated in   5.0 sec

Maximum memory used throughout the entire PROPINT-calculation: 18.8 MB

-------------------------   --------------------
FINAL SINGLE POINT ENERGY     -2652.520382674413
-------------------------   --------------------

                                *** OPTIMIZATION RUN DONE ***



           ************************************************************
           *        Program running with 4 parallel MPI-processes     *
           *              working on a common directory               *
           ************************************************************
------------------------------------------------------------------------------
                            ORCA SCF RESPONSE CALCULATION
------------------------------------------------------------------------------

GBWName                                 ... job.gbw
Number of atoms                         ...      8
Number of basis functions               ...     97
Max core memory                         ...   3000 MB

Electric field perturbation             ...  NO
Quadrupolar field perturbation          ...  NO
Magnetic field perturbation (no GIAO)   ...  NO
Magnetic field perturbation (with GIAO) ...  NO
Linear momentum (velocity) perturbation ...  NO
Spin-orbit coupling perturbation        ...  NO
Choice of electric origin               ... Center of mass
Position of electric origin             ...    -8.308353    -3.802578    -1.567915
Choice of magnetic origin               ... GIAO
Position of magnetic origin             ...     0.000000     0.000000     0.000000
Nuclear geometric perturbations         ... YES (  24 perturbations)
Nucleus-orbit perturbations             ...  NO (   0 perturbations)
Spin-dipole/Fermi contact perturbations ...  NO (   0 perturbations)

Total number of real perturbations      ...     24
Total number of imaginary perturbations ...      0
Total number of triplet perturbations   ...      0
Total number of SOC perturbations       ...      0

Using XC Grid                  ... (job.grid_cpscf.tmp) 
Recalculating density on grid  ... (job.grho_cpscf0.tmp) done
Calculating the xc-kernel      ... (job.fxc_cpscf0.tmp) done

                                **********************
                                * REAL PERTURBATIONS *
                                **********************



-------------------
SHARK CP-SCF DRIVER
-------------------

Dimension of the orbital basis          ...     97
Dimension of the CPSCF-problem          ...   1846
Number of operators                     ...      1
Max. number of iterations               ...    128
Convergence Tolerance                   ... 1.0e-04
Number of perturbations                 ...     24
Perturbation type                       ... REAL

----------------------------
POPLE LINEAR EQUATION SOLVER
----------------------------

  ITERATION   0:   ||err||_max =   1.8652e-01 (   0.5 sec   0/ 24 done)
  ITERATION   1:   ||err||_max =   2.2331e-02 (   0.5 sec   0/ 24 done)
  ITERATION   2:   ||err||_max =   6.8889e-03 (   0.5 sec   0/ 24 done)
  ITERATION   3:   ||err||_max =   1.3194e-03 (   0.5 sec   0/ 24 done)
  ITERATION   4:   ||err||_max =   3.5834e-04 (   0.5 sec   9/ 24 done)
  ITERATION   5:   ||err||_max =   7.2607e-05 (   0.4 sec  24/ 24 done)

CP-SCF equations solved in   2.9 sec
Response densities calculated in   0.0 sec

Maximum memory used throughout the entire SCFRESP-calculation: 10.9 MB


           ************************************************************
           *        Program running with 4 parallel MPI-processes     *
           *              working on a common directory               *
           ************************************************************

------------------------------------------------------------------------------
                              ORCA PROPERTY CALCULATIONS
------------------------------------------------------------------------------

GBWName                                 ... job.gbw
Number of atoms                         ...      8
Number of basis functions               ...     97
Max core memory                         ...   3000 MB

Electric properties:
Dipole moment                           ... YES
Quadrupole moment                       ...  NO
Static polarizability (Dipole/Dipole)   ...  NO
Static polarizability (Dipole/Quad.)    ...  NO
Static polarizability (Quad./Quad.)     ...  NO
Static polarizability (Velocity)        ...  NO

Atomic electric properties:
Dipole moment                           ...  NO
Quadrupole moment                       ...  NO
Static polarizability                   ...  NO

Choice of electric origin               ... Center of mass
Position of electric origin             ...    -8.308353    -3.802578    -1.567915

General magnetic properties:
Magnetizability                         ...  NO

EPR properties:
g-Tensor (aka g-matrix)                 ...  NO
Zero-Field splitting spin-orbit         ...  NO
Zero-field splitting spin-spin          ...  NO
Hyperfine couplings                     ...  NO (   0 nuclei)
Quadrupole couplings                    ...  NO (   0 nuclei)
Contact density                         ...  NO (   0 nuclei)

NMR properties:
Chemical shifts                         ...  NO (   0 nuclei)
Spin-rotation constants                 ...  NO (   0 nuclei)
Spin-spin couplings                     ...  NO (   0 nuclei,    0 pairs)

Choice of magnetic origin               ... GIAO
Position of magnetic origin             ...     0.000000     0.000000     0.000000

Properties with geometric perturbations:
SCF Hessian                             ... YES
IR spectrum                             ... YES
VCD spectrum                            ...  NO
X-ray spectroscopy properties:
SCF XES/XAS/RIXS spectra                ...  NO


-------------
DIPOLE MOMENT
-------------

Method             : SCF
Type of density    : Electron Density
Multiplicity       :   1
Irrep              :   0
Energy             : -2652.5203826744132130 Eh
Relativity type    : 
Basis              : AO
                                X                 Y                 Z
Electronic contribution:     -5.009243982     -13.408436511       1.794338323
Nuclear contribution   :      5.158791546      14.560334242      -1.792218178
                        -----------------------------------------
Total Dipole Moment    :      0.149547564       1.151897731       0.002120145
                        -----------------------------------------
Magnitude (a.u.)       :      1.161566766
Magnitude (Debye)      :      2.952468083



--------------------
Rotational spectrum 
--------------------
 
Rotational constants in cm-1:             1.003796             0.121655             0.113278 
Rotational constants in MHz :         30093.035639          3647.123016          3395.997722 

Dipole components along the rotational axes: 
x,y,z [a.u.] :    -1.107912    -0.348952     0.000314 
x,y,z [Debye]:    -2.816089    -0.886965     0.000799 

 

Dipole moment calculation done in   0.0 sec 

-----------
SCF HESSIAN
-----------

Occupied/Occupied contributions to the Hessian:
   => Occupied/Occupied contributions              ... done (  0.0 sec)
Perturbed density contributions to the Hessian:
   => Perturbed density contributions              ... done (  0.0 sec)
Explicit contributions to the Hessian:
   => Nuclear repulsion Hessian                    ... done (  0.0 sec)
   => HCore and overlap Hessian                    ... done (  0.2 sec)
   => RI-J Hessian                                 ... done (  0.4 sec)
   => XC-Hessian                                   ... done (  2.0 sec)
   => CPCM-Hessian                                 ... done (  0.7 sec)
   => SMD-Hessian                                  ... done (  0.0 sec)
   => Explicit contributions done
Dipole derivatives                                 ... done (  0.0 sec)
Mass weighting the Hessian           ... done
Calculating normal modes             ... done
Scaling frequencies                  ... done

-----------------------
VIBRATIONAL FREQUENCIES
-----------------------

Scaling factor for frequencies =  1.000000000  (already applied!)

     0:       0.00 cm**-1
     1:       0.00 cm**-1
     2:       0.00 cm**-1
     3:       0.00 cm**-1
     4:       0.00 cm**-1
     5:       0.00 cm**-1
     6:     260.72 cm**-1
     7:     276.52 cm**-1
     8:     528.84 cm**-1
     9:     744.95 cm**-1
    10:     936.29 cm**-1
    11:     986.08 cm**-1
    12:    1059.77 cm**-1
    13:    1205.05 cm**-1
    14:    1215.30 cm**-1
    15:    1328.81 cm**-1
    16:    1381.86 cm**-1
    17:    1393.20 cm**-1
    18:    1399.45 cm**-1
    19:    2969.14 cm**-1
    20:    3034.59 cm**-1
    21:    3056.49 cm**-1
    22:    3075.15 cm**-1
    23:    3112.40 cm**-1


------------
NORMAL MODES
------------

These modes are the Cartesian displacements weighted by the diagonal matrix
M(i,i)=1/sqrt(m[i]) where m[i] is the mass of the displaced atom
Thus, these vectors are normalized but *not* orthogonal

                  0          1          2          3          4          5    
      0       0.000000   0.000000   0.000000   0.000000   0.000000   0.000000
      1       0.000000   0.000000   0.000000   0.000000   0.000000   0.000000
      2       0.000000   0.000000   0.000000   0.000000   0.000000   0.000000
      3       0.000000   0.000000   0.000000   0.000000   0.000000   0.000000
      4       0.000000   0.000000   0.000000   0.000000   0.000000   0.000000
      5       0.000000   0.000000   0.000000   0.000000   0.000000   0.000000
      6       0.000000   0.000000   0.000000   0.000000   0.000000   0.000000
      7       0.000000   0.000000   0.000000   0.000000   0.000000   0.000000
      8       0.000000   0.000000   0.000000   0.000000   0.000000   0.000000
      9       0.000000   0.000000   0.000000   0.000000   0.000000   0.000000
     10       0.000000   0.000000   0.000000   0.000000   0.000000   0.000000
     11       0.000000   0.000000   0.000000   0.000000   0.000000   0.000000
     12       0.000000   0.000000   0.000000   0.000000   0.000000   0.000000
     13       0.000000   0.000000   0.000000   0.000000   0.000000   0.000000
     14       0.000000   0.000000   0.000000   0.000000   0.000000   0.000000
     15       0.000000   0.000000   0.000000   0.000000   0.000000   0.000000
     16       0.000000   0.000000   0.000000   0.000000   0.000000   0.000000
     17       0.000000   0.000000   0.000000   0.000000   0.000000   0.000000
     18       0.000000   0.000000   0.000000   0.000000   0.000000   0.000000
     19       0.000000   0.000000   0.000000   0.000000   0.000000   0.000000
     20       0.000000   0.000000   0.000000   0.000000   0.000000   0.000000
     21       0.000000   0.000000   0.000000   0.000000   0.000000   0.000000
     22       0.000000   0.000000   0.000000   0.000000   0.000000   0.000000
     23       0.000000   0.000000   0.000000   0.000000   0.000000   0.000000
                  6          7          8          9         10         11    
      0       0.003146  -0.098509   0.043767   0.013056  -0.058554   0.038658
      1      -0.002645  -0.319522   0.040123  -0.001769  -0.152313  -0.006606
      2       0.007099   0.030870  -0.021509   0.023097   0.020518   0.070062
      3       0.302330   0.213448   0.513908  -0.076669  -0.650089  -0.115255
      4      -0.043316  -0.311551   0.058364   0.010584  -0.160106   0.013911
      5       0.536266  -0.157339  -0.282727  -0.137911   0.353681  -0.195531
      6      -0.031294  -0.195597  -0.098345   0.241667   0.083715   0.233296
      7      -0.462837  -0.505257  -0.229835   0.097832   0.258248   0.070235
      8      -0.284557   0.067600   0.030509  -0.327881   0.058642  -0.245024
      9      -0.037929  -0.172445  -0.082664   0.045539   0.053993  -0.047312
     10       0.004852  -0.019939   0.472805  -0.006240   0.101161   0.008044
     11      -0.064982   0.096608   0.081688   0.082090  -0.021764  -0.086098
     12      -0.093519  -0.142503  -0.058714  -0.507585   0.187627  -0.023045
     13       0.020082   0.020134   0.353622   0.222071   0.283594  -0.587519
     14      -0.071356   0.090378   0.109299   0.008763  -0.057931   0.040716
     15       0.005663   0.046494   0.003759  -0.002598   0.003218   0.003286
     16      -0.000251   0.067453  -0.080967   0.000358  -0.003996  -0.000494
     17       0.009404  -0.021170  -0.008173  -0.004654  -0.002148   0.005845
     18      -0.014580  -0.149402  -0.101344   0.261758   0.163361   0.083924
     19      -0.005949   0.021594   0.355388  -0.188751   0.275050   0.578168
     20      -0.117605   0.080760   0.032801  -0.450928  -0.097299   0.066056
     21      -0.197340  -0.182772  -0.089998  -0.411436   0.014651  -0.336235
     22       0.485594  -0.526778  -0.231512  -0.074692   0.269508  -0.052774
     23      -0.118456   0.077705   0.040855   0.023453  -0.071964   0.061590
                 12         13         14         15         16         17    
      0      -0.205674   0.056415  -0.029114  -0.120008  -0.019514  -0.038800
      1       0.035621  -0.003764   0.055338  -0.067052   0.002142  -0.003405
      2       0.117249   0.105649   0.011241   0.062168  -0.035910   0.020813
      3       0.160754  -0.088641   0.157266   0.550936   0.339833  -0.087330
      4       0.035132   0.017993   0.053930  -0.033648  -0.045670  -0.012745
      5      -0.086730  -0.186137  -0.069141  -0.313979   0.592170   0.058533
      6      -0.414388   0.248603  -0.039377   0.241388   0.183213   0.107917
      7      -0.373081   0.025039  -0.099058   0.393585   0.482818  -0.087223
      8       0.174547  -0.234334  -0.075665  -0.236844  -0.013830  -0.306033
      9       0.239840  -0.043525  -0.036024   0.012649  -0.012576   0.079199
     10       0.042121  -0.002840  -0.112810   0.011360   0.001006   0.007545
     11      -0.130235  -0.072241   0.017890  -0.006151  -0.021242  -0.043927
     12       0.225855   0.433525   0.165277   0.104863   0.050124  -0.586559
     13      -0.104588   0.438036   0.600976  -0.066609  -0.004737   0.152518
     14      -0.111101  -0.145473  -0.123232   0.008166  -0.019829  -0.091697
     15      -0.002495  -0.001000   0.001661  -0.000207   0.000069   0.000023
     16      -0.000046  -0.000197  -0.005292   0.000588  -0.000009  -0.000987
     17       0.001366  -0.002101  -0.001093   0.000158   0.000125  -0.000083
     18       0.207633  -0.343508   0.280595   0.044211  -0.038807  -0.223083
     19      -0.103068  -0.356135   0.654172  -0.059000   0.005268   0.104572
     20      -0.147149   0.239638  -0.040888  -0.100652   0.025654   0.561886
     21      -0.389227  -0.324323   0.080771   0.354279  -0.157422   0.305878
     22      -0.377109  -0.030622  -0.105746   0.382709  -0.474499  -0.128241
     23       0.216922   0.094781   0.048488  -0.036681   0.086919   0.059322
                 18         19         20         21         22         23    
      0       0.025904  -0.036766  -0.009931  -0.033965   0.043788  -0.012425
      1      -0.037900  -0.032905   0.017471   0.078706  -0.005223   0.001675
      2      -0.016783   0.018020   0.006798   0.023900   0.079306  -0.022274
      3       0.243105   0.000675   0.000187  -0.009136   0.006669  -0.000953
      4      -0.021802   0.694681  -0.153297  -0.685607  -0.008254   0.000455
      5      -0.148010   0.052761  -0.011853  -0.047598   0.011606  -0.001655
      6      -0.136458   0.412267   0.095771   0.402734  -0.554843   0.157564
      7       0.270570  -0.180997  -0.037460  -0.159640   0.238526  -0.065659
      8       0.503783   0.230503   0.055753   0.227014  -0.296543   0.082993
      9       0.034939   0.000861   0.051361  -0.011750  -0.012647  -0.045663
     10      -0.030204   0.000318  -0.028810   0.008849   0.001745   0.006106
     11      -0.021331  -0.000466  -0.031080   0.007533  -0.022456  -0.081661
     12      -0.282261  -0.001191  -0.016242   0.005382  -0.007688  -0.029720
     13       0.155839  -0.001922   0.138025  -0.034791   0.041177   0.140040
     14      -0.069648  -0.006971   0.674622  -0.163488   0.183089   0.660400
     15       0.000081   0.000010  -0.000071   0.000015   0.000000   0.000055
     16      -0.000684   0.000060   0.000013  -0.000125  -0.000004  -0.000002
     17      -0.000091   0.000001   0.000046  -0.000017   0.000009   0.000102
     18      -0.078602   0.005211  -0.568525   0.135739   0.159042   0.569284
     19       0.129558  -0.002805   0.210908  -0.051254  -0.061962  -0.212635
     20       0.291541   0.004460  -0.319869   0.074685   0.085317   0.303887
     21      -0.477150   0.010122   0.000807   0.008834   0.025729  -0.008418
     22       0.331582  -0.125401  -0.024065  -0.102040  -0.167750   0.045235
     23      -0.116311  -0.489982  -0.112976  -0.463787  -0.661572   0.184774


-----------
IR SPECTRUM
-----------

 Mode   freq       eps      Int      T**2         TX        TY        TZ
       cm**-1   L/(mol*cm) km/mol    a.u.
----------------------------------------------------------------------------
  6:    260.72   0.000002    0.01  0.000003  ( 0.000197 -0.000374  0.001582)
  7:    276.52   0.001054    5.32  0.001189  (-0.014497 -0.030792  0.005544)
  8:    528.84   0.006336   32.02  0.003739  ( 0.016190  0.058779 -0.004694)
  9:    744.95   0.001853    9.37  0.000776  (-0.013713  0.001795 -0.024189)
 10:    936.29   0.009448   47.75  0.003149  ( 0.012515  0.054633 -0.002786)
 11:    986.08   0.000165    0.83  0.000052  (-0.003304  0.001172 -0.006309)
 12:   1059.77   0.000299    1.51  0.000088  ( 0.006491  0.005754 -0.003561)
 13:   1205.05   0.000135    0.68  0.000035  (-0.002494 -0.004538 -0.002839)
 14:   1215.30   0.016143   81.58  0.004145  (-0.013942 -0.062779  0.003122)
 15:   1328.81   0.003389   17.13  0.000796  ( 0.023250  0.010440 -0.012095)
 16:   1381.86   0.005283   26.70  0.001193  ( 0.017010 -0.002154  0.029983)
 17:   1393.20   0.000152    0.77  0.000034  (-0.004647 -0.001268  0.003295)
 18:   1399.45   0.002056   10.39  0.000459  (-0.013113  0.014845  0.008136)
 19:   2969.14   0.002321   11.73  0.000244  (-0.011567 -0.008732  0.005822)
 20:   3034.59   0.000965    4.88  0.000099  ( 0.006241 -0.006608 -0.004084)
 21:   3056.49   0.002513   12.70  0.000257  (-0.010347  0.010447  0.006355)
 22:   3075.15   0.002096   10.59  0.000213  ( 0.006962 -0.000876  0.012785)
 23:   3112.40   0.000486    2.46  0.000049  (-0.003377  0.000380 -0.006101)

* The epsilon (eps) is given for a Dirac delta lineshape.
** The dipole moment derivative (T) already includes vibrational overlap.

The first frequency considered to be a vibration is 6
The total number of vibrations considered is 18


--------------------------
THERMOCHEMISTRY AT 298.15K
--------------------------

Temperature         ...   298.15 K
Pressure            ...     1.00 atm
Total Mass          ...   108.96 AMU
Quasi RRHO          ...     True
Cut-Off Frequency   ...     1.00 cm^-1

Throughout the following assumptions are being made:
  (1) The electronic state is orbitally nondegenerate
  (2) There are no thermally accessible electronically excited states
  (3) Hindered rotations indicated by low frequency modes are not
      treated as such but are treated as vibrations and this may
      cause some error
  (4) All equations used are the standard statistical mechanics
      equations for an ideal gas
  (5) All vibrations are strictly harmonic

freq.     260.72  E(vib)   ...       0.30 
freq.     276.52  E(vib)   ...       0.28 
freq.     528.84  E(vib)   ...       0.13 
freq.     744.95  E(vib)   ...       0.06 
freq.     936.29  E(vib)   ...       0.03 
freq.     986.08  E(vib)   ...       0.02 
freq.    1059.77  E(vib)   ...       0.02 
freq.    1205.05  E(vib)   ...       0.01 
freq.    1215.30  E(vib)   ...       0.01 
freq.    1328.81  E(vib)   ...       0.01 
freq.    1381.86  E(vib)   ...       0.01 
freq.    1393.20  E(vib)   ...       0.00 
freq.    1399.45  E(vib)   ...       0.00 
freq.    2969.14  E(vib)   ...       0.00 
freq.    3034.59  E(vib)   ...       0.00 
freq.    3056.49  E(vib)   ...       0.00 
freq.    3075.15  E(vib)   ...       0.00 
freq.    3112.40  E(vib)   ...       0.00 

------------
INNER ENERGY
------------

The inner energy is: U= E(el) + E(ZPE) + E(vib) + E(rot) + E(trans)
    E(el)   - is the total energy from the electronic structure calculation
              = E(kin-el) + E(nuc-el) + E(el-el) + E(nuc-nuc)
    E(ZPE)  - the the zero temperature vibrational energy from the frequency calculation
    E(vib)  - the the finite temperature correction to E(ZPE) due to population
              of excited vibrational states
    E(rot)  - is the rotational thermal energy
    E(trans)- is the translational thermal energy

Summary of contributions to the inner energy U:
Electronic energy                ...  -2652.52038267 Eh
Zero point energy                ...      0.06370806 Eh      39.98 kcal/mol
Thermal vibrational correction   ...      0.00140191 Eh       0.88 kcal/mol
Thermal rotational correction    ...      0.00141627 Eh       0.89 kcal/mol
Thermal translational correction ...      0.00141627 Eh       0.89 kcal/mol
-----------------------------------------------------------------------
Total thermal energy                  -2652.45244017 Eh


Summary of corrections to the electronic energy:
(perhaps to be used in another calculation)
Total thermal correction                  0.00423445 Eh       2.66 kcal/mol
Non-thermal (ZPE) correction              0.06370806 Eh      39.98 kcal/mol
-----------------------------------------------------------------------
Total correction                          0.06794251 Eh      42.63 kcal/mol


--------
ENTHALPY
--------

The enthalpy is H = U + kB*T
                kB is Boltzmann's constant
Total thermal energy              ...  -2652.45244017 Eh 
Thermal Enthalpy correction       ...      0.00094421 Eh       0.59 kcal/mol
-----------------------------------------------------------------------
Total Enthalpy                    ...  -2652.45149596 Eh


Note: Only C1 symmetry has been detected, increase convergence thresholds 
      if your molecule has a higher symmetry. Symmetry factor of 1.0 is   
      used for the rotational entropy correction. 
 

Note: Rotational entropy computed according to Herzberg 
Infrared and Raman Spectra, Chapter V,1, Van Nostrand Reinhold, 1945 
Point Group:  C1, Symmetry Number:   1  
Rotational constants in cm-1:     1.003796     0.121655     0.113278 

Vibrational entropy computed according to the QRRHO of S. Grimme
Chem.Eur.J. 2012 18 9955 using a reference frequency of 100.0 cm-1


-------
ENTROPY
-------

The entropy contributions are T*S = T*(S(el)+S(vib)+S(rot)+S(trans))
     S(el)   - electronic entropy
     S(vib)  - vibrational entropy
     S(rot)  - rotational entropy
     S(trans)- translational entropy
The entropies will be listed as multiplied by the temperature to get
units of energy

Electronic entropy                ...      0.00000000 Eh      0.00 kcal/mol
Vibrational entropy               ...      0.00214901 Eh      1.35 kcal/mol
Rotational entropy                ...      0.01153168 Eh      7.24 kcal/mol
Translational entropy             ...      0.01899280 Eh     11.92 kcal/mol
-----------------------------------------------------------------------
Final entropy term                ...      0.03267349 Eh     20.50 kcal/mol

In case the symmetry of your molecule has not been determined correctly
or in case you have a reason to use a different symmetry number we print 
out the resulting rotational entropy values for sn=1,12:

 non-linear molecules -----------------------------------
|  sn= 1 | S(rot)=       0.01153168 Eh      7.24 kcal/mol|
|  sn= 2 | S(rot)=       0.01087722 Eh      6.83 kcal/mol|
|  sn= 3 | S(rot)=       0.01049439 Eh      6.59 kcal/mol|
|  sn= 4 | S(rot)=       0.01022277 Eh      6.41 kcal/mol|
|  sn= 5 | S(rot)=       0.01001208 Eh      6.28 kcal/mol|
|  sn= 6 | S(rot)=       0.00983994 Eh      6.17 kcal/mol|
|  sn= 7 | S(rot)=       0.00969439 Eh      6.08 kcal/mol|
|  sn= 8 | S(rot)=       0.00956831 Eh      6.00 kcal/mol|
|  sn= 9 | S(rot)=       0.00945710 Eh      5.93 kcal/mol|
|  sn=10 | S(rot)=       0.00935762 Eh      5.87 kcal/mol|
|  sn=11 | S(rot)=       0.00926763 Eh      5.82 kcal/mol|
|  sn=12 | S(rot)=       0.00918548 Eh      5.76 kcal/mol|
 linear molecules ---------------------------------------
|  Dinfh | S(rot)=       0.00738215 Eh      4.63 kcal/mol|
|  Cinfv | S(rot)=       0.00803660 Eh      5.04 kcal/mol|
 --------------------------------------------------------


-------------------
GIBBS FREE ENERGY
-------------------

The Gibbs free energy is G = H - T*S

Total enthalpy                    ...  -2652.45149596 Eh 
Total entropy correction          ...     -0.03267349 Eh    -20.50 kcal/mol
-----------------------------------------------------------------------
Final Gibbs free energy         ...  -2652.48416945 Eh

For completeness - the Gibbs free energy minus the electronic energy
G-E(el)                           ...      0.03621322 Eh     22.72 kcal/mol


Maximum memory used throughout the entire PROP-calculation: 31.2 MB

--------------------------------
SUGGESTED CITATIONS FOR THIS RUN
--------------------------------

Below you find a list of papers that are relevant to this ORCA run
We neither can nor want to force you to cite these papers, but we appreciate if you do
You receive ORCA, which is the product of decades of hard work by many enthusiastic individuals, for free
The only thing we kindly ask in return is that you cite our papers,
We deeply appreciate it, if you show your appreciation for ORCA by not just citing the generic ORCA reference.

Please note that relegating all ORCA citations to the supporting information does *not* help us.
SI sections are not indexed - citations you put there will not count into any citation statistics
But we need these citations in order to attract the funding resources that allow us to do what we are doing

Therefore, if you are a happy ORCA user, please consider citing a few of the papers listed below in the main body of your paper

In addition to the list printed below, the program has created the file job.bibtex that contains the list in bibtex format
You can import this file easily into all common literature databanks and citation aid programs


List of papers to cite with high priority. The work reported in these papers was absolutely
necessary for this run to complete.
Our perspective: the developers of density functionals and basis sets usually get cited in chemistry papers
Good! But without the algorithms to do something with them, the functionals or basis sets would not do anything.
Hence, in our opinion, the algorithm design and method developments papers are equally worthy of getting cited

  1. Neese,F.
     An improvement of the resolution of the identity approximation for the formation of the Coulomb matrix
     J. Comp. Chem., 2003 24(14)1740-1747
     doi.org/10.1002/jcc.10318
  2. Bykov,D.; Petrenko,T.; Izsak,R.; Kossmann,S.; Becker,U.; Valeev,E.; Neese,F.
     Efficient implementation of the analytic second derivatives of Hartree-Fock and hybrid DFT energies: a detailed analysis of different approximations
     Molec. Phys., 2015 113 1961-1977
     doi.org/10.1080/00268976.2015.1025114
  3. Garcia-Rates,M.; Neese,F.
     Efficient implementation of the analytical second derivatives of hartree-fock and hybrid DFT energies within the framework of the conductor-like polarizable continuum model
     J. Comput. Chem., 2019 40 1816-1828
     doi.org/10.1002/jcc.25833
  4. Garcia-Rates,M.; Neese,F.
     Effect of the Solute Cavity on the Solvation Energy and its Derivatives within the Framework of the Gaussian Charge Scheme
     J. Comput. Chem., 2020 41 922-939
     doi.org/10.1002/jcc.26139
  5. Neese,F.
     The SHARK Integral Generation and Digestion System
     J. Comp. Chem., 2022  1-16
     doi.org/10.1002/jcc.26942

List of suggested additional citations. These are papers that are important in the 'surrounding' of 
of this run, or papers that preceded the highly important papers. If you like your results we are grateful for a citation.

  1. Neese,F.; Wennmohs,F.; Becker,U.; Riplinger,C.
     The ORCA quantum chemistry program package
     J. Chem. Phys., 2020 152 Art. No. L224108
     doi.org/10.1063/5.0004608

List of optional additional citations

  1. Neese,F.
     Approximate second-order SCF convergence for spin unrestricted wavefunctions
     Chem. Phys. Lett., 2000 325(1-3)93-98
     doi.org/10.1016/s0009-2614(00)00662-x

Timings for individual modules:

Sum of individual times          ...       60.304 sec (=   1.005 min)
Startup calculation              ...        8.517 sec (=   0.142 min)  14.1 %
SCF iterations                   ...       22.522 sec (=   0.375 min)  37.3 %
Property integrals               ...       11.019 sec (=   0.184 min)  18.3 %
SCF Response                     ...        3.641 sec (=   0.061 min)   6.0 %
Property calculations            ...        4.020 sec (=   0.067 min)   6.7 %
SCF Gradient evaluation          ...       10.556 sec (=   0.176 min)  17.5 %
Geometry relaxation              ...        0.030 sec (=   0.001 min)   0.0 %
                             ****ORCA TERMINATED NORMALLY****
TOTAL RUN TIME: 0 days 0 hours 1 minutes 6 seconds 85 msec
