8
Coordinates from ORCA-job job E -2652.520382674413
  C          -3.21045271796135     -0.12567657030094     -1.35047723431747
  H          -3.20032732830410      0.98337082062306     -1.27105762653146
  H          -2.29372333269133     -0.50692251377593     -0.85734915958379
  C          -4.46844694726679     -0.63739493391483     -0.68711126191774
  H          -4.51445389943106     -0.39158313735044      0.39009279486032
  Br         -4.60717418566281     -2.62215235690577     -0.75774029787603
  H          -5.38936767803788     -0.27571932820788     -1.18122321819078
  H          -3.17045216064468     -0.38675097016726     -2.42708385644303
