
                                 *****************
                                 * O   R   C   A *
                                 *****************

                                            #,                                       
                                            ###                                      
                                            ####                                     
                                            #####                                    
                                            ######                                   
                                           ########,                                 
                                     ,,################,,,,,                         
                               ,,#################################,,                 
                          ,,##########################################,,             
                       ,#########################################, ''#####,          
                    ,#############################################,,   '####,        
                  ,##################################################,,,,####,       
                ,###########''''           ''''###############################       
              ,#####''   ,,,,##########,,,,          '''####'''          '####       
            ,##' ,,,,###########################,,,                        '##       
           ' ,,###''''                  '''############,,,                           
         ,,##''                                '''############,,,,        ,,,,,,###''
      ,#''                                            '''#######################'''  
     '                                                          ''''####''''         
             ,#######,   #######,   ,#######,      ##                                
            ,#'     '#,  ##    ##  ,#'     '#,    #''#        ,####,   ,####,        
            ##       ##  ##   ,#'  ##            #'  '#       #'       #'  '#        
            ##       ##  #######   ##           ,######,      #####,   #    #        
            '#,     ,#'  ##    ##  '#,     ,#' ,#      #,     #,   #   #,  ,#        
             '#######'   ##     ##  '#######'  #'      '#     '####' # '####'        



                #########################################################
                #                        -***-                          #
                #          Department of theory and spectroscopy        #
                #                                                       #
                #                      Frank Neese                      #
                #                                                       #
                #     Directorship, Architecture, Infrastructure        #
                #                    SHARK, DRIVERS                     #
                #        Core code/Algorithms in most modules           #
                #                                                       #
                #        Max Planck Institute fuer Kohlenforschung      #
                #                Kaiser Wilhelm Platz 1                 #
                #                 D-45470 Muelheim/Ruhr                 #
                #                      Germany                          #
                #                                                       #
                #                  All rights reserved                  #
                #                        -***-                          #
                #########################################################


                         Program Version 6.0.0  -   RELEASE  -


 With contributions from (in alphabetic order):
   Daniel Aravena         : Magnetic Suceptibility
   Michael Atanasov       : Ab Initio Ligand Field Theory (pilot matlab implementation)
   Alexander A. Auer      : GIAO ZORA, VPT2 properties, NMR spectrum
   Ute Becker             : All parallelization in ORCA, NUMFREQ, NUMCALC
   Giovanni Bistoni       : ED, misc. LED, open-shell LED, HFLD
   Martin Brehm           : Molecular dynamics
   Dmytro Bykov           : pre 5.0 version of the SCF Hessian
   Marcos Casanova-Páez   : Triplet and SCS-CIS(D). UHF-(DLPNO)-IP/EA/STEOM-CCSD. UHF-CVS-IP/STEOM-CCSD
   Vijay G. Chilkuri      : MRCI spin determinant printing, contributions to CSF-ICE
   Pauline Colinet        : FMM embedding
   Dipayan Datta          : RHF DLPNO-CCSD density
   Achintya Kumar Dutta   : EOM-CC, STEOM-CC
   Nicolas Foglia         : Exact transition moments, OPA infrastructure, MCD improvements
   Dmitry Ganyushin       : Spin-Orbit,Spin-Spin,Magnetic field MRCI
   Miquel Garcia          : C-PCM and meta-GGA Hessian, CCSD/C-PCM, Gaussian charge scheme
   Tiago L. C. Gouveia    : GS-ROHF, GS-ROCIS
   Yang Guo               : DLPNO-NEVPT2, F12-NEVPT2, CIM, IAO-localization
   Andreas Hansen         : Spin unrestricted coupled pair/coupled cluster methods
   Ingolf Harden          : AUTO-CI MPn and infrastructure 
   Benjamin Helmich-Paris : MC-RPA, TRAH-(SCF,CASSCF), AVAS, COSX integrals, SCF dyn. polar.
   Lee Huntington         : MR-EOM, pCC
   Robert Izsak           : Overlap fitted RIJCOSX, COSX-SCS-MP3, EOM
   Riya Kayal             : Wick's Theorem for AUTO-CI, AUTO-CI UHF-CCSDT
   Emily Kempfer          : AUTO-CI, RHF CISDT and CCSDT
   Christian Kollmar      : KDIIS, OOCD, Brueckner-CCSD(T), CCSD density, CASPT2, CASPT2-K, improved NEVPT2
   Axel Koslowski         : Symmetry handling
   Simone Kossmann        : Meta GGA functionals, TD-DFT gradient, OOMP2, (MP2 Hessian; deprecated post 5.0)
   Lucas Lang             : DCDCAS
   Marvin Lechner         : AUTO-CI (C++ implementation), FIC-MRCC
   Spencer Leger          : CASSCF response
   Dagmar Lenk            : GEPOL surface, SMD, ORCA-2-JSON
   Dimitrios Liakos       : Extrapolation schemes; Compound Job, initial MDCI parallelization
   Dimitrios Manganas     : Further ROCIS development; embedding schemes. LFT, Crystal Embedding
   Dimitrios Pantazis     : SARC Basis sets
   Anastasios Papadopoulos: AUTO-CI, single reference methods and gradients
   Taras Petrenko         : pre 6.0 DFT Hessian and TD-DFT gradient, (ASA, deprecated), ECA, 1-Electron XAS/XES, NRVS
   Peter Pinski           : DLPNO-MP2, DLPNO-MP2 Gradient
   Christoph Reimann      : Effective Core Potentials
   Marius Retegan         : Local ZFS, SOC
   Christoph Riplinger    : Optimizer, TS searches, QM/MM, DLPNO-CCSD(T), (RO)-DLPNO pert. Triples
   Michael Roemelt        : Original ROCIS implementation
   Masaaki Saitow         : Open-shell DLPNO-CCSD energy and density
   Barbara Sandhoefer     : DKH picture change effects
   Kantharuban Sivalingam : CASSCF convergence/infrastructure, NEVPT2 and variants, FIC-MRCI
   Bernardo de Souza      : ESD, SOC TD-DFT
   Georgi Stoychev        : AutoAux, RI-MP2 NMR, DLPNO-MP2 response, X2C
   Van Anh Tran           : RI-MP2 g-tensors
   Willem Van den Heuvel  : Paramagnetic NMR
   Zikuan Wang            : NOTCH, Electric field optimization 
   Frank Wennmohs         : Technical directorship and infrastructure
   Hang Xu                : AUTO-CI-Response properties 


 We gratefully acknowledge several colleagues who have allowed us to
 interface, adapt or use parts of their codes:
   Stefan Grimme, W. Hujo, H. Kruse, P. Pracht,  : VdW corrections, initial TS optimization,
                  C. Bannwarth, S. Ehlert,         DFT functionals, gCP, sTDA/sTD-DF
                  L. Wittmann, M. Mueller
   Ed Valeev, F. Pavosevic, A. Kumar             : LibInt (2-el integral package), F12 methods
   Garnet Chan, S. Sharma, J. Yang, R. Olivares  : DMRG
   Ulf Ekstrom                                   : XCFun DFT Library
   Mihaly Kallay                                 : mrcc  (arbitrary order and MRCC methods)
   Frank Weinhold                                : gennbo (NPA and NBO analysis)
   Simon Mueller                                 : openCOSMO-RS
   Christopher J. Cramer and Donald G. Truhlar   : smd solvation model
   Lars Goerigk                                  : TD-DFT with DH, B97 family of functionals
   V. Asgeirsson, H. Jonsson                     : NEB implementation
   FAccTs GmbH                                   : IRC, NEB, NEB-TS, DLPNO-Multilevel, CI-OPT
                                                   MM, QMMM, 2- and 3-layer-ONIOM, Crystal-QMMM,
                                                   LR-CPCM, SF, NACMEs, symmetry and pop. for TD-DFT,
                                                   nearIR, NL-DFT gradient (VV10), updates on ESD,
                                                   ML-optimized integration grids, MBIS, APM,
                                                   GOAT, DOCKER, SOLVATOR, interface openCOSMO-RS
   S Lehtola, MJT Oliveira, MAL Marques          : LibXC Library
   Liviu Ungur et al                             : ANISO software


 Your calculation uses the libint2 library for the computation of 2-el integrals
 For citations please refer to: http://libint.valeyev.net

 Your ORCA version has been built with support for libXC version: 6.2.2
 For citations please refer to: https://libxc.gitlab.io

 This ORCA versions uses:
   CBLAS   interface :  Fast vector & matrix operations
   LAPACKE interface :  Fast linear algebra routines
   SCALAPACK package :  Parallel linear algebra routines
   Shared memory     :  Shared parallel matrices
   BLAS/LAPACK       :  OpenBLAS 0.3.27  USE64BITINT DYNAMIC_ARCH NO_AFFINITY Zen SINGLE_THREADED
        Core in use  :  Zen
   Copyright (c) 2011-2014, The OpenBLAS Project




                                 *****************
                                 * O   R   C   A *
                                 *****************

                                            #,                                       
                                            ###                                      
                                            ####                                     
                                            #####                                    
                                            ######                                   
                                           ########,                                 
                                     ,,################,,,,,                         
                               ,,#################################,,                 
                          ,,##########################################,,             
                       ,#########################################, ''#####,          
                    ,#############################################,,   '####,        
                  ,##################################################,,,,####,       
                ,###########''''           ''''###############################       
              ,#####''   ,,,,##########,,,,          '''####'''          '####       
            ,##' ,,,,###########################,,,                        '##       
           ' ,,###''''                  '''############,,,                           
         ,,##''                                '''############,,,,        ,,,,,,###''
      ,#''                                            '''#######################'''  
     '                                                          ''''####''''         
             ,#######,   #######,   ,#######,      ##                                
            ,#'     '#,  ##    ##  ,#'     '#,    #''#        ,####,   ,####,        
            ##       ##  ##   ,#'  ##            #'  '#       #'       #'  '#        
            ##       ##  #######   ##           ,######,      #####,   #    #        
            '#,     ,#'  ##    ##  '#,     ,#' ,#      #,     #,   #   #,  ,#        
             '#######'   ##     ##  '#######'  #'      '#     '####' # '####'        



                #########################################################
                #                        -***-                          #
                #          Department of theory and spectroscopy        #
                #                                                       #
                #                      Frank Neese                      #
                #                                                       #
                #     Directorship, Architecture, Infrastructure        #
                #                    SHARK, DRIVERS                     #
                #        Core code/Algorithms in most modules           #
                #                                                       #
                #        Max Planck Institute fuer Kohlenforschung      #
                #                Kaiser Wilhelm Platz 1                 #
                #                 D-45470 Muelheim/Ruhr                 #
                #                      Germany                          #
                #                                                       #
                #                  All rights reserved                  #
                #                        -***-                          #
                #########################################################


                         Program Version 6.0.0  -   RELEASE  -


 With contributions from (in alphabetic order):
   Daniel Aravena         : Magnetic Suceptibility
   Michael Atanasov       : Ab Initio Ligand Field Theory (pilot matlab implementation)
   Alexander A. Auer      : GIAO ZORA, VPT2 properties, NMR spectrum
   Ute Becker             : All parallelization in ORCA, NUMFREQ, NUMCALC
   Giovanni Bistoni       : ED, misc. LED, open-shell LED, HFLD
   Martin Brehm           : Molecular dynamics
   Dmytro Bykov           : pre 5.0 version of the SCF Hessian
   Marcos Casanova-Páez   : Triplet and SCS-CIS(D). UHF-(DLPNO)-IP/EA/STEOM-CCSD. UHF-CVS-IP/STEOM-CCSD
   Vijay G. Chilkuri      : MRCI spin determinant printing, contributions to CSF-ICE
   Pauline Colinet        : FMM embedding
   Dipayan Datta          : RHF DLPNO-CCSD density
   Achintya Kumar Dutta   : EOM-CC, STEOM-CC
   Nicolas Foglia         : Exact transition moments, OPA infrastructure, MCD improvements
   Dmitry Ganyushin       : Spin-Orbit,Spin-Spin,Magnetic field MRCI
   Miquel Garcia          : C-PCM and meta-GGA Hessian, CCSD/C-PCM, Gaussian charge scheme
   Tiago L. C. Gouveia    : GS-ROHF, GS-ROCIS
   Yang Guo               : DLPNO-NEVPT2, F12-NEVPT2, CIM, IAO-localization
   Andreas Hansen         : Spin unrestricted coupled pair/coupled cluster methods
   Ingolf Harden          : AUTO-CI MPn and infrastructure 
   Benjamin Helmich-Paris : MC-RPA, TRAH-(SCF,CASSCF), AVAS, COSX integrals, SCF dyn. polar.
   Lee Huntington         : MR-EOM, pCC
   Robert Izsak           : Overlap fitted RIJCOSX, COSX-SCS-MP3, EOM
   Riya Kayal             : Wick's Theorem for AUTO-CI, AUTO-CI UHF-CCSDT
   Emily Kempfer          : AUTO-CI, RHF CISDT and CCSDT
   Christian Kollmar      : KDIIS, OOCD, Brueckner-CCSD(T), CCSD density, CASPT2, CASPT2-K, improved NEVPT2
   Axel Koslowski         : Symmetry handling
   Simone Kossmann        : Meta GGA functionals, TD-DFT gradient, OOMP2, (MP2 Hessian; deprecated post 5.0)
   Lucas Lang             : DCDCAS
   Marvin Lechner         : AUTO-CI (C++ implementation), FIC-MRCC
   Spencer Leger          : CASSCF response
   Dagmar Lenk            : GEPOL surface, SMD, ORCA-2-JSON
   Dimitrios Liakos       : Extrapolation schemes; Compound Job, initial MDCI parallelization
   Dimitrios Manganas     : Further ROCIS development; embedding schemes. LFT, Crystal Embedding
   Dimitrios Pantazis     : SARC Basis sets
   Anastasios Papadopoulos: AUTO-CI, single reference methods and gradients
   Taras Petrenko         : pre 6.0 DFT Hessian and TD-DFT gradient, (ASA, deprecated), ECA, 1-Electron XAS/XES, NRVS
   Peter Pinski           : DLPNO-MP2, DLPNO-MP2 Gradient
   Christoph Reimann      : Effective Core Potentials
   Marius Retegan         : Local ZFS, SOC
   Christoph Riplinger    : Optimizer, TS searches, QM/MM, DLPNO-CCSD(T), (RO)-DLPNO pert. Triples
   Michael Roemelt        : Original ROCIS implementation
   Masaaki Saitow         : Open-shell DLPNO-CCSD energy and density
   Barbara Sandhoefer     : DKH picture change effects
   Kantharuban Sivalingam : CASSCF convergence/infrastructure, NEVPT2 and variants, FIC-MRCI
   Bernardo de Souza      : ESD, SOC TD-DFT
   Georgi Stoychev        : AutoAux, RI-MP2 NMR, DLPNO-MP2 response, X2C
   Van Anh Tran           : RI-MP2 g-tensors
   Willem Van den Heuvel  : Paramagnetic NMR
   Zikuan Wang            : NOTCH, Electric field optimization 
   Frank Wennmohs         : Technical directorship and infrastructure
   Hang Xu                : AUTO-CI-Response properties 


 We gratefully acknowledge several colleagues who have allowed us to
 interface, adapt or use parts of their codes:
   Stefan Grimme, W. Hujo, H. Kruse, P. Pracht,  : VdW corrections, initial TS optimization,
                  C. Bannwarth, S. Ehlert,         DFT functionals, gCP, sTDA/sTD-DF
                  L. Wittmann, M. Mueller
   Ed Valeev, F. Pavosevic, A. Kumar             : LibInt (2-el integral package), F12 methods
   Garnet Chan, S. Sharma, J. Yang, R. Olivares  : DMRG
   Ulf Ekstrom                                   : XCFun DFT Library
   Mihaly Kallay                                 : mrcc  (arbitrary order and MRCC methods)
   Frank Weinhold                                : gennbo (NPA and NBO analysis)
   Simon Mueller                                 : openCOSMO-RS
   Christopher J. Cramer and Donald G. Truhlar   : smd solvation model
   Lars Goerigk                                  : TD-DFT with DH, B97 family of functionals
   V. Asgeirsson, H. Jonsson                     : NEB implementation
   FAccTs GmbH                                   : IRC, NEB, NEB-TS, DLPNO-Multilevel, CI-OPT
                                                   MM, QMMM, 2- and 3-layer-ONIOM, Crystal-QMMM,
                                                   LR-CPCM, SF, NACMEs, symmetry and pop. for TD-DFT,
                                                   nearIR, NL-DFT gradient (VV10), updates on ESD,
                                                   ML-optimized integration grids, MBIS, APM,
                                                   GOAT, DOCKER, SOLVATOR, interface openCOSMO-RS
   S Lehtola, MJT Oliveira, MAL Marques          : LibXC Library
   Liviu Ungur et al                             : ANISO software


 Your calculation uses the libint2 library for the computation of 2-el integrals
 For citations please refer to: http://libint.valeyev.net

 Your ORCA version has been built with support for libXC version: 6.2.2
 For citations please refer to: https://libxc.gitlab.io

 This ORCA versions uses:
   CBLAS   interface :  Fast vector & matrix operations
   LAPACKE interface :  Fast linear algebra routines
   SCALAPACK package :  Parallel linear algebra routines
   Shared memory     :  Shared parallel matrices
   BLAS/LAPACK       :  OpenBLAS 0.3.27  USE64BITINT DYNAMIC_ARCH NO_AFFINITY Zen SINGLE_THREADED
        Core in use  :  Zen
   Copyright (c) 2011-2014, The OpenBLAS Project


                                 *****************
                                 * O   R   C   A *
                                 *****************

                                            #,                                       
                                            ###                                      
                                            ####                                     
                                            #####                                    
                                            ######                                   
                                           ########,                                 
                                     ,,################,,,,,                         
                               ,,#################################,,                 
                          ,,##########################################,,             
                       ,#########################################, ''#####,          
                    ,#############################################,,   '####,        
                  ,##################################################,,,,####,       
                ,###########''''           ''''###############################       
              ,#####''   ,,,,##########,,,,          '''####'''          '####       
            ,##' ,,,,###########################,,,                        '##       
           ' ,,###''''                  '''############,,,                           
         ,,##''                                '''############,,,,        ,,,,,,###''
      ,#''                                            '''#######################'''  
     '                                                          ''''####''''         
             ,#######,   #######,   ,#######,      ##                                
            ,#'     '#,  ##    ##  ,#'     '#,    #''#        ,####,   ,####,        
            ##       ##  ##   ,#'  ##            #'  '#       #'       #'  '#        
            ##       ##  #######   ##           ,######,      #####,   #    #        
            '#,     ,#'  ##    ##  '#,     ,#' ,#      #,     #,   #   #,  ,#        
             '#######'   ##     ##  '#######'  #'      '#     '####' # '####'        



                #########################################################
                #                        -***-                          #
                #          Department of theory and spectroscopy        #
                #                                                       #
                #                      Frank Neese                      #
                #                                                       #
                #     Directorship, Architecture, Infrastructure        #
                #                    SHARK, DRIVERS                     #
                #        Core code/Algorithms in most modules           #
                #                                                       #
                #        Max Planck Institute fuer Kohlenforschung      #
                #                Kaiser Wilhelm Platz 1                 #
                #                 D-45470 Muelheim/Ruhr                 #
                #                      Germany                          #
                #                                                       #
                #                  All rights reserved                  #
                #                        -***-                          #
                #########################################################


                         Program Version 6.0.0  -   RELEASE  -


 With contributions from (in alphabetic order):
   Daniel Aravena         : Magnetic Suceptibility
   Michael Atanasov       : Ab Initio Ligand Field Theory (pilot matlab implementation)
   Alexander A. Auer      : GIAO ZORA, VPT2 properties, NMR spectrum
   Ute Becker             : All parallelization in ORCA, NUMFREQ, NUMCALC
   Giovanni Bistoni       : ED, misc. LED, open-shell LED, HFLD
   Martin Brehm           : Molecular dynamics
   Dmytro Bykov           : pre 5.0 version of the SCF Hessian
   Marcos Casanova-Páez   : Triplet and SCS-CIS(D). UHF-(DLPNO)-IP/EA/STEOM-CCSD. UHF-CVS-IP/STEOM-CCSD
   Vijay G. Chilkuri      : MRCI spin determinant printing, contributions to CSF-ICE
   Pauline Colinet        : FMM embedding
   Dipayan Datta          : RHF DLPNO-CCSD density
   Achintya Kumar Dutta   : EOM-CC, STEOM-CC
   Nicolas Foglia         : Exact transition moments, OPA infrastructure, MCD improvements
   Dmitry Ganyushin       : Spin-Orbit,Spin-Spin,Magnetic field MRCI
   Miquel Garcia          : C-PCM and meta-GGA Hessian, CCSD/C-PCM, Gaussian charge scheme
   Tiago L. C. Gouveia    : GS-ROHF, GS-ROCIS
   Yang Guo               : DLPNO-NEVPT2, F12-NEVPT2, CIM, IAO-localization
   Andreas Hansen         : Spin unrestricted coupled pair/coupled cluster methods
   Ingolf Harden          : AUTO-CI MPn and infrastructure 
   Benjamin Helmich-Paris : MC-RPA, TRAH-(SCF,CASSCF), AVAS, COSX integrals, SCF dyn. polar.
   Lee Huntington         : MR-EOM, pCC
   Robert Izsak           : Overlap fitted RIJCOSX, COSX-SCS-MP3, EOM
   Riya Kayal             : Wick's Theorem for AUTO-CI, AUTO-CI UHF-CCSDT
   Emily Kempfer          : AUTO-CI, RHF CISDT and CCSDT
   Christian Kollmar      : KDIIS, OOCD, Brueckner-CCSD(T), CCSD density, CASPT2, CASPT2-K, improved NEVPT2
   Axel Koslowski         : Symmetry handling
   Simone Kossmann        : Meta GGA functionals, TD-DFT gradient, OOMP2, (MP2 Hessian; deprecated post 5.0)
   Lucas Lang             : DCDCAS
   Marvin Lechner         : AUTO-CI (C++ implementation), FIC-MRCC
   Spencer Leger          : CASSCF response
   Dagmar Lenk            : GEPOL surface, SMD, ORCA-2-JSON
   Dimitrios Liakos       : Extrapolation schemes; Compound Job, initial MDCI parallelization
   Dimitrios Manganas     : Further ROCIS development; embedding schemes. LFT, Crystal Embedding
   Dimitrios Pantazis     : SARC Basis sets
   Anastasios Papadopoulos: AUTO-CI, single reference methods and gradients
   Taras Petrenko         : pre 6.0 DFT Hessian and TD-DFT gradient, (ASA, deprecated), ECA, 1-Electron XAS/XES, NRVS
   Peter Pinski           : DLPNO-MP2, DLPNO-MP2 Gradient
   Christoph Reimann      : Effective Core Potentials
   Marius Retegan         : Local ZFS, SOC
   Christoph Riplinger    : Optimizer, TS searches, QM/MM, DLPNO-CCSD(T), (RO)-DLPNO pert. Triples
   Michael Roemelt        : Original ROCIS implementation
   Masaaki Saitow         : Open-shell DLPNO-CCSD energy and density
   Barbara Sandhoefer     : DKH picture change effects
   Kantharuban Sivalingam : CASSCF convergence/infrastructure, NEVPT2 and variants, FIC-MRCI
   Bernardo de Souza      : ESD, SOC TD-DFT
   Georgi Stoychev        : AutoAux, RI-MP2 NMR, DLPNO-MP2 response, X2C
   Van Anh Tran           : RI-MP2 g-tensors
   Willem Van den Heuvel  : Paramagnetic NMR
   Zikuan Wang            : NOTCH, Electric field optimization 
   Frank Wennmohs         : Technical directorship and infrastructure
   Hang Xu                : AUTO-CI-Response properties 


 We gratefully acknowledge several colleagues who have allowed us to
 interface, adapt or use parts of their codes:
   Stefan Grimme, W. Hujo, H. Kruse, P. Pracht,  : VdW corrections, initial TS optimization,
                  C. Bannwarth, S. Ehlert,         DFT functionals, gCP, sTDA/sTD-DF
                  L. Wittmann, M. Mueller
   Ed Valeev, F. Pavosevic, A. Kumar             : LibInt (2-el integral package), F12 methods
   Garnet Chan, S. Sharma, J. Yang, R. Olivares  : DMRG
   Ulf Ekstrom                                   : XCFun DFT Library
   Mihaly Kallay                                 : mrcc  (arbitrary order and MRCC methods)
   Frank Weinhold                                : gennbo (NPA and NBO analysis)
   Simon Mueller                                 : openCOSMO-RS
   Christopher J. Cramer and Donald G. Truhlar   : smd solvation model
   Lars Goerigk                                  : TD-DFT with DH, B97 family of functionals
   V. Asgeirsson, H. Jonsson                     : NEB implementation
   FAccTs GmbH                                   : IRC, NEB, NEB-TS, DLPNO-Multilevel, CI-OPT
                                                   MM, QMMM, 2- and 3-layer-ONIOM, Crystal-QMMM,
                                                   LR-CPCM, SF, NACMEs, symmetry and pop. for TD-DFT,
                                                   nearIR, NL-DFT gradient (VV10), updates on ESD,
                                                   ML-optimized integration grids, MBIS, APM,
                                                   GOAT, DOCKER, SOLVATOR, interface openCOSMO-RS
   S Lehtola, MJT Oliveira, MAL Marques          : LibXC Library
   Liviu Ungur et al                             : ANISO software


 Your calculation uses the libint2 library for the computation of 2-el integrals
 For citations please refer to: http://libint.valeyev.net

 Your ORCA version has been built with support for libXC version: 6.2.2
 For citations please refer to: https://libxc.gitlab.io


 This ORCA versions uses:
   CBLAS   interface :  Fast vector & matrix operations
   LAPACKE interface :  Fast linear algebra routines
   SCALAPACK package :  Parallel linear algebra routines
   Shared memory     :  Shared parallel matrices
   BLAS/LAPACK       :  OpenBLAS 0.3.27  USE64BITINT DYNAMIC_ARCH NO_AFFINITY Zen SINGLE_THREADED
        Core in use  :  Zen
   Copyright (c) 2011-2014, The OpenBLAS Project


                                 *****************
                                 * O   R   C   A *
                                 *****************

                                            #,                                       
                                            ###                                      
                                            ####                                     
                                            #####                                    
                                            ######                                   
                                           ########,                                 
                                     ,,################,,,,,                         
                               ,,#################################,,                 
                          ,,##########################################,,             
                       ,#########################################, ''#####,          
                    ,#############################################,,   '####,        
                  ,##################################################,,,,####,       
                ,###########''''           ''''###############################       
              ,#####''   ,,,,##########,,,,          '''####'''          '####       
            ,##' ,,,,###########################,,,                        '##       
           ' ,,###''''                  '''############,,,                           
         ,,##''                                '''############,,,,        ,,,,,,###''
      ,#''                                            '''#######################'''  
     '                                                          ''''####''''         
             ,#######,   #######,   ,#######,      ##                                
            ,#'     '#,  ##    ##  ,#'     '#,    #''#        ,####,   ,####,        
            ##       ##  ##   ,#'  ##            #'  '#       #'       #'  '#        
            ##       ##  #######   ##           ,######,      #####,   #    #        
            '#,     ,#'  ##    ##  '#,     ,#' ,#      #,     #,   #   #,  ,#        
             '#######'   ##     ##  '#######'  #'      '#     '####' # '####'        



                #########################################################
                #                        -***-                          #
                #          Department of theory and spectroscopy        #
                #                                                       #
                #                      Frank Neese                      #
                #                                                       #
                #     Directorship, Architecture, Infrastructure        #
                #                    SHARK, DRIVERS                     #
                #        Core code/Algorithms in most modules           #
                #                                                       #
                #        Max Planck Institute fuer Kohlenforschung      #
                #                Kaiser Wilhelm Platz 1                 #
                #                 D-45470 Muelheim/Ruhr                 #
                #                      Germany                          #
                #                                                       #
                #                  All rights reserved                  #
                #                        -***-                          #
                #########################################################


                         Program Version 6.0.0  -   RELEASE  -


 With contributions from (in alphabetic order):
   Daniel Aravena         : Magnetic Suceptibility
   Michael Atanasov       : Ab Initio Ligand Field Theory (pilot matlab implementation)
   Alexander A. Auer      : GIAO ZORA, VPT2 properties, NMR spectrum
   Ute Becker             : All parallelization in ORCA, NUMFREQ, NUMCALC
   Giovanni Bistoni       : ED, misc. LED, open-shell LED, HFLD
   Martin Brehm           : Molecular dynamics
   Dmytro Bykov           : pre 5.0 version of the SCF Hessian
   Marcos Casanova-Páez   : Triplet and SCS-CIS(D). UHF-(DLPNO)-IP/EA/STEOM-CCSD. UHF-CVS-IP/STEOM-CCSD
   Vijay G. Chilkuri      : MRCI spin determinant printing, contributions to CSF-ICE
   Pauline Colinet        : FMM embedding
   Dipayan Datta          : RHF DLPNO-CCSD density
   Achintya Kumar Dutta   : EOM-CC, STEOM-CC
   Nicolas Foglia         : Exact transition moments, OPA infrastructure, MCD improvements
   Dmitry Ganyushin       : Spin-Orbit,Spin-Spin,Magnetic field MRCI
   Miquel Garcia          : C-PCM and meta-GGA Hessian, CCSD/C-PCM, Gaussian charge scheme
   Tiago L. C. Gouveia    : GS-ROHF, GS-ROCIS
   Yang Guo               : DLPNO-NEVPT2, F12-NEVPT2, CIM, IAO-localization
   Andreas Hansen         : Spin unrestricted coupled pair/coupled cluster methods
   Ingolf Harden          : AUTO-CI MPn and infrastructure 
   Benjamin Helmich-Paris : MC-RPA, TRAH-(SCF,CASSCF), AVAS, COSX integrals, SCF dyn. polar.
   Lee Huntington         : MR-EOM, pCC
   Robert Izsak           : Overlap fitted RIJCOSX, COSX-SCS-MP3, EOM
   Riya Kayal             : Wick's Theorem for AUTO-CI, AUTO-CI UHF-CCSDT
   Emily Kempfer          : AUTO-CI, RHF CISDT and CCSDT
   Christian Kollmar      : KDIIS, OOCD, Brueckner-CCSD(T), CCSD density, CASPT2, CASPT2-K, improved NEVPT2
   Axel Koslowski         : Symmetry handling
   Simone Kossmann        : Meta GGA functionals, TD-DFT gradient, OOMP2, (MP2 Hessian; deprecated post 5.0)
   Lucas Lang             : DCDCAS
   Marvin Lechner         : AUTO-CI (C++ implementation), FIC-MRCC
   Spencer Leger          : CASSCF response
   Dagmar Lenk            : GEPOL surface, SMD, ORCA-2-JSON
   Dimitrios Liakos       : Extrapolation schemes; Compound Job, initial MDCI parallelization
   Dimitrios Manganas     : Further ROCIS development; embedding schemes. LFT, Crystal Embedding
   Dimitrios Pantazis     : SARC Basis sets
   Anastasios Papadopoulos: AUTO-CI, single reference methods and gradients
   Taras Petrenko         : pre 6.0 DFT Hessian and TD-DFT gradient, (ASA, deprecated), ECA, 1-Electron XAS/XES, NRVS
   Peter Pinski           : DLPNO-MP2, DLPNO-MP2 Gradient
   Christoph Reimann      : Effective Core Potentials
   Marius Retegan         : Local ZFS, SOC
   Christoph Riplinger    : Optimizer, TS searches, QM/MM, DLPNO-CCSD(T), (RO)-DLPNO pert. Triples
   Michael Roemelt        : Original ROCIS implementation
   Masaaki Saitow         : Open-shell DLPNO-CCSD energy and density
   Barbara Sandhoefer     : DKH picture change effects
   Kantharuban Sivalingam : CASSCF convergence/infrastructure, NEVPT2 and variants, FIC-MRCI
   Bernardo de Souza      : ESD, SOC TD-DFT
   Georgi Stoychev        : AutoAux, RI-MP2 NMR, DLPNO-MP2 response, X2C
   Van Anh Tran           : RI-MP2 g-tensors
   Willem Van den Heuvel  : Paramagnetic NMR
   Zikuan Wang            : NOTCH, Electric field optimization 
   Frank Wennmohs         : Technical directorship and infrastructure
   Hang Xu                : AUTO-CI-Response properties 


 We gratefully acknowledge several colleagues who have allowed us to
 interface, adapt or use parts of their codes:
   Stefan Grimme, W. Hujo, H. Kruse, P. Pracht,  : VdW corrections, initial TS optimization,
                  C. Bannwarth, S. Ehlert,         DFT functionals, gCP, sTDA/sTD-DF
                  L. Wittmann, M. Mueller
   Ed Valeev, F. Pavosevic, A. Kumar             : LibInt (2-el integral package), F12 methods
   Garnet Chan, S. Sharma, J. Yang, R. Olivares  : DMRG
   Ulf Ekstrom                                   : XCFun DFT Library
   Mihaly Kallay                                 : mrcc  (arbitrary order and MRCC methods)
   Frank Weinhold                                : gennbo (NPA and NBO analysis)
   Simon Mueller                                 : openCOSMO-RS
   Christopher J. Cramer and Donald G. Truhlar   : smd solvation model
   Lars Goerigk                                  : TD-DFT with DH, B97 family of functionals
   V. Asgeirsson, H. Jonsson                     : NEB implementation
   FAccTs GmbH                                   : IRC, NEB, NEB-TS, DLPNO-Multilevel, CI-OPT
                                                   MM, QMMM, 2- and 3-layer-ONIOM, Crystal-QMMM,
                                                   LR-CPCM, SF, NACMEs, symmetry and pop. for TD-DFT,
                                                   nearIR, NL-DFT gradient (VV10), updates on ESD,
                                                   ML-optimized integration grids, MBIS, APM,
                                                   GOAT, DOCKER, SOLVATOR, interface openCOSMO-RS
   S Lehtola, MJT Oliveira, MAL Marques          : LibXC Library
   Liviu Ungur et al                             : ANISO software


 Your calculation uses the libint2 library for the computation of 2-el integrals
 For citations please refer to: http://libint.valeyev.net

 Your ORCA version has been built with support for libXC version: 6.2.2
 For citations please refer to: https://libxc.gitlab.io

 This ORCA versions uses:
   CBLAS   interface :  Fast vector & matrix operations
   LAPACKE interface :  Fast linear algebra routines
   SCALAPACK package :  Parallel linear algebra routines
   Shared memory     :  Shared parallel matrices
   BLAS/LAPACK       :  OpenBLAS 0.3.27  USE64BITINT DYNAMIC_ARCH NO_AFFINITY Zen SINGLE_THREADED
        Core in use  :  Zen
   Copyright (c) 2011-2014, The OpenBLAS Project



                                 *****************
                                 * O   R   C   A *
                                 *****************

                                            #,                                       
                                            ###                                      
                                            ####                                     
                                            #####                                    
                                            ######                                   
                                           ########,                                 
                                     ,,################,,,,,                         
                               ,,#################################,,                 
                          ,,##########################################,,             
                       ,#########################################, ''#####,          
                    ,#############################################,,   '####,        
                  ,##################################################,,,,####,       
                ,###########''''           ''''###############################       
              ,#####''   ,,,,##########,,,,          '''####'''          '####       
            ,##' ,,,,###########################,,,                        '##       
           ' ,,###''''                  '''############,,,                           
         ,,##''                                '''############,,,,        ,,,,,,###''
      ,#''                                            '''#######################'''  
     '                                                          ''''####''''         
             ,#######,   #######,   ,#######,      ##                                
            ,#'     '#,  ##    ##  ,#'     '#,    #''#        ,####,   ,####,        
            ##       ##  ##   ,#'  ##            #'  '#       #'       #'  '#        
            ##       ##  #######   ##           ,######,      #####,   #    #        
            '#,     ,#'  ##    ##  '#,     ,#' ,#      #,     #,   #   #,  ,#        
             '#######'   ##     ##  '#######'  #'      '#     '####' # '####'        



                #########################################################
                #                        -***-                          #
                #          Department of theory and spectroscopy        #
                #                                                       #
                #                      Frank Neese                      #
                #                                                       #
                #     Directorship, Architecture, Infrastructure        #
                #                    SHARK, DRIVERS                     #
                #        Core code/Algorithms in most modules           #
                #                                                       #
                #        Max Planck Institute fuer Kohlenforschung      #
                #                Kaiser Wilhelm Platz 1                 #
                #                 D-45470 Muelheim/Ruhr                 #
                #                      Germany                          #
                #                                                       #
                #                  All rights reserved                  #
                #                        -***-                          #
                #########################################################


                         Program Version 6.0.0  -   RELEASE  -


 With contributions from (in alphabetic order):
   Daniel Aravena         : Magnetic Suceptibility
   Michael Atanasov       : Ab Initio Ligand Field Theory (pilot matlab implementation)
   Alexander A. Auer      : GIAO ZORA, VPT2 properties, NMR spectrum
   Ute Becker             : All parallelization in ORCA, NUMFREQ, NUMCALC

   Giovanni Bistoni       : ED, misc. LED, open-shell LED, HFLD
   Martin Brehm           : Molecular dynamics
   Dmytro Bykov           : pre 5.0 version of the SCF Hessian
   Marcos Casanova-Páez   : Triplet and SCS-CIS(D). UHF-(DLPNO)-IP/EA/STEOM-CCSD. UHF-CVS-IP/STEOM-CCSD
   Vijay G. Chilkuri      : MRCI spin determinant printing, contributions to CSF-ICE
   Pauline Colinet        : FMM embedding
   Dipayan Datta          : RHF DLPNO-CCSD density
   Achintya Kumar Dutta   : EOM-CC, STEOM-CC
   Nicolas Foglia         : Exact transition moments, OPA infrastructure, MCD improvements
   Dmitry Ganyushin       : Spin-Orbit,Spin-Spin,Magnetic field MRCI
   Miquel Garcia          : C-PCM and meta-GGA Hessian, CCSD/C-PCM, Gaussian charge scheme
   Tiago L. C. Gouveia    : GS-ROHF, GS-ROCIS
   Yang Guo               : DLPNO-NEVPT2, F12-NEVPT2, CIM, IAO-localization
   Andreas Hansen         : Spin unrestricted coupled pair/coupled cluster methods
   Ingolf Harden          : AUTO-CI MPn and infrastructure 
   Benjamin Helmich-Paris : MC-RPA, TRAH-(SCF,CASSCF), AVAS, COSX integrals, SCF dyn. polar.
   Lee Huntington         : MR-EOM, pCC
   Robert Izsak           : Overlap fitted RIJCOSX, COSX-SCS-MP3, EOM
   Riya Kayal             : Wick's Theorem for AUTO-CI, AUTO-CI UHF-CCSDT
   Emily Kempfer          : AUTO-CI, RHF CISDT and CCSDT
   Christian Kollmar      : KDIIS, OOCD, Brueckner-CCSD(T), CCSD density, CASPT2, CASPT2-K, improved NEVPT2
   Axel Koslowski         : Symmetry handling
   Simone Kossmann        : Meta GGA functionals, TD-DFT gradient, OOMP2, (MP2 Hessian; deprecated post 5.0)
   Lucas Lang             : DCDCAS
   Marvin Lechner         : AUTO-CI (C++ implementation), FIC-MRCC
   Spencer Leger          : CASSCF response
   Dagmar Lenk            : GEPOL surface, SMD, ORCA-2-JSON
   Dimitrios Liakos       : Extrapolation schemes; Compound Job, initial MDCI parallelization
   Dimitrios Manganas     : Further ROCIS development; embedding schemes. LFT, Crystal Embedding
   Dimitrios Pantazis     : SARC Basis sets
   Anastasios Papadopoulos: AUTO-CI, single reference methods and gradients
   Taras Petrenko         : pre 6.0 DFT Hessian and TD-DFT gradient, (ASA, deprecated), ECA, 1-Electron XAS/XES, NRVS
   Peter Pinski           : DLPNO-MP2, DLPNO-MP2 Gradient
   Christoph Reimann      : Effective Core Potentials
   Marius Retegan         : Local ZFS, SOC
   Christoph Riplinger    : Optimizer, TS searches, QM/MM, DLPNO-CCSD(T), (RO)-DLPNO pert. Triples
   Michael Roemelt        : Original ROCIS implementation
   Masaaki Saitow         : Open-shell DLPNO-CCSD energy and density
   Barbara Sandhoefer     : DKH picture change effects
   Kantharuban Sivalingam : CASSCF convergence/infrastructure, NEVPT2 and variants, FIC-MRCI
   Bernardo de Souza      : ESD, SOC TD-DFT
   Georgi Stoychev        : AutoAux, RI-MP2 NMR, DLPNO-MP2 response, X2C
   Van Anh Tran           : RI-MP2 g-tensors
   Willem Van den Heuvel  : Paramagnetic NMR
   Zikuan Wang            : NOTCH, Electric field optimization 
   Frank Wennmohs         : Technical directorship and infrastructure
   Hang Xu                : AUTO-CI-Response properties 


 We gratefully acknowledge several colleagues who have allowed us to
 interface, adapt or use parts of their codes:
   Stefan Grimme, W. Hujo, H. Kruse, P. Pracht,  : VdW corrections, initial TS optimization,
                  C. Bannwarth, S. Ehlert,         DFT functionals, gCP, sTDA/sTD-DF
                  L. Wittmann, M. Mueller
   Ed Valeev, F. Pavosevic, A. Kumar             : LibInt (2-el integral package), F12 methods
   Garnet Chan, S. Sharma, J. Yang, R. Olivares  : DMRG
   Ulf Ekstrom                                   : XCFun DFT Library
   Mihaly Kallay                                 : mrcc  (arbitrary order and MRCC methods)
   Frank Weinhold                                : gennbo (NPA and NBO analysis)
   Simon Mueller                                 : openCOSMO-RS
   Christopher J. Cramer and Donald G. Truhlar   : smd solvation model
   Lars Goerigk                                  : TD-DFT with DH, B97 family of functionals
   V. Asgeirsson, H. Jonsson                     : NEB implementation
   FAccTs GmbH                                   : IRC, NEB, NEB-TS, DLPNO-Multilevel, CI-OPT
                                                   MM, QMMM, 2- and 3-layer-ONIOM, Crystal-QMMM,
                                                   LR-CPCM, SF, NACMEs, symmetry and pop. for TD-DFT,
                                                   nearIR, NL-DFT gradient (VV10), updates on ESD,
                                                   ML-optimized integration grids, MBIS, APM,
                                                   GOAT, DOCKER, SOLVATOR, interface openCOSMO-RS
   S Lehtola, MJT Oliveira, MAL Marques          : LibXC Library
   Liviu Ungur et al                             : ANISO software


 Your calculation uses the libint2 library for the computation of 2-el integrals
 For citations please refer to: http://libint.valeyev.net

 Your ORCA version has been built with support for libXC version: 6.2.2
 For citations please refer to: https://libxc.gitlab.io

 This ORCA versions uses:
   CBLAS   interface :  Fast vector & matrix operations
   LAPACKE interface :  Fast linear algebra routines
   SCALAPACK package :  Parallel linear algebra routines
   Shared memory     :  Shared parallel matrices
   BLAS/LAPACK       :  OpenBLAS 0.3.27  USE64BITINT DYNAMIC_ARCH NO_AFFINITY Zen SINGLE_THREADED
        Core in use  :  Zen
   Copyright (c) 2011-2014, The OpenBLAS Project


                                 *****************
                                 * O   R   C   A *
                                 *****************

                                            #,                                       
                                            ###                                      
                                            ####                                     
                                            #####                                    
                                            ######                                   
                                           ########,                                 
                                     ,,################,,,,,                         
                               ,,#################################,,                 
                          ,,##########################################,,             
                       ,#########################################, ''#####,          
                    ,#############################################,,   '####,        
                  ,##################################################,,,,####,       
                ,###########''''           ''''###############################       
              ,#####''   ,,,,##########,,,,          '''####'''          '####       
            ,##' ,,,,###########################,,,                        '##       
           ' ,,###''''                  '''############,,,                           
         ,,##''                                '''############,,,,        ,,,,,,###''
      ,#''                                            '''#######################'''  
     '                                                          ''''####''''         
             ,#######,   #######,   ,#######,      ##                                
            ,#'     '#,  ##    ##  ,#'     '#,    #''#        ,####,   ,####,        
            ##       ##  ##   ,#'  ##            #'  '#       #'       #'  '#        
            ##       ##  #######   ##           ,######,      #####,   #    #        
            '#,     ,#'  ##    ##  '#,     ,#' ,#      #,     #,   #   #,  ,#        
             '#######'   ##     ##  '#######'  #'      '#     '####' # '####'        



                #########################################################
                #                        -***-                          #
                #          Department of theory and spectroscopy        #
                #                                                       #
                #                      Frank Neese                      #
                #                                                       #
                #     Directorship, Architecture, Infrastructure        #
                #                    SHARK, DRIVERS                     #
                #        Core code/Algorithms in most modules           #
                #                                                       #
                #        Max Planck Institute fuer Kohlenforschung      #
                #                Kaiser Wilhelm Platz 1                 #
                #                 D-45470 Muelheim/Ruhr                 #
                #                      Germany                          #
                #                                                       #
                #                  All rights reserved                  #
                #                        -***-                          #
                #########################################################


                         Program Version 6.0.0  -   RELEASE  -


 With contributions from (in alphabetic order):
   Daniel Aravena         : Magnetic Suceptibility
   Michael Atanasov       : Ab Initio Ligand Field Theory (pilot matlab implementation)
   Alexander A. Auer      : GIAO ZORA, VPT2 properties, NMR spectrum
   Ute Becker             : All parallelization in ORCA, NUMFREQ, NUMCALC
   Giovanni Bistoni       : ED, misc. LED, open-shell LED, HFLD
   Martin Brehm           : Molecular dynamics
   Dmytro Bykov           : pre 5.0 version of the SCF Hessian
   Marcos Casanova-Páez   : Triplet and SCS-CIS(D). UHF-(DLPNO)-IP/EA/STEOM-CCSD. UHF-CVS-IP/STEOM-CCSD
   Vijay G. Chilkuri      : MRCI spin determinant printing, contributions to CSF-ICE
   Pauline Colinet        : FMM embedding
   Dipayan Datta          : RHF DLPNO-CCSD density
   Achintya Kumar Dutta   : EOM-CC, STEOM-CC
   Nicolas Foglia         : Exact transition moments, OPA infrastructure, MCD improvements
   Dmitry Ganyushin       : Spin-Orbit,Spin-Spin,Magnetic field MRCI
   Miquel Garcia          : C-PCM and meta-GGA Hessian, CCSD/C-PCM, Gaussian charge scheme
   Tiago L. C. Gouveia    : GS-ROHF, GS-ROCIS
   Yang Guo               : DLPNO-NEVPT2, F12-NEVPT2, CIM, IAO-localization
   Andreas Hansen         : Spin unrestricted coupled pair/coupled cluster methods
   Ingolf Harden          : AUTO-CI MPn and infrastructure 
   Benjamin Helmich-Paris : MC-RPA, TRAH-(SCF,CASSCF), AVAS, COSX integrals, SCF dyn. polar.
   Lee Huntington         : MR-EOM, pCC
   Robert Izsak           : Overlap fitted RIJCOSX, COSX-SCS-MP3, EOM
   Riya Kayal             : Wick's Theorem for AUTO-CI, AUTO-CI UHF-CCSDT
   Emily Kempfer          : AUTO-CI, RHF CISDT and CCSDT
   Christian Kollmar      : KDIIS, OOCD, Brueckner-CCSD(T), CCSD density, CASPT2, CASPT2-K, improved NEVPT2
   Axel Koslowski         : Symmetry handling
   Simone Kossmann        : Meta GGA functionals, TD-DFT gradient, OOMP2, (MP2 Hessian; deprecated post 5.0)
   Lucas Lang             : DCDCAS
   Marvin Lechner         : AUTO-CI (C++ implementation), FIC-MRCC
   Spencer Leger          : CASSCF response
   Dagmar Lenk            : GEPOL surface, SMD, ORCA-2-JSON
   Dimitrios Liakos       : Extrapolation schemes; Compound Job, initial MDCI parallelization
   Dimitrios Manganas     : Further ROCIS development; embedding schemes. LFT, Crystal Embedding
   Dimitrios Pantazis     : SARC Basis sets
   Anastasios Papadopoulos: AUTO-CI, single reference methods and gradients
   Taras Petrenko         : pre 6.0 DFT Hessian and TD-DFT gradient, (ASA, deprecated), ECA, 1-Electron XAS/XES, NRVS
   Peter Pinski           : DLPNO-MP2, DLPNO-MP2 Gradient
   Christoph Reimann      : Effective Core Potentials
   Marius Retegan         : Local ZFS, SOC
   Christoph Riplinger    : Optimizer, TS searches, QM/MM, DLPNO-CCSD(T), (RO)-DLPNO pert. Triples
   Michael Roemelt        : Original ROCIS implementation
   Masaaki Saitow         : Open-shell DLPNO-CCSD energy and density
   Barbara Sandhoefer     : DKH picture change effects
   Kantharuban Sivalingam : CASSCF convergence/infrastructure, NEVPT2 and variants, FIC-MRCI
   Bernardo de Souza      : ESD, SOC TD-DFT
   Georgi Stoychev        : AutoAux, RI-MP2 NMR, DLPNO-MP2 response, X2C
   Van Anh Tran           : RI-MP2 g-tensors
   Willem Van den Heuvel  : Paramagnetic NMR
   Zikuan Wang            : NOTCH, Electric field optimization 
   Frank Wennmohs         : Technical directorship and infrastructure
   Hang Xu                : AUTO-CI-Response properties 


 We gratefully acknowledge several colleagues who have allowed us to
 interface, adapt or use parts of their codes:
   Stefan Grimme, W. Hujo, H. Kruse, P. Pracht,  : VdW corrections, initial TS optimization,
                  C. Bannwarth, S. Ehlert,         DFT functionals, gCP, sTDA/sTD-DF
                  L. Wittmann, M. Mueller
   Ed Valeev, F. Pavosevic, A. Kumar             : LibInt (2-el integral package), F12 methods
   Garnet Chan, S. Sharma, J. Yang, R. Olivares  : DMRG
   Ulf Ekstrom                                   : XCFun DFT Library
   Mihaly Kallay                                 : mrcc  (arbitrary order and MRCC methods)
   Frank Weinhold                                : gennbo (NPA and NBO analysis)
   Simon Mueller                                 : openCOSMO-RS
   Christopher J. Cramer and Donald G. Truhlar   : smd solvation model
   Lars Goerigk                                  : TD-DFT with DH, B97 family of functionals
   V. Asgeirsson, H. Jonsson                     : NEB implementation
   FAccTs GmbH                                   : IRC, NEB, NEB-TS, DLPNO-Multilevel, CI-OPT
                                                   MM, QMMM, 2- and 3-layer-ONIOM, Crystal-QMMM,
                                                   LR-CPCM, SF, NACMEs, symmetry and pop. for TD-DFT,
                                                   nearIR, NL-DFT gradient (VV10), updates on ESD,
                                                   ML-optimized integration grids, MBIS, APM,
                                                   GOAT, DOCKER, SOLVATOR, interface openCOSMO-RS
   S Lehtola, MJT Oliveira, MAL Marques          : LibXC Library
   Liviu Ungur et al                             : ANISO software


 Your calculation uses the libint2 library for the computation of 2-el integrals
 For citations please refer to: http://libint.valeyev.net

 Your ORCA version has been built with support for libXC version: 6.2.2
 For citations please refer to: https://libxc.gitlab.io

 This ORCA versions uses:
   CBLAS   interface :  Fast vector & matrix operations
   LAPACKE interface :  Fast linear algebra routines
   SCALAPACK package :  Parallel linear algebra routines
   Shared memory     :  Shared parallel matrices
   BLAS/LAPACK       :  OpenBLAS 0.3.27  USE64BITINT DYNAMIC_ARCH NO_AFFINITY Zen SINGLE_THREADED
        Core in use  :  Zen
   Copyright (c) 2011-2014, The OpenBLAS Project



                                 *****************
                                 * O   R   C   A *
                                 *****************

                                            #,                                       
                                            ###                                      
                                            ####                                     
                                            #####                                    
                                            ######                                   
                                           ########,                                 
                                     ,,################,,,,,                         
                               ,,#################################,,                 
                          ,,##########################################,,             
                       ,#########################################, ''#####,          
                    ,#############################################,,   '####,        
                  ,##################################################,,,,####,       
                ,###########''''           ''''###############################       
              ,#####''   ,,,,##########,,,,          '''####'''          '####       
            ,##' ,,,,###########################,,,                        '##       
           ' ,,###''''                  '''############,,,                           
         ,,##''                                '''############,,,,        ,,,,,,###''
      ,#''                                            '''#######################'''  
     '                                                          ''''####''''         
             ,#######,   #######,   ,#######,      ##                                
            ,#'     '#,  ##    ##  ,#'     '#,    #''#        ,####,   ,####,        
            ##       ##  ##   ,#'  ##            #'  '#       #'       #'  '#        
            ##       ##  #######   ##           ,######,      #####,   #    #        
            '#,     ,#'  ##    ##  '#,     ,#' ,#      #,     #,   #   #,  ,#        
             '#######'   ##     ##  '#######'  #'      '#     '####' # '####'        



                #########################################################
                #                        -***-                          #
                #          Department of theory and spectroscopy        #
                #                                                       #
                #                      Frank Neese                      #
                #                                                       #
                #     Directorship, Architecture, Infrastructure        #
                #                    SHARK, DRIVERS                     #
                #        Core code/Algorithms in most modules           #
                #                                                       #
                #        Max Planck Institute fuer Kohlenforschung      #
                #                Kaiser Wilhelm Platz 1                 #
                #                 D-45470 Muelheim/Ruhr                 #
                #                      Germany                          #
                #                                                       #
                #                  All rights reserved                  #
                #                        -***-                          #
                #########################################################


                         Program Version 6.0.0  -   RELEASE  -


 With contributions from (in alphabetic order):
   Daniel Aravena         : Magnetic Suceptibility
   Michael Atanasov       : Ab Initio Ligand Field Theory (pilot matlab implementation)
   Alexander A. Auer      : GIAO ZORA, VPT2 properties, NMR spectrum
   Ute Becker             : All parallelization in ORCA, NUMFREQ, NUMCALC
   Giovanni Bistoni       : ED, misc. LED, open-shell LED, HFLD
   Martin Brehm           : Molecular dynamics
   Dmytro Bykov           : pre 5.0 version of the SCF Hessian
   Marcos Casanova-Páez   : Triplet and SCS-CIS(D). UHF-(DLPNO)-IP/EA/STEOM-CCSD. UHF-CVS-IP/STEOM-CCSD
   Vijay G. Chilkuri      : MRCI spin determinant printing, contributions to CSF-ICE
   Pauline Colinet        : FMM embedding
   Dipayan Datta          : RHF DLPNO-CCSD density
   Achintya Kumar Dutta   : EOM-CC, STEOM-CC
   Nicolas Foglia         : Exact transition moments, OPA infrastructure, MCD improvements
   Dmitry Ganyushin       : Spin-Orbit,Spin-Spin,Magnetic field MRCI
   Miquel Garcia          : C-PCM and meta-GGA Hessian, CCSD/C-PCM, Gaussian charge scheme
   Tiago L. C. Gouveia    : GS-ROHF, GS-ROCIS
   Yang Guo               : DLPNO-NEVPT2, F12-NEVPT2, CIM, IAO-localization
   Andreas Hansen         : Spin unrestricted coupled pair/coupled cluster methods
   Ingolf Harden          : AUTO-CI MPn and infrastructure 
   Benjamin Helmich-Paris : MC-RPA, TRAH-(SCF,CASSCF), AVAS, COSX integrals, SCF dyn. polar.
   Lee Huntington         : MR-EOM, pCC
   Robert Izsak           : Overlap fitted RIJCOSX, COSX-SCS-MP3, EOM
   Riya Kayal             : Wick's Theorem for AUTO-CI, AUTO-CI UHF-CCSDT
   Emily Kempfer          : AUTO-CI, RHF CISDT and CCSDT
   Christian Kollmar      : KDIIS, OOCD, Brueckner-CCSD(T), CCSD density, CASPT2, CASPT2-K, improved NEVPT2
   Axel Koslowski         : Symmetry handling
   Simone Kossmann        : Meta GGA functionals, TD-DFT gradient, OOMP2, (MP2 Hessian; deprecated post 5.0)
   Lucas Lang             : DCDCAS
   Marvin Lechner         : AUTO-CI (C++ implementation), FIC-MRCC
   Spencer Leger          : CASSCF response
   Dagmar Lenk            : GEPOL surface, SMD, ORCA-2-JSON
   Dimitrios Liakos       : Extrapolation schemes; Compound Job, initial MDCI parallelization
   Dimitrios Manganas     : Further ROCIS development; embedding schemes. LFT, Crystal Embedding
   Dimitrios Pantazis     : SARC Basis sets
   Anastasios Papadopoulos: AUTO-CI, single reference methods and gradients
   Taras Petrenko         : pre 6.0 DFT Hessian and TD-DFT gradient, (ASA, deprecated), ECA, 1-Electron XAS/XES, NRVS
   Peter Pinski           : DLPNO-MP2, DLPNO-MP2 Gradient
   Christoph Reimann      : Effective Core Potentials
   Marius Retegan         : Local ZFS, SOC
   Christoph Riplinger    : Optimizer, TS searches, QM/MM, DLPNO-CCSD(T), (RO)-DLPNO pert. Triples
   Michael Roemelt        : Original ROCIS implementation
   Masaaki Saitow         : Open-shell DLPNO-CCSD energy and density
   Barbara Sandhoefer     : DKH picture change effects
   Kantharuban Sivalingam : CASSCF convergence/infrastructure, NEVPT2 and variants, FIC-MRCI
   Bernardo de Souza      : ESD, SOC TD-DFT
   Georgi Stoychev        : AutoAux, RI-MP2 NMR, DLPNO-MP2 response, X2C
   Van Anh Tran           : RI-MP2 g-tensors
   Willem Van den Heuvel  : Paramagnetic NMR
   Zikuan Wang            : NOTCH, Electric field optimization 
   Frank Wennmohs         : Technical directorship and infrastructure
   Hang Xu                : AUTO-CI-Response properties 


 We gratefully acknowledge several colleagues who have allowed us to
 interface, adapt or use parts of their codes:
   Stefan Grimme, W. Hujo, H. Kruse, P. Pracht,  : VdW corrections, initial TS optimization,
                  C. Bannwarth, S. Ehlert,         DFT functionals, gCP, sTDA/sTD-DF
                  L. Wittmann, M. Mueller
   Ed Valeev, F. Pavosevic, A. Kumar             : LibInt (2-el integral package), F12 methods
   Garnet Chan, S. Sharma, J. Yang, R. Olivares  : DMRG
   Ulf Ekstrom                                   : XCFun DFT Library
   Mihaly Kallay                                 : mrcc  (arbitrary order and MRCC methods)
   Frank Weinhold                                : gennbo (NPA and NBO analysis)
   Simon Mueller                                 : openCOSMO-RS
   Christopher J. Cramer and Donald G. Truhlar   : smd solvation model
   Lars Goerigk                                  : TD-DFT with DH, B97 family of functionals
   V. Asgeirsson, H. Jonsson                     : NEB implementation
   FAccTs GmbH                                   : IRC, NEB, NEB-TS, DLPNO-Multilevel, CI-OPT
                                                   MM, QMMM, 2- and 3-layer-ONIOM, Crystal-QMMM,
                                                   LR-CPCM, SF, NACMEs, symmetry and pop. for TD-DFT,
                                                   nearIR, NL-DFT gradient (VV10), updates on ESD,
                                                   ML-optimized integration grids, MBIS, APM,
                                                   GOAT, DOCKER, SOLVATOR, interface openCOSMO-RS
   S Lehtola, MJT Oliveira, MAL Marques          : LibXC Library
   Liviu Ungur et al                             : ANISO software


 Your calculation uses the libint2 library for the computation of 2-el integrals
 For citations please refer to: http://libint.valeyev.net

 Your ORCA version has been built with support for libXC version: 6.2.2
 For citations please refer to: https://libxc.gitlab.io

 This ORCA versions uses:
   CBLAS   interface :  Fast vector & matrix operations
   LAPACKE interface :  Fast linear algebra routines
   SCALAPACK package :  Parallel linear algebra routines
   Shared memory     :  Shared parallel matrices
   BLAS/LAPACK       :  OpenBLAS 0.3.27  USE64BITINT DYNAMIC_ARCH NO_AFFINITY Zen SINGLE_THREADED
        Core in use  :  Zen
   Copyright (c) 2011-2014, The OpenBLAS Project



                                 *****************
                                 * O   R   C   A *
                                 *****************

                                            #,                                       
                                            ###                                      
                                            ####                                     
                                            #####                                    
                                            ######                                   
                                           ########,                                 
                                     ,,################,,,,,                         
                               ,,#################################,,                 
                          ,,##########################################,,             
                       ,#########################################, ''#####,          
                    ,#############################################,,   '####,        
                  ,##################################################,,,,####,       
                ,###########''''           ''''###############################       
              ,#####''   ,,,,##########,,,,          '''####'''          '####       
            ,##' ,,,,###########################,,,                        '##       
           ' ,,###''''                  '''############,,,                           
         ,,##''                                '''############,,,,        ,,,,,,###''
      ,#''                                            '''#######################'''  
     '                                                          ''''####''''         
             ,#######,   #######,   ,#######,      ##                                
            ,#'     '#,  ##    ##  ,#'     '#,    #''#        ,####,   ,####,        
            ##       ##  ##   ,#'  ##            #'  '#       #'       #'  '#        
            ##       ##  #######   ##           ,######,      #####,   #    #        
            '#,     ,#'  ##    ##  '#,     ,#' ,#      #,     #,   #   #,  ,#        
             '#######'   ##     ##  '#######'  #'      '#     '####' # '####'        



                #########################################################
                #                        -***-                          #
                #          Department of theory and spectroscopy        #
                #                                                       #
                #                      Frank Neese                      #
                #                                                       #
                #     Directorship, Architecture, Infrastructure        #
                #                    SHARK, DRIVERS                     #
                #        Core code/Algorithms in most modules           #
                #                                                       #
                #        Max Planck Institute fuer Kohlenforschung      #
                #                Kaiser Wilhelm Platz 1                 #
                #                 D-45470 Muelheim/Ruhr                 #
                #                      Germany                          #
                #                                                       #
                #                  All rights reserved                  #
                #                        -***-                          #
                #########################################################

                                 *****************
                                 * O   R   C   A *
                                 *****************

                                            #,                                       
                                            ###                                      
                                            ####                                     
                                            #####                                    
                                            ######                                   
                                           ########,                                 
                                     ,,################,,,,,                         
                               ,,#################################,,                 
                          ,,##########################################,,             
                       ,#########################################, ''#####,          
                    ,#############################################,,   '####,        
                  ,##################################################,,,,####,       
                ,###########''''           ''''###############################       
              ,#####''   ,,,,##########,,,,          '''####'''          '####       
            ,##' ,,,,###########################,,,                        '##       
           ' ,,###''''                  '''############,,,                           
         ,,##''                                '''############,,,,        ,,,,,,###''
      ,#''                                            '''#######################'''  
     '                                                          ''''####''''         
             ,#######,   #######,   ,#######,      ##                                
            ,#'     '#,  ##    ##  ,#'     '#,    #''#        ,####,   ,####,        
            ##       ##  ##   ,#'  ##            #'  '#       #'       #'  '#        
            ##       ##  #######   ##           ,######,      #####,   #    #        
            '#,     ,#'  ##    ##  '#,     ,#' ,#      #,     #,   #   #,  ,#        
             '#######'   ##     ##  '#######'  #'      '#     '####' # '####'        



                #########################################################
                #                        -***-                          #
                #          Department of theory and spectroscopy        #
                #                                                       #
                #                      Frank Neese                      #
                #                                                       #
                #     Directorship, Architecture, Infrastructure        #
                #                    SHARK, DRIVERS                     #
                #        Core code/Algorithms in most modules           #
                #                                                       #
                #        Max Planck Institute fuer Kohlenforschung      #
                #                Kaiser Wilhelm Platz 1                 #
                #                 D-45470 Muelheim/Ruhr                 #
                #                      Germany                          #
                #                                                       #
                #                  All rights reserved                  #
                #                        -***-                          #
                #########################################################


                         Program Version 6.0.0  -   RELEASE  -


 With contributions from (in alphabetic order):
   Daniel Aravena         : Magnetic Suceptibility
   Michael Atanasov       : Ab Initio Ligand Field Theory (pilot matlab implementation)
   Alexander A. Auer      : GIAO ZORA, VPT2 properties, NMR spectrum
   Ute Becker             : All parallelization in ORCA, NUMFREQ, NUMCALC
   Giovanni Bistoni       : ED, misc. LED, open-shell LED, HFLD
   Martin Brehm           : Molecular dynamics
   Dmytro Bykov           : pre 5.0 version of the SCF Hessian
   Marcos Casanova-Páez   : Triplet and SCS-CIS(D). UHF-(DLPNO)-IP/EA/STEOM-CCSD. UHF-CVS-IP/STEOM-CCSD
   Vijay G. Chilkuri      : MRCI spin determinant printing, contributions to CSF-ICE
   Pauline Colinet        : FMM embedding
   Dipayan Datta          : RHF DLPNO-CCSD density
   Achintya Kumar Dutta   : EOM-CC, STEOM-CC
   Nicolas Foglia         : Exact transition moments, OPA infrastructure, MCD improvements
   Dmitry Ganyushin       : Spin-Orbit,Spin-Spin,Magnetic field MRCI
   Miquel Garcia          : C-PCM and meta-GGA Hessian, CCSD/C-PCM, Gaussian charge scheme
   Tiago L. C. Gouveia    : GS-ROHF, GS-ROCIS
   Yang Guo               : DLPNO-NEVPT2, F12-NEVPT2, CIM, IAO-localization
   Andreas Hansen         : Spin unrestricted coupled pair/coupled cluster methods
   Ingolf Harden          : AUTO-CI MPn and infrastructure 
   Benjamin Helmich-Paris : MC-RPA, TRAH-(SCF,CASSCF), AVAS, COSX integrals, SCF dyn. polar.
   Lee Huntington         : MR-EOM, pCC
   Robert Izsak           : Overlap fitted RIJCOSX, COSX-SCS-MP3, EOM
   Riya Kayal             : Wick's Theorem for AUTO-CI, AUTO-CI UHF-CCSDT
   Emily Kempfer          : AUTO-CI, RHF CISDT and CCSDT
   Christian Kollmar      : KDIIS, OOCD, Brueckner-CCSD(T), CCSD density, CASPT2, CASPT2-K, improved NEVPT2
   Axel Koslowski         : Symmetry handling
   Simone Kossmann        : Meta GGA functionals, TD-DFT gradient, OOMP2, (MP2 Hessian; deprecated post 5.0)
   Lucas Lang             : DCDCAS
   Marvin Lechner         : AUTO-CI (C++ implementation), FIC-MRCC
   Spencer Leger          : CASSCF response
   Dagmar Lenk            : GEPOL surface, SMD, ORCA-2-JSON
   Dimitrios Liakos       : Extrapolation schemes; Compound Job, initial MDCI parallelization
   Dimitrios Manganas     : Further ROCIS development; embedding schemes. LFT, Crystal Embedding
   Dimitrios Pantazis     : SARC Basis sets
   Anastasios Papadopoulos: AUTO-CI, single reference methods and gradients
   Taras Petrenko         : pre 6.0 DFT Hessian and TD-DFT gradient, (ASA, deprecated), ECA, 1-Electron XAS/XES, NRVS
   Peter Pinski           : DLPNO-MP2, DLPNO-MP2 Gradient
   Christoph Reimann      : Effective Core Potentials
   Marius Retegan         : Local ZFS, SOC
   Christoph Riplinger    : Optimizer, TS searches, QM/MM, DLPNO-CCSD(T), (RO)-DLPNO pert. Triples
   Michael Roemelt        : Original ROCIS implementation
   Masaaki Saitow         : Open-shell DLPNO-CCSD energy and density
   Barbara Sandhoefer     : DKH picture change effects
   Kantharuban Sivalingam : CASSCF convergence/infrastructure, NEVPT2 and variants, FIC-MRCI
   Bernardo de Souza      : ESD, SOC TD-DFT
   Georgi Stoychev        : AutoAux, RI-MP2 NMR, DLPNO-MP2 response, X2C
   Van Anh Tran           : RI-MP2 g-tensors
   Willem Van den Heuvel  : Paramagnetic NMR
   Zikuan Wang            : NOTCH, Electric field optimization 
   Frank Wennmohs         : Technical directorship and infrastructure
   Hang Xu                : AUTO-CI-Response properties 


 We gratefully acknowledge several colleagues who have allowed us to
 interface, adapt or use parts of their codes:
   Stefan Grimme, W. Hujo, H. Kruse, P. Pracht,  : VdW corrections, initial TS optimization,
                  C. Bannwarth, S. Ehlert,         DFT functionals, gCP, sTDA/sTD-DF
                  L. Wittmann, M. Mueller
   Ed Valeev, F. Pavosevic, A. Kumar             : LibInt (2-el integral package), F12 methods
   Garnet Chan, S. Sharma, J. Yang, R. Olivares  : DMRG
   Ulf Ekstrom                                   : XCFun DFT Library
   Mihaly Kallay                                 : mrcc  (arbitrary order and MRCC methods)
   Frank Weinhold                                : gennbo (NPA and NBO analysis)
   Simon Mueller                                 : openCOSMO-RS
   Christopher J. Cramer and Donald G. Truhlar   : smd solvation model
   Lars Goerigk                                  : TD-DFT with DH, B97 family of functionals
   V. Asgeirsson, H. Jonsson                     : NEB implementation
   FAccTs GmbH                                   : IRC, NEB, NEB-TS, DLPNO-Multilevel, CI-OPT
                                                   MM, QMMM, 2- and 3-layer-ONIOM, Crystal-QMMM,
                                                   LR-CPCM, SF, NACMEs, symmetry and pop. for TD-DFT,
                                                   nearIR, NL-DFT gradient (VV10), updates on ESD,
                                                   ML-optimized integration grids, MBIS, APM,
                                                   GOAT, DOCKER, SOLVATOR, interface openCOSMO-RS
   S Lehtola, MJT Oliveira, MAL Marques          : LibXC Library
   Liviu Ungur et al                             : ANISO software


 Your calculation uses the libint2 library for the computation of 2-el integrals
 For citations please refer to: http://libint.valeyev.net

 Your ORCA version has been built with support for libXC version: 6.2.2
 For citations please refer to: https://libxc.gitlab.io

 This ORCA versions uses:
   CBLAS   interface :  Fast vector & matrix operations
   LAPACKE interface :  Fast linear algebra routines
   SCALAPACK package :  Parallel linear algebra routines
   Shared memory     :  Shared parallel matrices
   BLAS/LAPACK       :  OpenBLAS 0.3.27  USE64BITINT DYNAMIC_ARCH NO_AFFINITY Zen SINGLE_THREADED
        Core in use  :  Zen
   Copyright (c) 2011-2014, The OpenBLAS Project




                         Program Version 6.0.0  -   RELEASE  -


 With contributions from (in alphabetic order):
   Daniel Aravena         : Magnetic Suceptibility
   Michael Atanasov       : Ab Initio Ligand Field Theory (pilot matlab implementation)
   Alexander A. Auer      : GIAO ZORA, VPT2 properties, NMR spectrum
   Ute Becker             : All parallelization in ORCA, NUMFREQ, NUMCALC
   Giovanni Bistoni       : ED, misc. LED, open-shell LED, HFLD
   Martin Brehm           : Molecular dynamics
   Dmytro Bykov           : pre 5.0 version of the SCF Hessian
   Marcos Casanova-Páez   : Triplet and SCS-CIS(D). UHF-(DLPNO)-IP/EA/STEOM-CCSD. UHF-CVS-IP/STEOM-CCSD
   Vijay G. Chilkuri      : MRCI spin determinant printing, contributions to CSF-ICE
   Pauline Colinet        : FMM embedding
   Dipayan Datta          : RHF DLPNO-CCSD density
   Achintya Kumar Dutta   : EOM-CC, STEOM-CC
   Nicolas Foglia         : Exact transition moments, OPA infrastructure, MCD improvements
   Dmitry Ganyushin       : Spin-Orbit,Spin-Spin,Magnetic field MRCI
   Miquel Garcia          : C-PCM and meta-GGA Hessian, CCSD/C-PCM, Gaussian charge scheme
   Tiago L. C. Gouveia    : GS-ROHF, GS-ROCIS
   Yang Guo               : DLPNO-NEVPT2, F12-NEVPT2, CIM, IAO-localization
   Andreas Hansen         : Spin unrestricted coupled pair/coupled cluster methods
   Ingolf Harden          : AUTO-CI MPn and infrastructure 
   Benjamin Helmich-Paris : MC-RPA, TRAH-(SCF,CASSCF), AVAS, COSX integrals, SCF dyn. polar.
   Lee Huntington         : MR-EOM, pCC
   Robert Izsak           : Overlap fitted RIJCOSX, COSX-SCS-MP3, EOM
   Riya Kayal             : Wick's Theorem for AUTO-CI, AUTO-CI UHF-CCSDT
   Emily Kempfer          : AUTO-CI, RHF CISDT and CCSDT
   Christian Kollmar      : KDIIS, OOCD, Brueckner-CCSD(T), CCSD density, CASPT2, CASPT2-K, improved NEVPT2
   Axel Koslowski         : Symmetry handling
   Simone Kossmann        : Meta GGA functionals, TD-DFT gradient, OOMP2, (MP2 Hessian; deprecated post 5.0)
   Lucas Lang             : DCDCAS
   Marvin Lechner         : AUTO-CI (C++ implementation), FIC-MRCC
   Spencer Leger          : CASSCF response
   Dagmar Lenk            : GEPOL surface, SMD, ORCA-2-JSON
   Dimitrios Liakos       : Extrapolation schemes; Compound Job, initial MDCI parallelization
   Dimitrios Manganas     : Further ROCIS development; embedding schemes. LFT, Crystal Embedding
   Dimitrios Pantazis     : SARC Basis sets
   Anastasios Papadopoulos: AUTO-CI, single reference methods and gradients
   Taras Petrenko         : pre 6.0 DFT Hessian and TD-DFT gradient, (ASA, deprecated), ECA, 1-Electron XAS/XES, NRVS
   Peter Pinski           : DLPNO-MP2, DLPNO-MP2 Gradient
   Christoph Reimann      : Effective Core Potentials
   Marius Retegan         : Local ZFS, SOC
   Christoph Riplinger    : Optimizer, TS searches, QM/MM, DLPNO-CCSD(T), (RO)-DLPNO pert. Triples
   Michael Roemelt        : Original ROCIS implementation
   Masaaki Saitow         : Open-shell DLPNO-CCSD energy and density
   Barbara Sandhoefer     : DKH picture change effects
   Kantharuban Sivalingam : CASSCF convergence/infrastructure, NEVPT2 and variants, FIC-MRCI
   Bernardo de Souza      : ESD, SOC TD-DFT
   Georgi Stoychev        : AutoAux, RI-MP2 NMR, DLPNO-MP2 response, X2C
   Van Anh Tran           : RI-MP2 g-tensors
   Willem Van den Heuvel  : Paramagnetic NMR
   Zikuan Wang            : NOTCH, Electric field optimization 
   Frank Wennmohs         : Technical directorship and infrastructure
   Hang Xu                : AUTO-CI-Response properties 


 We gratefully acknowledge several colleagues who have allowed us to
 interface, adapt or use parts of their codes:
   Stefan Grimme, W. Hujo, H. Kruse, P. Pracht,  : VdW corrections, initial TS optimization,
                  C. Bannwarth, S. Ehlert,         DFT functionals, gCP, sTDA/sTD-DF
                  L. Wittmann, M. Mueller
   Ed Valeev, F. Pavosevic, A. Kumar             : LibInt (2-el integral package), F12 methods
   Garnet Chan, S. Sharma, J. Yang, R. Olivares  : DMRG
   Ulf Ekstrom                                   : XCFun DFT Library
   Mihaly Kallay                                 : mrcc  (arbitrary order and MRCC methods)
   Frank Weinhold                                : gennbo (NPA and NBO analysis)
   Simon Mueller                                 : openCOSMO-RS
   Christopher J. Cramer and Donald G. Truhlar   : smd solvation model
   Lars Goerigk                                  : TD-DFT with DH, B97 family of functionals
   V. Asgeirsson, H. Jonsson                     : NEB implementation
   FAccTs GmbH                                   : IRC, NEB, NEB-TS, DLPNO-Multilevel, CI-OPT
                                                   MM, QMMM, 2- and 3-layer-ONIOM, Crystal-QMMM,
                                                   LR-CPCM, SF, NACMEs, symmetry and pop. for TD-DFT,
                                                   nearIR, NL-DFT gradient (VV10), updates on ESD,
                                                   ML-optimized integration grids, MBIS, APM,
                                                   GOAT, DOCKER, SOLVATOR, interface openCOSMO-RS
   S Lehtola, MJT Oliveira, MAL Marques          : LibXC Library
   Liviu Ungur et al                             : ANISO software


 Your calculation uses the libint2 library for the computation of 2-el integrals
 For citations please refer to: http://libint.valeyev.net

 Your ORCA version has been built with support for libXC version: 6.2.2
 For citations please refer to: https://libxc.gitlab.io

 This ORCA versions uses:
   CBLAS   interface :  Fast vector & matrix operations
   LAPACKE interface :  Fast linear algebra routines
   SCALAPACK package :  Parallel linear algebra routines
   Shared memory     :  Shared parallel matrices
   BLAS/LAPACK       :  OpenBLAS 0.3.27  USE64BITINT DYNAMIC_ARCH NO_AFFINITY Zen SINGLE_THREADED
        Core in use  :  Zen
   Copyright (c) 2011-2014, The OpenBLAS Project


NOTE: MaxCore=3000 MB was set to SCF,MP2,MDCI,CIPSI,MRCI and CIS
      => If you want to overwrite this, your respective input block should be placed after the MaxCore statement
Your calculation utilizes the SMD solvation module
Please cite in your paper:
A.V. Marenich, C.J. Cramer, D.G. Truhlar J. Phys. Chem. B, 113, (2009), 6378 

Warning: RI is on but no J-basis has been assigned. Assigning Def2/J (nothing to worry about!)
NOTE: MaxCore=3000 MB was set to SCF,MP2,MDCI,CIPSI,MRCI and CIS
      => If you want to overwrite this, your respective input block should be placed after the MaxCore statement
Your calculation utilizes the SMD solvation module
Please cite in your paper:
A.V. Marenich, C.J. Cramer, D.G. Truhlar J. Phys. Chem. B, 113, (2009), 6378 

Warning: RI is on but no J-basis has been assigned. Assigning Def2/J (nothing to worry about!)
================================================================================

----- Orbital basis set information -----
Your calculation utilizes the basis: ma-def2-SVP
   F. Weigend and R. Ahlrichs, Phys. Chem. Chem. Phys. 7, 3297 (2005).
   J. Zheng, X. Xu and D. G. Truhlar, Theor. Chem. Acc. 128, 295 (2011).

----- AuxJ basis set information -----
Your calculation utilizes the auxiliary basis: def2/J
   F. Weigend, Phys. Chem. Chem. Phys. 8, 1057 (2006).

================================================================================

----- Orbital basis set information -----
Your calculation utilizes the basis: ma-def2-SVP
   F. Weigend and R. Ahlrichs, Phys. Chem. Chem. Phys. 7, 3297 (2005).
   J. Zheng, X. Xu and D. G. Truhlar, Theor. Chem. Acc. 128, 295 (2011).

----- AuxJ basis set information -----
Your calculation utilizes the auxiliary basis: def2/J
   F. Weigend, Phys. Chem. Chem. Phys. 8, 1057 (2006).

NOTE: MaxCore=3000 MB was set to SCF,MP2,MDCI,CIPSI,MRCI and CIS
      => If you want to overwrite this, your respective input block should be placed after the MaxCore statement
Your calculation utilizes the SMD solvation module
Please cite in your paper:
A.V. Marenich, C.J. Cramer, D.G. Truhlar J. Phys. Chem. B, 113, (2009), 6378 

Warning: RI is on but no J-basis has been assigned. Assigning Def2/J (nothing to worry about!)
================================================================================

----- Orbital basis set information -----
NOTE: MaxCore=3000 MB was set to SCF,MP2,MDCI,CIPSI,MRCI and CIS
      => If you want to overwrite this, your respective input block should be placed after the MaxCore statement
Your calculation utilizes the basis: ma-def2-SVP
   F. Weigend and R. Ahlrichs, Phys. Chem. Chem. Phys. 7, 3297 (2005).
   J. Zheng, X. Xu and D. G. Truhlar, Theor. Chem. Acc. 128, 295 (2011).

----- AuxJ basis set information -----
Your calculation utilizes the auxiliary basis: def2/J
   F. Weigend, Phys. Chem. Chem. Phys. 8, 1057 (2006).

Your calculation utilizes the SMD solvation module
Please cite in your paper:
A.V. Marenich, C.J. Cramer, D.G. Truhlar J. Phys. Chem. B, 113, (2009), 6378 

Warning: RI is on but no J-basis has been assigned. Assigning Def2/J (nothing to worry about!)
================================================================================

----- Orbital basis set information -----
Your calculation utilizes the basis: ma-def2-SVP
   F. Weigend and R. Ahlrichs, Phys. Chem. Chem. Phys. 7, 3297 (2005).
   J. Zheng, X. Xu and D. G. Truhlar, Theor. Chem. Acc. 128, 295 (2011).

----- AuxJ basis set information -----
Your calculation utilizes the auxiliary basis: def2/J
   F. Weigend, Phys. Chem. Chem. Phys. 8, 1057 (2006).



                                 *****************
                                 * O   R   C   A *
                                 *****************

                                            #,                                       
                                            ###                                      
                                            ####                                     
                                            #####                                    
                                            ######                                   
                                           ########,                                 
                                     ,,################,,,,,                         
                               ,,#################################,,                 
                          ,,##########################################,,             
                       ,#########################################, ''#####,          
                    ,#############################################,,   '####,        
                  ,##################################################,,,,####,       
                ,###########''''           ''''###############################       
              ,#####''   ,,,,##########,,,,          '''####'''          '####       
            ,##' ,,,,###########################,,,                        '##       
           ' ,,###''''                  '''############,,,                           
         ,,##''                                '''############,,,,        ,,,,,,###''
      ,#''                                            '''#######################'''  
     '                                                          ''''####''''         
             ,#######,   #######,   ,#######,      ##                                
            ,#'     '#,  ##    ##  ,#'     '#,    #''#        ,####,   ,####,        
            ##       ##  ##   ,#'  ##            #'  '#       #'       #'  '#        
            ##       ##  #######   ##           ,######,      #####,   #    #        
            '#,     ,#'  ##    ##  '#,     ,#' ,#      #,     #,   #   #,  ,#        
             '#######'   ##     ##  '#######'  #'      '#     '####' # '####'        



                #########################################################
                #                        -***-                          #
                #          Department of theory and spectroscopy        #
                #                                                       #
                #                      Frank Neese                      #
                #                                                       #
                #     Directorship, Architecture, Infrastructure        #
                #                    SHARK, DRIVERS                     #
                #        Core code/Algorithms in most modules           #
                #                                                       #
                #        Max Planck Institute fuer Kohlenforschung      #
                #                Kaiser Wilhelm Platz 1                 #
                #                 D-45470 Muelheim/Ruhr                 #
                #                      Germany                          #
                #                                                       #
                #                  All rights reserved                  #
                #                        -***-                          #
                #########################################################


                         Program Version 6.0.0  -   RELEASE  -


 With contributions from (in alphabetic order):
   Daniel Aravena         : Magnetic Suceptibility
   Michael Atanasov       : Ab Initio Ligand Field Theory (pilot matlab implementation)
   Alexander A. Auer      : GIAO ZORA, VPT2 properties, NMR spectrum
   Ute Becker             : All parallelization in ORCA, NUMFREQ, NUMCALC
   Giovanni Bistoni       : ED, misc. LED, open-shell LED, HFLD
   Martin Brehm           : Molecular dynamics
   Dmytro Bykov           : pre 5.0 version of the SCF Hessian
   Marcos Casanova-Páez   : Triplet and SCS-CIS(D). UHF-(DLPNO)-IP/EA/STEOM-CCSD. UHF-CVS-IP/STEOM-CCSD
   Vijay G. Chilkuri      : MRCI spin determinant printing, contributions to CSF-ICE
   Pauline Colinet        : FMM embedding
   Dipayan Datta          : RHF DLPNO-CCSD density
   Achintya Kumar Dutta   : EOM-CC, STEOM-CC
   Nicolas Foglia         : Exact transition moments, OPA infrastructure, MCD improvements
   Dmitry Ganyushin       : Spin-Orbit,Spin-Spin,Magnetic field MRCI
   Miquel Garcia          : C-PCM and meta-GGA Hessian, CCSD/C-PCM, Gaussian charge scheme
   Tiago L. C. Gouveia    : GS-ROHF, GS-ROCIS
   Yang Guo               : DLPNO-NEVPT2, F12-NEVPT2, CIM, IAO-localization
   Andreas Hansen         : Spin unrestricted coupled pair/coupled cluster methods
   Ingolf Harden          : AUTO-CI MPn and infrastructure 
   Benjamin Helmich-Paris : MC-RPA, TRAH-(SCF,CASSCF), AVAS, COSX integrals, SCF dyn. polar.
   Lee Huntington         : MR-EOM, pCC
   Robert Izsak           : Overlap fitted RIJCOSX, COSX-SCS-MP3, EOM
   Riya Kayal             : Wick's Theorem for AUTO-CI, AUTO-CI UHF-CCSDT
   Emily Kempfer          : AUTO-CI, RHF CISDT and CCSDT
   Christian Kollmar      : KDIIS, OOCD, Brueckner-CCSD(T), CCSD density, CASPT2, CASPT2-K, improved NEVPT2
   Axel Koslowski         : Symmetry handling
   Simone Kossmann        : Meta GGA functionals, TD-DFT gradient, OOMP2, (MP2 Hessian; deprecated post 5.0)
   Lucas Lang             : DCDCAS
   Marvin Lechner         : AUTO-CI (C++ implementation), FIC-MRCC
   Spencer Leger          : CASSCF response
   Dagmar Lenk            : GEPOL surface, SMD, ORCA-2-JSON
   Dimitrios Liakos       : Extrapolation schemes; Compound Job, initial MDCI parallelization
   Dimitrios Manganas     : Further ROCIS development; embedding schemes. LFT, Crystal Embedding
   Dimitrios Pantazis     : SARC Basis sets
   Anastasios Papadopoulos: AUTO-CI, single reference methods and gradients
   Taras Petrenko         : pre 6.0 DFT Hessian and TD-DFT gradient, (ASA, deprecated), ECA, 1-Electron XAS/XES, NRVS
   Peter Pinski           : DLPNO-MP2, DLPNO-MP2 Gradient
   Christoph Reimann      : Effective Core Potentials
   Marius Retegan         : Local ZFS, SOC
   Christoph Riplinger    : Optimizer, TS searches, QM/MM, DLPNO-CCSD(T), (RO)-DLPNO pert. Triples
   Michael Roemelt        : Original ROCIS implementation
   Masaaki Saitow         : Open-shell DLPNO-CCSD energy and density
   Barbara Sandhoefer     : DKH picture change effects
   Kantharuban Sivalingam : CASSCF convergence/infrastructure, NEVPT2 and variants, FIC-MRCI
   Bernardo de Souza      : ESD, SOC TD-DFT
   Georgi Stoychev        : AutoAux, RI-MP2 NMR, DLPNO-MP2 response, X2C
   Van Anh Tran           : RI-MP2 g-tensors
   Willem Van den Heuvel  : Paramagnetic NMR
   Zikuan Wang            : NOTCH, Electric field optimization 
   Frank Wennmohs         : Technical directorship and infrastructure
   Hang Xu                : AUTO-CI-Response properties 


 We gratefully acknowledge several colleagues who have allowed us to
 interface, adapt or use parts of their codes:
   Stefan Grimme, W. Hujo, H. Kruse, P. Pracht,  : VdW corrections, initial TS optimization,
                  C. Bannwarth, S. Ehlert,         DFT functionals, gCP, sTDA/sTD-DF
                  L. Wittmann, M. Mueller
   Ed Valeev, F. Pavosevic, A. Kumar             : LibInt (2-el integral package), F12 methods
   Garnet Chan, S. Sharma, J. Yang, R. Olivares  : DMRG
   Ulf Ekstrom                                   : XCFun DFT Library
   Mihaly Kallay                                 : mrcc  (arbitrary order and MRCC methods)
   Frank Weinhold                                : gennbo (NPA and NBO analysis)
   Simon Mueller                                 : openCOSMO-RS
   Christopher J. Cramer and Donald G. Truhlar   : smd solvation model
   Lars Goerigk                                  : TD-DFT with DH, B97 family of functionals
   V. Asgeirsson, H. Jonsson                     : NEB implementation
   FAccTs GmbH                                   : IRC, NEB, NEB-TS, DLPNO-Multilevel, CI-OPT
                                                   MM, QMMM, 2- and 3-layer-ONIOM, Crystal-QMMM,
                                                   LR-CPCM, SF, NACMEs, symmetry and pop. for TD-DFT,
                                                   nearIR, NL-DFT gradient (VV10), updates on ESD,
                                                   ML-optimized integration grids, MBIS, APM,
                                                   GOAT, DOCKER, SOLVATOR, interface openCOSMO-RS
   S Lehtola, MJT Oliveira, MAL Marques          : LibXC Library
   Liviu Ungur et al                             : ANISO software


 Your calculation uses the libint2 library for the computation of 2-el integrals
 For citations please refer to: http://libint.valeyev.net

 Your ORCA version has been built with support for libXC version: 6.2.2
 For citations please refer to: https://libxc.gitlab.io

 This ORCA versions uses:
   CBLAS   interface :  Fast vector & matrix operations
   LAPACKE interface :  Fast linear algebra routines
   SCALAPACK package :  Parallel linear algebra routines
   Shared memory     :  Shared parallel matrices
   BLAS/LAPACK       :  OpenBLAS 0.3.27  USE64BITINT DYNAMIC_ARCH NO_AFFINITY Zen SINGLE_THREADED
        Core in use  :  Zen
   Copyright (c) 2011-2014, The OpenBLAS Project


                                 *****************
                                 * O   R   C   A *
                                 *****************

                                            #,                                       
                                            ###                                      
                                            ####                                     
                                            #####                                    
                                            ######                                   
                                           ########,                                 
                                     ,,################,,,,,                         
                               ,,#################################,,                 
                          ,,##########################################,,             
                       ,#########################################, ''#####,          
                    ,#############################################,,   '####,        
                  ,##################################################,,,,####,       
                ,###########''''           ''''###############################       
              ,#####''   ,,,,##########,,,,          '''####'''          '####       
            ,##' ,,,,###########################,,,                        '##       
           ' ,,###''''                  '''############,,,                           
         ,,##''                                '''############,,,,        ,,,,,,###''
      ,#''                                            '''#######################'''  
     '                                                          ''''####''''         
             ,#######,   #######,   ,#######,      ##                                
            ,#'     '#,  ##    ##  ,#'     '#,    #''#        ,####,   ,####,        
            ##       ##  ##   ,#'  ##            #'  '#       #'       #'  '#        
            ##       ##  #######   ##           ,######,      #####,   #    #        
            '#,     ,#'  ##    ##  '#,     ,#' ,#      #,     #,   #   #,  ,#        
             '#######'   ##     ##  '#######'  #'      '#     '####' # '####'        



                #########################################################
                #                        -***-                          #
                #          Department of theory and spectroscopy        #
                #                                                       #
                #                      Frank Neese                      #
                #                                                       #
                #     Directorship, Architecture, Infrastructure        #
                #                    SHARK, DRIVERS                     #
                #        Core code/Algorithms in most modules           #
                #                                                       #
                #        Max Planck Institute fuer Kohlenforschung      #
                #                Kaiser Wilhelm Platz 1                 #
                #                 D-45470 Muelheim/Ruhr                 #
                #                      Germany                          #
                #                                                       #
                #                  All rights reserved                  #
                #                        -***-                          #
                #########################################################


                         Program Version 6.0.0  -   RELEASE  -


 With contributions from (in alphabetic order):
   Daniel Aravena         : Magnetic Suceptibility
   Michael Atanasov       : Ab Initio Ligand Field Theory (pilot matlab implementation)
   Alexander A. Auer      : GIAO ZORA, VPT2 properties, NMR spectrum
   Ute Becker             : All parallelization in ORCA, NUMFREQ, NUMCALC
   Giovanni Bistoni       : ED, misc. LED, open-shell LED, HFLD
   Martin Brehm           : Molecular dynamics
   Dmytro Bykov           : pre 5.0 version of the SCF Hessian
   Marcos Casanova-Páez   : Triplet and SCS-CIS(D). UHF-(DLPNO)-IP/EA/STEOM-CCSD. UHF-CVS-IP/STEOM-CCSD
   Vijay G. Chilkuri      : MRCI spin determinant printing, contributions to CSF-ICE
   Pauline Colinet        : FMM embedding
   Dipayan Datta          : RHF DLPNO-CCSD density
   Achintya Kumar Dutta   : EOM-CC, STEOM-CC
   Nicolas Foglia         : Exact transition moments, OPA infrastructure, MCD improvements
   Dmitry Ganyushin       : Spin-Orbit,Spin-Spin,Magnetic field MRCI
   Miquel Garcia          : C-PCM and meta-GGA Hessian, CCSD/C-PCM, Gaussian charge scheme
   Tiago L. C. Gouveia    : GS-ROHF, GS-ROCIS
   Yang Guo               : DLPNO-NEVPT2, F12-NEVPT2, CIM, IAO-localization
   Andreas Hansen         : Spin unrestricted coupled pair/coupled cluster methods
   Ingolf Harden          : AUTO-CI MPn and infrastructure 
   Benjamin Helmich-Paris : MC-RPA, TRAH-(SCF,CASSCF), AVAS, COSX integrals, SCF dyn. polar.
   Lee Huntington         : MR-EOM, pCC
   Robert Izsak           : Overlap fitted RIJCOSX, COSX-SCS-MP3, EOM
   Riya Kayal             : Wick's Theorem for AUTO-CI, AUTO-CI UHF-CCSDT
   Emily Kempfer          : AUTO-CI, RHF CISDT and CCSDT
   Christian Kollmar      : KDIIS, OOCD, Brueckner-CCSD(T), CCSD density, CASPT2, CASPT2-K, improved NEVPT2
   Axel Koslowski         : Symmetry handling
   Simone Kossmann        : Meta GGA functionals, TD-DFT gradient, OOMP2, (MP2 Hessian; deprecated post 5.0)
   Lucas Lang             : DCDCAS
   Marvin Lechner         : AUTO-CI (C++ implementation), FIC-MRCC
   Spencer Leger          : CASSCF response
   Dagmar Lenk            : GEPOL surface, SMD, ORCA-2-JSON
   Dimitrios Liakos       : Extrapolation schemes; Compound Job, initial MDCI parallelization
   Dimitrios Manganas     : Further ROCIS development; embedding schemes. LFT, Crystal Embedding
   Dimitrios Pantazis     : SARC Basis sets
   Anastasios Papadopoulos: AUTO-CI, single reference methods and gradients
   Taras Petrenko         : pre 6.0 DFT Hessian and TD-DFT gradient, (ASA, deprecated), ECA, 1-Electron XAS/XES, NRVS
   Peter Pinski           : DLPNO-MP2, DLPNO-MP2 Gradient
   Christoph Reimann      : Effective Core Potentials
   Marius Retegan         : Local ZFS, SOC
   Christoph Riplinger    : Optimizer, TS searches, QM/MM, DLPNO-CCSD(T), (RO)-DLPNO pert. Triples
   Michael Roemelt        : Original ROCIS implementation
   Masaaki Saitow         : Open-shell DLPNO-CCSD energy and density
   Barbara Sandhoefer     : DKH picture change effects
   Kantharuban Sivalingam : CASSCF convergence/infrastructure, NEVPT2 and variants, FIC-MRCI
   Bernardo de Souza      : ESD, SOC TD-DFT
   Georgi Stoychev        : AutoAux, RI-MP2 NMR, DLPNO-MP2 response, X2C
   Van Anh Tran           : RI-MP2 g-tensors
   Willem Van den Heuvel  : Paramagnetic NMR
   Zikuan Wang            : NOTCH, Electric field optimization 
   Frank Wennmohs         : Technical directorship and infrastructure
   Hang Xu                : AUTO-CI-Response properties 


 We gratefully acknowledge several colleagues who have allowed us to
 interface, adapt or use parts of their codes:
   Stefan Grimme, W. Hujo, H. Kruse, P. Pracht,  : VdW corrections, initial TS optimization,
                  C. Bannwarth, S. Ehlert,         DFT functionals, gCP, sTDA/sTD-DF
                  L. Wittmann, M. Mueller
   Ed Valeev, F. Pavosevic, A. Kumar             : LibInt (2-el integral package), F12 methods
   Garnet Chan, S. Sharma, J. Yang, R. Olivares  : DMRG
   Ulf Ekstrom                                   : XCFun DFT Library
   Mihaly Kallay                                 : mrcc  (arbitrary order and MRCC methods)
   Frank Weinhold                                : gennbo (NPA and NBO analysis)
   Simon Mueller                                 : openCOSMO-RS
   Christopher J. Cramer and Donald G. Truhlar   : smd solvation model
NOTE: MaxCore=3000 MB was set to SCF,MP2,MDCI,CIPSI,MRCI and CIS
      => If you want to overwrite this, your respective input block should be placed after the MaxCore statement
   Lars Goerigk                                  : TD-DFT with DH, B97 family of functionals
   V. Asgeirsson, H. Jonsson                     : NEB implementation
   FAccTs GmbH                                   : IRC, NEB, NEB-TS, DLPNO-Multilevel, CI-OPT
                                                   MM, QMMM, 2- and 3-layer-ONIOM, Crystal-QMMM,
                                                   LR-CPCM, SF, NACMEs, symmetry and pop. for TD-DFT,
                                                   nearIR, NL-DFT gradient (VV10), updates on ESD,
                                                   ML-optimized integration grids, MBIS, APM,
                                                   GOAT, DOCKER, SOLVATOR, interface openCOSMO-RS
   S Lehtola, MJT Oliveira, MAL Marques          : LibXC Library
   Liviu Ungur et al                             : ANISO software


 Your calculation uses the libint2 library for the computation of 2-el integrals
 For citations please refer to: http://libint.valeyev.net

 Your ORCA version has been built with support for libXC version: 6.2.2
 For citations please refer to: https://libxc.gitlab.io

 This ORCA versions uses:
   CBLAS   interface :  Fast vector & matrix operations
   LAPACKE interface :  Fast linear algebra routines
   SCALAPACK package :  Parallel linear algebra routines
   Shared memory     :  Shared parallel matrices
   BLAS/LAPACK       :  OpenBLAS 0.3.27  USE64BITINT DYNAMIC_ARCH NO_AFFINITY Zen SINGLE_THREADED
        Core in use  :  Zen
   Copyright (c) 2011-2014, The OpenBLAS Project


NOTE: MaxCore=3000 MB was set to SCF,MP2,MDCI,CIPSI,MRCI and CIS
      => If you want to overwrite this, your respective input block should be placed after the MaxCore statement
Your calculation utilizes the SMD solvation module
Please cite in your paper:
A.V. Marenich, C.J. Cramer, D.G. Truhlar J. Phys. Chem. B, 113, (2009), 6378 

Warning: RI is on but no J-basis has been assigned. Assigning Def2/J (nothing to worry about!)
Your calculation utilizes the SMD solvation module
Please cite in your paper:
A.V. Marenich, C.J. Cramer, D.G. Truhlar J. Phys. Chem. B, 113, (2009), 6378 

Warning: RI is on but no J-basis has been assigned. Assigning Def2/J (nothing to worry about!)
================================================================================
                                        WARNINGS
                       Please study these warnings very carefully!
================================================================================

================================================================================
================================================================================

NOTE: MaxCore=3000 MB was set to SCF,MP2,MDCI,CIPSI,MRCI and CIS
      => If you want to overwrite this, your respective input block should be placed after the MaxCore statement

WARNING: Geometry Optimization
  ===> : Switching off AutoStart
         For restart on a previous wavefunction, please use MOREAD

================================================================================
                                        WARNINGS
                       Please study these warnings very carefully!
================================================================================

----- Orbital basis set information -----
Your calculation utilizes the basis: ma-def2-SVP
   F. Weigend and R. Ahlrichs, Phys. Chem. Chem. Phys. 7, 3297 (2005).
   J. Zheng, X. Xu and D. G. Truhlar, Theor. Chem. Acc. 128, 295 (2011).

----- AuxJ basis set information -----
Your calculation utilizes the auxiliary basis: def2/J
   F. Weigend, Phys. Chem. Chem. Phys. 8, 1057 (2006).


----- Orbital basis set information -----
Your calculation utilizes the basis: ma-def2-SVP
   F. Weigend and R. Ahlrichs, Phys. Chem. Chem. Phys. 7, 3297 (2005).
   J. Zheng, X. Xu and D. G. Truhlar, Theor. Chem. Acc. 128, 295 (2011).

----- AuxJ basis set information -----
Your calculation utilizes the auxiliary basis: def2/J
   F. Weigend, Phys. Chem. Chem. Phys. 8, 1057 (2006).

Your calculation utilizes the SMD solvation module
Please cite in your paper:
A.V. Marenich, C.J. Cramer, D.G. Truhlar J. Phys. Chem. B, 113, (2009), 6378 

Warning: RI is on but no J-basis has been assigned. Assigning Def2/J (nothing to worry about!)
================================================================================

----- Orbital basis set information -----
Your calculation utilizes the basis: ma-def2-SVP
   F. Weigend and R. Ahlrichs, Phys. Chem. Chem. Phys. 7, 3297 (2005).
   J. Zheng, X. Xu and D. G. Truhlar, Theor. Chem. Acc. 128, 295 (2011).

----- AuxJ basis set information -----
Your calculation utilizes the auxiliary basis: def2/J
   F. Weigend, Phys. Chem. Chem. Phys. 8, 1057 (2006).


WARNING: Geometry Optimization
  ===> : Switching off AutoStart
         For restart on a previous wavefunction, please use MOREAD

NOTE: MaxCore=3000 MB was set to SCF,MP2,MDCI,CIPSI,MRCI and CIS
NOTE: MaxCore=3000 MB was set to SCF,MP2,MDCI,CIPSI,MRCI and CIS
      => If you want to overwrite this, your respective input block should be placed after the MaxCore statement
      => If you want to overwrite this, your respective input block should be placed after the MaxCore statement
Your calculation utilizes the SMD solvation module
================================================================================
                                       INPUT FILE
================================================================================
NAME = job.inp
Your calculation utilizes the SMD solvation module
Please cite in your paper:
A.V. Marenich, C.J. Cramer, D.G. Truhlar J. Phys. Chem. B, 113, (2009), 6378 

|  1> !pbe ma-def2-SVP opt SMD(Acetonitrile)  Freq
|  2> %maxcore 3000
Warning: RI is on but no J-basis has been assigned. Assigning Def2/J (nothing to worry about!)
|  3> %pal
|  4> nprocs 4
|  5> end
|  6> # MECP_BC
|  7> 
|  8> *xyz 0 1
|  9> C        -1.56001723      -4.54084206       0.33483586 
| 10> C        -1.15472662      -5.30192614      -0.94484133 
| 11> O        -1.21190703      -3.16530776       0.21005765 
| 12> C        -0.84581232      -5.15522957       1.55674505 
| 13> C        -3.08250046      -4.59438992       0.52462274 
| 14> H        -0.19244631      -3.08466673       0.08542375 
| 15> H         0.25343934      -5.07162809       1.43574476 
| 16> H        -1.10638165      -6.22618961       1.69184899 
| 17> H        -1.13207626      -4.60963583       2.47924209 
| 18> H        -3.59481740      -4.13308239      -0.34448445 
| 19> H        -3.37627649      -4.03108358       1.43426251 
| 20> H        -3.44427633      -5.63752937       0.62969470 
| 21> H        -1.67129517      -4.86795044      -1.82545018 
| 22> H        -1.41460979      -6.37960005      -0.88387585 
| 23> H        -0.06150458      -5.21186495      -1.10904062 
| 24> *
| 25> 
| 26>                          ****END OF INPUT****
================================================================================
Please cite in your paper:
A.V. Marenich, C.J. Cramer, D.G. Truhlar J. Phys. Chem. B, 113, (2009), 6378 

================================================================================

----- Orbital basis set information -----
Your calculation utilizes the basis: ma-def2-SVP
   F. Weigend and R. Ahlrichs, Phys. Chem. Chem. Phys. 7, 3297 (2005).
   J. Zheng, X. Xu and D. G. Truhlar, Theor. Chem. Acc. 128, 295 (2011).

----- AuxJ basis set information -----
Your calculation utilizes the auxiliary basis: def2/J
   F. Weigend, Phys. Chem. Chem. Phys. 8, 1057 (2006).

Warning: RI is on but no J-basis has been assigned. Assigning Def2/J (nothing to worry about!)
================================================================================
                                       INPUT FILE
================================================================================
NAME = job.inp
|  1> !pbe ma-def2-SVP opt SMD(Acetonitrile)  Freq
|  2> %maxcore 3000
|  3> %pal
|  4> nprocs 4
|  5> end
|  6> # MECP_BC
|  7> 
|  8> *xyz 0 1
|  9> C        -1.56001723      -4.54084206       0.33483586 
| 10> C        -1.15472662      -5.30192614      -0.94484133 
| 11> O        -1.21190703      -3.16530776       0.21005765 
| 12> C        -0.84581232      -5.15522957       1.55674505 
| 13> C        -3.08250046      -4.59438992       0.52462274 
| 14> H        -0.19244631      -3.08466673       0.08542375 
================================================================================

| 15> H         0.25343934      -5.07162809       1.43574476 
----- Orbital basis set information -----
Your calculation utilizes the basis: ma-def2-SVP
   F. Weigend and R. Ahlrichs, Phys. Chem. Chem. Phys. 7, 3297 (2005).
   J. Zheng, X. Xu and D. G. Truhlar, Theor. Chem. Acc. 128, 295 (2011).

----- AuxJ basis set information -----
Your calculation utilizes the auxiliary basis: def2/J
   F. Weigend, Phys. Chem. Chem. Phys. 8, 1057 (2006).

| 16> H        -1.10638165      -6.22618961       1.69184899 
| 17> H        -1.13207626      -4.60963583       2.47924209 
| 18> H        -3.59481740      -4.13308239      -0.34448445 
| 19> H        -3.37627649      -4.03108358       1.43426251 
| 20> H        -3.44427633      -5.63752937       0.62969470 
| 21> H        -1.67129517      -4.86795044      -1.82545018 
| 22> H        -1.41460979      -6.37960005      -0.88387585 
| 23> H        -0.06150458      -5.21186495      -1.10904062 
| 24> *
| 25> 
| 26>                          ****END OF INPUT****
================================================================================

                                 *****************
                                 * O   R   C   A *
                                 *****************

                                            #,                                       
                                            ###                                      
                                            ####                                     
                                            #####                                    
                                            ######                                   
                                           ########,                                 
                                     ,,################,,,,,                         
                               ,,#################################,,                 
                          ,,##########################################,,             
                       ,#########################################, ''#####,          
                    ,#############################################,,   '####,        
                  ,##################################################,,,,####,       
                ,###########''''           ''''###############################       
              ,#####''   ,,,,##########,,,,          '''####'''          '####       
            ,##' ,,,,###########################,,,                        '##       
           ' ,,###''''                  '''############,,,                           
         ,,##''                                '''############,,,,        ,,,,,,###''
      ,#''                                            '''#######################'''  
     '                                                          ''''####''''         
             ,#######,   #######,   ,#######,      ##                                
            ,#'     '#,  ##    ##  ,#'     '#,    #''#        ,####,   ,####,        
            ##       ##  ##   ,#'  ##            #'  '#       #'       #'  '#        
            ##       ##  #######   ##           ,######,      #####,   #    #        
            '#,     ,#'  ##    ##  '#,     ,#' ,#      #,     #,   #   #,  ,#        
             '#######'   ##     ##  '#######'  #'      '#     '####' # '####'        



                #########################################################
                #                        -***-                          #
                #          Department of theory and spectroscopy        #
                #                                                       #
                #                      Frank Neese                      #
                #                                                       #
                #     Directorship, Architecture, Infrastructure        #
                #                    SHARK, DRIVERS                     #
                #        Core code/Algorithms in most modules           #
                #                                                       #
                #        Max Planck Institute fuer Kohlenforschung      #
                #                Kaiser Wilhelm Platz 1                 #
                #                 D-45470 Muelheim/Ruhr                 #
                #                      Germany                          #
                #                                                       #
                #                  All rights reserved                  #
                #                        -***-                          #
                #########################################################


                         Program Version 6.0.0  -   RELEASE  -


 With contributions from (in alphabetic order):
   Daniel Aravena         : Magnetic Suceptibility
   Michael Atanasov       : Ab Initio Ligand Field Theory (pilot matlab implementation)
   Alexander A. Auer      : GIAO ZORA, VPT2 properties, NMR spectrum
   Ute Becker             : All parallelization in ORCA, NUMFREQ, NUMCALC

                       *****************************
                       * Geometry Optimization Run *
                       *****************************

Geometry optimization settings:
Update method            Update   .... BFGS
Choice of coordinates    CoordSys .... (2022) Redundant Internals
Initial Hessian          InHess   .... Almloef's Model
Max. no of cycles        MaxIter  .... 50

Convergence Tolerances:
Energy Change            TolE     ....  5.0000e-06 Eh
Max. Gradient            TolMAXG  ....  3.0000e-04 Eh/bohr
RMS Gradient             TolRMSG  ....  1.0000e-04 Eh/bohr
Max. Displacement        TolMAXD  ....  4.0000e-03 bohr
RMS Displacement         TolRMSD  ....  2.0000e-03 bohr
Strict Convergence                .... False

[file orca_main/main_driver_opt1.cpp, line 1412]: Cannot read GBW-INFO


                                 *****************
                                 * O   R   C   A *
                                 *****************

                                            #,                                       
                                            ###                                      
                                            ####                                     
                                            #####                                    
                                            ######                                   
                                           ########,                                 
                                     ,,################,,,,,                         
                               ,,#################################,,                 
                          ,,##########################################,,             
                       ,#########################################, ''#####,          
                    ,#############################################,,   '####,        
                  ,##################################################,,,,####,       
                ,###########''''           ''''###############################       
              ,#####''   ,,,,##########,,,,          '''####'''          '####       
            ,##' ,,,,###########################,,,                        '##       
           ' ,,###''''                  '''############,,,                           
         ,,##''                                '''############,,,,        ,,,,,,###''
      ,#''                                            '''#######################'''  
     '                                                          ''''####''''         
             ,#######,   #######,   ,#######,      ##                                
            ,#'     '#,  ##    ##  ,#'     '#,    #''#        ,####,   ,####,        
            ##       ##  ##   ,#'  ##            #'  '#       #'       #'  '#        
            ##       ##  #######   ##           ,######,      #####,   #    #        
            '#,     ,#'  ##    ##  '#,     ,#' ,#      #,     #,   #   #,  ,#        
             '#######'   ##     ##  '#######'  #'      '#     '####' # '####'        



                #########################################################
                #                        -***-                          #
                #          Department of theory and spectroscopy        #
                #                                                       #
                #                      Frank Neese                      #
                #                                                       #
                #     Directorship, Architecture, Infrastructure        #
                #                    SHARK, DRIVERS                     #
                #        Core code/Algorithms in most modules           #
                #                                                       #
                #        Max Planck Institute fuer Kohlenforschung      #
                #                Kaiser Wilhelm Platz 1                 #
                #                 D-45470 Muelheim/Ruhr                 #
                #                      Germany                          #
                #                                                       #
                #                  All rights reserved                  #
                #                        -***-                          #
                #########################################################


                         Program Version 6.0.0  -   RELEASE  -


 With contributions from (in alphabetic order):
   Daniel Aravena         : Magnetic Suceptibility
   Michael Atanasov       : Ab Initio Ligand Field Theory (pilot matlab implementation)
   Alexander A. Auer      : GIAO ZORA, VPT2 properties, NMR spectrum
   Ute Becker             : All parallelization in ORCA, NUMFREQ, NUMCALC

                       *****************************
                       * Geometry Optimization Run *
                       *****************************

Geometry optimization settings:
Update method            Update   .... BFGS
Choice of coordinates    CoordSys .... (2022) Redundant Internals
Initial Hessian          InHess   .... Almloef's Model
Max. no of cycles        MaxIter  .... 50

Convergence Tolerances:
Energy Change            TolE     ....  5.0000e-06 Eh
Max. Gradient            TolMAXG  ....  3.0000e-04 Eh/bohr
RMS Gradient             TolRMSG  ....  1.0000e-04 Eh/bohr
Max. Displacement        TolMAXD  ....  4.0000e-03 bohr
RMS Displacement         TolRMSD  ....  2.0000e-03 bohr
Strict Convergence                .... False


                                 *****************
                                 * O   R   C   A *
                                 *****************

                                            #,                                       
                                            ###                                      
                                            ####                                     
                                            #####                                    
                                            ######                                   
                                           ########,                                 
                                     ,,################,,,,,                         
                               ,,#################################,,                 
                          ,,##########################################,,             
                       ,#########################################, ''#####,          
                    ,#############################################,,   '####,        
                  ,##################################################,,,,####,       
                ,###########''''           ''''###############################       
              ,#####''   ,,,,##########,,,,          '''####'''          '####       
            ,##' ,,,,###########################,,,                        '##       
           ' ,,###''''                  '''############,,,                           
         ,,##''                                '''############,,,,        ,,,,,,###''
      ,#''                                            '''#######################'''  
     '                                                          ''''####''''         
             ,#######,   #######,   ,#######,      ##                                
            ,#'     '#,  ##    ##  ,#'     '#,    #''#        ,####,   ,####,        
            ##       ##  ##   ,#'  ##            #'  '#       #'       #'  '#        
            ##       ##  #######   ##           ,######,      #####,   #    #        
            '#,     ,#'  ##    ##  '#,     ,#' ,#      #,     #,   #   #,  ,#        
             '#######'   ##     ##  '#######'  #'      '#     '####' # '####'        



                #########################################################
                #                        -***-                          #
                #          Department of theory and spectroscopy        #
                #                                                       #
                #                      Frank Neese                      #
                #                                                       #
                #     Directorship, Architecture, Infrastructure        #
                #                    SHARK, DRIVERS                     #
                #        Core code/Algorithms in most modules           #
                #                                                       #
                #        Max Planck Institute fuer Kohlenforschung      #
                #                Kaiser Wilhelm Platz 1                 #
                #                 D-45470 Muelheim/Ruhr                 #
                #                      Germany                          #
                #                                                       #
                #                  All rights reserved                  #
                #                        -***-                          #
                #########################################################


                         Program Version 6.0.0  -   RELEASE  -


 With contributions from (in alphabetic order):
   Daniel Aravena         : Magnetic Suceptibility
   Michael Atanasov       : Ab Initio Ligand Field Theory (pilot matlab implementation)
   Alexander A. Auer      : GIAO ZORA, VPT2 properties, NMR spectrum
   Ute Becker             : All parallelization in ORCA, NUMFREQ, NUMCALC

                                 *****************
                                 * O   R   C   A *
                                 *****************

                                            #,                                       
                                            ###                                      
                                            ####                                     
                                            #####                                    
                                            ######                                   
                                           ########,                                 
                                     ,,################,,,,,                         
                               ,,#################################,,                 
                          ,,##########################################,,             
                       ,#########################################, ''#####,          
                    ,#############################################,,   '####,        
                  ,##################################################,,,,####,       
                ,###########''''           ''''###############################       
              ,#####''   ,,,,##########,,,,          '''####'''          '####       
            ,##' ,,,,###########################,,,                        '##       
           ' ,,###''''                  '''############,,,                           
         ,,##''                                '''############,,,,        ,,,,,,###''
      ,#''                                            '''#######################'''  
     '                                                          ''''####''''         
             ,#######,   #######,   ,#######,      ##                                
            ,#'     '#,  ##    ##  ,#'     '#,    #''#        ,####,   ,####,        
            ##       ##  ##   ,#'  ##            #'  '#       #'       #'  '#        
            ##       ##  #######   ##           ,######,      #####,   #    #        
            '#,     ,#'  ##    ##  '#,     ,#' ,#      #,     #,   #   #,  ,#        
             '#######'   ##     ##  '#######'  #'      '#     '####' # '####'        



                #########################################################
                #                        -***-                          #
                #          Department of theory and spectroscopy        #
                #                                                       #
                #                      Frank Neese                      #
                #                                                       #
                #     Directorship, Architecture, Infrastructure        #
                #                    SHARK, DRIVERS                     #
                #        Core code/Algorithms in most modules           #
                #                                                       #
                #        Max Planck Institute fuer Kohlenforschung      #
                #                Kaiser Wilhelm Platz 1                 #
                #                 D-45470 Muelheim/Ruhr                 #
                #                      Germany                          #
                #                                                       #
                #                  All rights reserved                  #
                #                        -***-                          #
                #########################################################


                         Program Version 6.0.0  -   RELEASE  -


 With contributions from (in alphabetic order):
   Daniel Aravena         : Magnetic Suceptibility
   Michael Atanasov       : Ab Initio Ligand Field Theory (pilot matlab implementation)
   Alexander A. Auer      : GIAO ZORA, VPT2 properties, NMR spectrum
   Ute Becker             : All parallelization in ORCA, NUMFREQ, NUMCALC
   Giovanni Bistoni       : ED, misc. LED, open-shell LED, HFLD
   Martin Brehm           : Molecular dynamics
   Dmytro Bykov           : pre 5.0 version of the SCF Hessian
   Marcos Casanova-Páez   : Triplet and SCS-CIS(D). UHF-(DLPNO)-IP/EA/STEOM-CCSD. UHF-CVS-IP/STEOM-CCSD
   Vijay G. Chilkuri      : MRCI spin determinant printing, contributions to CSF-ICE
   Pauline Colinet        : FMM embedding
   Dipayan Datta          : RHF DLPNO-CCSD density
   Achintya Kumar Dutta   : EOM-CC, STEOM-CC
   Nicolas Foglia         : Exact transition moments, OPA infrastructure, MCD improvements
   Dmitry Ganyushin       : Spin-Orbit,Spin-Spin,Magnetic field MRCI
   Miquel Garcia          : C-PCM and meta-GGA Hessian, CCSD/C-PCM, Gaussian charge scheme
   Tiago L. C. Gouveia    : GS-ROHF, GS-ROCIS
   Yang Guo               : DLPNO-NEVPT2, F12-NEVPT2, CIM, IAO-localization
   Andreas Hansen         : Spin unrestricted coupled pair/coupled cluster methods
   Ingolf Harden          : AUTO-CI MPn and infrastructure 
   Benjamin Helmich-Paris : MC-RPA, TRAH-(SCF,CASSCF), AVAS, COSX integrals, SCF dyn. polar.
   Lee Huntington         : MR-EOM, pCC
   Robert Izsak           : Overlap fitted RIJCOSX, COSX-SCS-MP3, EOM
   Riya Kayal             : Wick's Theorem for AUTO-CI, AUTO-CI UHF-CCSDT
   Emily Kempfer          : AUTO-CI, RHF CISDT and CCSDT
   Christian Kollmar      : KDIIS, OOCD, Brueckner-CCSD(T), CCSD density, CASPT2, CASPT2-K, improved NEVPT2
   Axel Koslowski         : Symmetry handling
   Simone Kossmann        : Meta GGA functionals, TD-DFT gradient, OOMP2, (MP2 Hessian; deprecated post 5.0)
   Lucas Lang             : DCDCAS
   Marvin Lechner         : AUTO-CI (C++ implementation), FIC-MRCC
   Spencer Leger          : CASSCF response
   Dagmar Lenk            : GEPOL surface, SMD, ORCA-2-JSON
   Dimitrios Liakos       : Extrapolation schemes; Compound Job, initial MDCI parallelization
   Dimitrios Manganas     : Further ROCIS development; embedding schemes. LFT, Crystal Embedding
   Dimitrios Pantazis     : SARC Basis sets
   Anastasios Papadopoulos: AUTO-CI, single reference methods and gradients
   Taras Petrenko         : pre 6.0 DFT Hessian and TD-DFT gradient, (ASA, deprecated), ECA, 1-Electron XAS/XES, NRVS
   Peter Pinski           : DLPNO-MP2, DLPNO-MP2 Gradient
   Christoph Reimann      : Effective Core Potentials
   Marius Retegan         : Local ZFS, SOC
   Christoph Riplinger    : Optimizer, TS searches, QM/MM, DLPNO-CCSD(T), (RO)-DLPNO pert. Triples
   Michael Roemelt        : Original ROCIS implementation
   Masaaki Saitow         : Open-shell DLPNO-CCSD energy and density
   Barbara Sandhoefer     : DKH picture change effects
   Kantharuban Sivalingam : CASSCF convergence/infrastructure, NEVPT2 and variants, FIC-MRCI
   Bernardo de Souza      : ESD, SOC TD-DFT
   Georgi Stoychev        : AutoAux, RI-MP2 NMR, DLPNO-MP2 response, X2C
   Van Anh Tran           : RI-MP2 g-tensors
   Willem Van den Heuvel  : Paramagnetic NMR
   Zikuan Wang            : NOTCH, Electric field optimization 
   Frank Wennmohs         : Technical directorship and infrastructure
   Hang Xu                : AUTO-CI-Response properties 


 We gratefully acknowledge several colleagues who have allowed us to
 interface, adapt or use parts of their codes:
   Stefan Grimme, W. Hujo, H. Kruse, P. Pracht,  : VdW corrections, initial TS optimization,
                  C. Bannwarth, S. Ehlert,         DFT functionals, gCP, sTDA/sTD-DF
                  L. Wittmann, M. Mueller
   Ed Valeev, F. Pavosevic, A. Kumar             : LibInt (2-el integral package), F12 methods
   Garnet Chan, S. Sharma, J. Yang, R. Olivares  : DMRG
   Ulf Ekstrom                                   : XCFun DFT Library
   Mihaly Kallay                                 : mrcc  (arbitrary order and MRCC methods)
   Frank Weinhold                                : gennbo (NPA and NBO analysis)
   Simon Mueller                                 : openCOSMO-RS
   Christopher J. Cramer and Donald G. Truhlar   : smd solvation model
   Giovanni Bistoni       : ED, misc. LED, open-shell LED, HFLD
   Martin Brehm           : Molecular dynamics
   Dmytro Bykov           : pre 5.0 version of the SCF Hessian
   Marcos Casanova-Páez   : Triplet and SCS-CIS(D). UHF-(DLPNO)-IP/EA/STEOM-CCSD. UHF-CVS-IP/STEOM-CCSD
   Vijay G. Chilkuri      : MRCI spin determinant printing, contributions to CSF-ICE
   Pauline Colinet        : FMM embedding
   Dipayan Datta          : RHF DLPNO-CCSD density
   Achintya Kumar Dutta   : EOM-CC, STEOM-CC
   Nicolas Foglia         : Exact transition moments, OPA infrastructure, MCD improvements
   Dmitry Ganyushin       : Spin-Orbit,Spin-Spin,Magnetic field MRCI
   Miquel Garcia          : C-PCM and meta-GGA Hessian, CCSD/C-PCM, Gaussian charge scheme
   Tiago L. C. Gouveia    : GS-ROHF, GS-ROCIS
   Yang Guo               : DLPNO-NEVPT2, F12-NEVPT2, CIM, IAO-localization
   Andreas Hansen         : Spin unrestricted coupled pair/coupled cluster methods
   Ingolf Harden          : AUTO-CI MPn and infrastructure 
   Benjamin Helmich-Paris : MC-RPA, TRAH-(SCF,CASSCF), AVAS, COSX integrals, SCF dyn. polar.
   Lee Huntington         : MR-EOM, pCC
   Robert Izsak           : Overlap fitted RIJCOSX, COSX-SCS-MP3, EOM
   Riya Kayal             : Wick's Theorem for AUTO-CI, AUTO-CI UHF-CCSDT
   Emily Kempfer          : AUTO-CI, RHF CISDT and CCSDT
   Christian Kollmar      : KDIIS, OOCD, Brueckner-CCSD(T), CCSD density, CASPT2, CASPT2-K, improved NEVPT2
   Axel Koslowski         : Symmetry handling
   Simone Kossmann        : Meta GGA functionals, TD-DFT gradient, OOMP2, (MP2 Hessian; deprecated post 5.0)
   Lucas Lang             : DCDCAS
   Marvin Lechner         : AUTO-CI (C++ implementation), FIC-MRCC
   Spencer Leger          : CASSCF response
   Dagmar Lenk            : GEPOL surface, SMD, ORCA-2-JSON
   Dimitrios Liakos       : Extrapolation schemes; Compound Job, initial MDCI parallelization
   Dimitrios Manganas     : Further ROCIS development; embedding schemes. LFT, Crystal Embedding
   Dimitrios Pantazis     : SARC Basis sets
   Anastasios Papadopoulos: AUTO-CI, single reference methods and gradients
   Taras Petrenko         : pre 6.0 DFT Hessian and TD-DFT gradient, (ASA, deprecated), ECA, 1-Electron XAS/XES, NRVS
   Peter Pinski           : DLPNO-MP2, DLPNO-MP2 Gradient
   Christoph Reimann      : Effective Core Potentials
   Marius Retegan         : Local ZFS, SOC
   Christoph Riplinger    : Optimizer, TS searches, QM/MM, DLPNO-CCSD(T), (RO)-DLPNO pert. Triples
   Michael Roemelt        : Original ROCIS implementation
   Masaaki Saitow         : Open-shell DLPNO-CCSD energy and density
   Barbara Sandhoefer     : DKH picture change effects
   Kantharuban Sivalingam : CASSCF convergence/infrastructure, NEVPT2 and variants, FIC-MRCI
   Bernardo de Souza      : ESD, SOC TD-DFT
   Georgi Stoychev        : AutoAux, RI-MP2 NMR, DLPNO-MP2 response, X2C
   Van Anh Tran           : RI-MP2 g-tensors
   Willem Van den Heuvel  : Paramagnetic NMR
   Zikuan Wang            : NOTCH, Electric field optimization 
   Frank Wennmohs         : Technical directorship and infrastructure
   Hang Xu                : AUTO-CI-Response properties 


 We gratefully acknowledge several colleagues who have allowed us to
 interface, adapt or use parts of their codes:
   Stefan Grimme, W. Hujo, H. Kruse, P. Pracht,  : VdW corrections, initial TS optimization,
                  C. Bannwarth, S. Ehlert,         DFT functionals, gCP, sTDA/sTD-DF
                  L. Wittmann, M. Mueller
   Ed Valeev, F. Pavosevic, A. Kumar             : LibInt (2-el integral package), F12 methods
   Garnet Chan, S. Sharma, J. Yang, R. Olivares  : DMRG
   Ulf Ekstrom                                   : XCFun DFT Library
   Mihaly Kallay                                 : mrcc  (arbitrary order and MRCC methods)
   Frank Weinhold                                : gennbo (NPA and NBO analysis)
   Simon Mueller                                 : openCOSMO-RS
   Christopher J. Cramer and Donald G. Truhlar   : smd solvation model
   Giovanni Bistoni       : ED, misc. LED, open-shell LED, HFLD
   Martin Brehm           : Molecular dynamics
   Dmytro Bykov           : pre 5.0 version of the SCF Hessian
   Marcos Casanova-Páez   : Triplet and SCS-CIS(D). UHF-(DLPNO)-IP/EA/STEOM-CCSD. UHF-CVS-IP/STEOM-CCSD
   Vijay G. Chilkuri      : MRCI spin determinant printing, contributions to CSF-ICE
   Pauline Colinet        : FMM embedding
   Dipayan Datta          : RHF DLPNO-CCSD density
   Achintya Kumar Dutta   : EOM-CC, STEOM-CC
   Nicolas Foglia         : Exact transition moments, OPA infrastructure, MCD improvements
   Dmitry Ganyushin       : Spin-Orbit,Spin-Spin,Magnetic field MRCI
   Miquel Garcia          : C-PCM and meta-GGA Hessian, CCSD/C-PCM, Gaussian charge scheme
   Tiago L. C. Gouveia    : GS-ROHF, GS-ROCIS
   Yang Guo               : DLPNO-NEVPT2, F12-NEVPT2, CIM, IAO-localization
   Andreas Hansen         : Spin unrestricted coupled pair/coupled cluster methods
   Ingolf Harden          : AUTO-CI MPn and infrastructure 
   Benjamin Helmich-Paris : MC-RPA, TRAH-(SCF,CASSCF), AVAS, COSX integrals, SCF dyn. polar.
   Lee Huntington         : MR-EOM, pCC
   Robert Izsak           : Overlap fitted RIJCOSX, COSX-SCS-MP3, EOM
   Riya Kayal             : Wick's Theorem for AUTO-CI, AUTO-CI UHF-CCSDT
   Emily Kempfer          : AUTO-CI, RHF CISDT and CCSDT
   Christian Kollmar      : KDIIS, OOCD, Brueckner-CCSD(T), CCSD density, CASPT2, CASPT2-K, improved NEVPT2
   Axel Koslowski         : Symmetry handling
   Simone Kossmann        : Meta GGA functionals, TD-DFT gradient, OOMP2, (MP2 Hessian; deprecated post 5.0)
   Lucas Lang             : DCDCAS
   Marvin Lechner         : AUTO-CI (C++ implementation), FIC-MRCC
   Spencer Leger          : CASSCF response
   Dagmar Lenk            : GEPOL surface, SMD, ORCA-2-JSON
   Dimitrios Liakos       : Extrapolation schemes; Compound Job, initial MDCI parallelization
   Dimitrios Manganas     : Further ROCIS development; embedding schemes. LFT, Crystal Embedding
   Dimitrios Pantazis     : SARC Basis sets
   Anastasios Papadopoulos: AUTO-CI, single reference methods and gradients
   Taras Petrenko         : pre 6.0 DFT Hessian and TD-DFT gradient, (ASA, deprecated), ECA, 1-Electron XAS/XES, NRVS
   Peter Pinski           : DLPNO-MP2, DLPNO-MP2 Gradient
   Christoph Reimann      : Effective Core Potentials
   Marius Retegan         : Local ZFS, SOC
   Christoph Riplinger    : Optimizer, TS searches, QM/MM, DLPNO-CCSD(T), (RO)-DLPNO pert. Triples
   Michael Roemelt        : Original ROCIS implementation
   Masaaki Saitow         : Open-shell DLPNO-CCSD energy and density
   Barbara Sandhoefer     : DKH picture change effects
   Kantharuban Sivalingam : CASSCF convergence/infrastructure, NEVPT2 and variants, FIC-MRCI
   Bernardo de Souza      : ESD, SOC TD-DFT
   Georgi Stoychev        : AutoAux, RI-MP2 NMR, DLPNO-MP2 response, X2C
   Van Anh Tran           : RI-MP2 g-tensors
   Willem Van den Heuvel  : Paramagnetic NMR
   Zikuan Wang            : NOTCH, Electric field optimization 
   Frank Wennmohs         : Technical directorship and infrastructure
   Hang Xu                : AUTO-CI-Response properties 


 We gratefully acknowledge several colleagues who have allowed us to
 interface, adapt or use parts of their codes:
   Stefan Grimme, W. Hujo, H. Kruse, P. Pracht,  : VdW corrections, initial TS optimization,
                  C. Bannwarth, S. Ehlert,         DFT functionals, gCP, sTDA/sTD-DF
                  L. Wittmann, M. Mueller
   Ed Valeev, F. Pavosevic, A. Kumar             : LibInt (2-el integral package), F12 methods
   Garnet Chan, S. Sharma, J. Yang, R. Olivares  : DMRG
   Ulf Ekstrom                                   : XCFun DFT Library
   Mihaly Kallay                                 : mrcc  (arbitrary order and MRCC methods)
   Frank Weinhold                                : gennbo (NPA and NBO analysis)
   Simon Mueller                                 : openCOSMO-RS
   Christopher J. Cramer and Donald G. Truhlar   : smd solvation model
   Giovanni Bistoni       : ED, misc. LED, open-shell LED, HFLD
   Martin Brehm           : Molecular dynamics
   Dmytro Bykov           : pre 5.0 version of the SCF Hessian
   Marcos Casanova-Páez   : Triplet and SCS-CIS(D). UHF-(DLPNO)-IP/EA/STEOM-CCSD. UHF-CVS-IP/STEOM-CCSD
   Vijay G. Chilkuri      : MRCI spin determinant printing, contributions to CSF-ICE
   Pauline Colinet        : FMM embedding
   Dipayan Datta          : RHF DLPNO-CCSD density
   Achintya Kumar Dutta   : EOM-CC, STEOM-CC
   Nicolas Foglia         : Exact transition moments, OPA infrastructure, MCD improvements
   Dmitry Ganyushin       : Spin-Orbit,Spin-Spin,Magnetic field MRCI
   Miquel Garcia          : C-PCM and meta-GGA Hessian, CCSD/C-PCM, Gaussian charge scheme
   Tiago L. C. Gouveia    : GS-ROHF, GS-ROCIS
   Yang Guo               : DLPNO-NEVPT2, F12-NEVPT2, CIM, IAO-localization
   Andreas Hansen         : Spin unrestricted coupled pair/coupled cluster methods
   Ingolf Harden          : AUTO-CI MPn and infrastructure 
   Benjamin Helmich-Paris : MC-RPA, TRAH-(SCF,CASSCF), AVAS, COSX integrals, SCF dyn. polar.
   Lee Huntington         : MR-EOM, pCC
   Robert Izsak           : Overlap fitted RIJCOSX, COSX-SCS-MP3, EOM
   Riya Kayal             : Wick's Theorem for AUTO-CI, AUTO-CI UHF-CCSDT
   Emily Kempfer          : AUTO-CI, RHF CISDT and CCSDT
   Christian Kollmar      : KDIIS, OOCD, Brueckner-CCSD(T), CCSD density, CASPT2, CASPT2-K, improved NEVPT2
   Axel Koslowski         : Symmetry handling
   Simone Kossmann        : Meta GGA functionals, TD-DFT gradient, OOMP2, (MP2 Hessian; deprecated post 5.0)
   Lucas Lang             : DCDCAS
   Marvin Lechner         : AUTO-CI (C++ implementation), FIC-MRCC
   Spencer Leger          : CASSCF response
   Dagmar Lenk            : GEPOL surface, SMD, ORCA-2-JSON
   Dimitrios Liakos       : Extrapolation schemes; Compound Job, initial MDCI parallelization
   Dimitrios Manganas     : Further ROCIS development; embedding schemes. LFT, Crystal Embedding
   Dimitrios Pantazis     : SARC Basis sets
   Anastasios Papadopoulos: AUTO-CI, single reference methods and gradients
   Taras Petrenko         : pre 6.0 DFT Hessian and TD-DFT gradient, (ASA, deprecated), ECA, 1-Electron XAS/XES, NRVS
   Peter Pinski           : DLPNO-MP2, DLPNO-MP2 Gradient
   Christoph Reimann      : Effective Core Potentials
   Marius Retegan         : Local ZFS, SOC
   Christoph Riplinger    : Optimizer, TS searches, QM/MM, DLPNO-CCSD(T), (RO)-DLPNO pert. Triples
   Michael Roemelt        : Original ROCIS implementation
   Masaaki Saitow         : Open-shell DLPNO-CCSD energy and density
   Barbara Sandhoefer     : DKH picture change effects
   Kantharuban Sivalingam : CASSCF convergence/infrastructure, NEVPT2 and variants, FIC-MRCI
   Bernardo de Souza      : ESD, SOC TD-DFT
   Georgi Stoychev        : AutoAux, RI-MP2 NMR, DLPNO-MP2 response, X2C
   Van Anh Tran           : RI-MP2 g-tensors
   Willem Van den Heuvel  : Paramagnetic NMR
   Zikuan Wang            : NOTCH, Electric field optimization 
   Frank Wennmohs         : Technical directorship and infrastructure
   Hang Xu                : AUTO-CI-Response properties 


 We gratefully acknowledge several colleagues who have allowed us to
 interface, adapt or use parts of their codes:
   Stefan Grimme, W. Hujo, H. Kruse, P. Pracht,  : VdW corrections, initial TS optimization,
                  C. Bannwarth, S. Ehlert,         DFT functionals, gCP, sTDA/sTD-DF
                  L. Wittmann, M. Mueller
   Ed Valeev, F. Pavosevic, A. Kumar             : LibInt (2-el integral package), F12 methods
   Garnet Chan, S. Sharma, J. Yang, R. Olivares  : DMRG
   Ulf Ekstrom                                   : XCFun DFT Library
   Mihaly Kallay                                 : mrcc  (arbitrary order and MRCC methods)
   Frank Weinhold                                : gennbo (NPA and NBO analysis)
   Simon Mueller                                 : openCOSMO-RS
   Christopher J. Cramer and Donald G. Truhlar   : smd solvation model
   Lars Goerigk                                  : TD-DFT with DH, B97 family of functionals
   V. Asgeirsson, H. Jonsson                     : NEB implementation
   FAccTs GmbH                                   : IRC, NEB, NEB-TS, DLPNO-Multilevel, CI-OPT
                                                   MM, QMMM, 2- and 3-layer-ONIOM, Crystal-QMMM,
                                                   LR-CPCM, SF, NACMEs, symmetry and pop. for TD-DFT,
                                                   nearIR, NL-DFT gradient (VV10), updates on ESD,
                                                   ML-optimized integration grids, MBIS, APM,
                                                   GOAT, DOCKER, SOLVATOR, interface openCOSMO-RS
   S Lehtola, MJT Oliveira, MAL Marques          : LibXC Library
   Liviu Ungur et al                             : ANISO software


 Your calculation uses the libint2 library for the computation of 2-el integrals
 For citations please refer to: http://libint.valeyev.net

 Your ORCA version has been built with support for libXC version: 6.2.2
 For citations please refer to: https://libxc.gitlab.io

 This ORCA versions uses:
   CBLAS   interface :  Fast vector & matrix operations
   LAPACKE interface :  Fast linear algebra routines
   SCALAPACK package :  Parallel linear algebra routines
   Shared memory     :  Shared parallel matrices
   BLAS/LAPACK       :  OpenBLAS 0.3.27  USE64BITINT DYNAMIC_ARCH NO_AFFINITY Zen SINGLE_THREADED
        Core in use  :  Zen
   Copyright (c) 2011-2014, The OpenBLAS Project


   Lars Goerigk                                  : TD-DFT with DH, B97 family of functionals
   V. Asgeirsson, H. Jonsson                     : NEB implementation
   FAccTs GmbH                                   : IRC, NEB, NEB-TS, DLPNO-Multilevel, CI-OPT
                                                   MM, QMMM, 2- and 3-layer-ONIOM, Crystal-QMMM,
                                                   LR-CPCM, SF, NACMEs, symmetry and pop. for TD-DFT,
                                                   nearIR, NL-DFT gradient (VV10), updates on ESD,
                                                   ML-optimized integration grids, MBIS, APM,
                                                   GOAT, DOCKER, SOLVATOR, interface openCOSMO-RS
   S Lehtola, MJT Oliveira, MAL Marques          : LibXC Library
   Liviu Ungur et al                             : ANISO software


 Your calculation uses the libint2 library for the computation of 2-el integrals
 For citations please refer to: http://libint.valeyev.net

 Your ORCA version has been built with support for libXC version: 6.2.2
 For citations please refer to: https://libxc.gitlab.io

 This ORCA versions uses:
   CBLAS   interface :  Fast vector & matrix operations
   LAPACKE interface :  Fast linear algebra routines
   SCALAPACK package :  Parallel linear algebra routines
   Shared memory     :  Shared parallel matrices
   BLAS/LAPACK       :  OpenBLAS 0.3.27  USE64BITINT DYNAMIC_ARCH NO_AFFINITY Zen SINGLE_THREADED
        Core in use  :  Zen
   Copyright (c) 2011-2014, The OpenBLAS Project


   Lars Goerigk                                  : TD-DFT with DH, B97 family of functionals
   V. Asgeirsson, H. Jonsson                     : NEB implementation
   FAccTs GmbH                                   : IRC, NEB, NEB-TS, DLPNO-Multilevel, CI-OPT
                                                   MM, QMMM, 2- and 3-layer-ONIOM, Crystal-QMMM,
                                                   LR-CPCM, SF, NACMEs, symmetry and pop. for TD-DFT,
                                                   nearIR, NL-DFT gradient (VV10), updates on ESD,
                                                   ML-optimized integration grids, MBIS, APM,
                                                   GOAT, DOCKER, SOLVATOR, interface openCOSMO-RS
   S Lehtola, MJT Oliveira, MAL Marques          : LibXC Library
   Liviu Ungur et al                             : ANISO software


 Your calculation uses the libint2 library for the computation of 2-el integrals
 For citations please refer to: http://libint.valeyev.net

 Your ORCA version has been built with support for libXC version: 6.2.2
 For citations please refer to: https://libxc.gitlab.io

 This ORCA versions uses:
   CBLAS   interface :  Fast vector & matrix operations
   LAPACKE interface :  Fast linear algebra routines
   SCALAPACK package :  Parallel linear algebra routines
   Shared memory     :  Shared parallel matrices
   BLAS/LAPACK       :  OpenBLAS 0.3.27  USE64BITINT DYNAMIC_ARCH NO_AFFINITY Zen SINGLE_THREADED
        Core in use  :  Zen
   Copyright (c) 2011-2014, The OpenBLAS Project


   Lars Goerigk                                  : TD-DFT with DH, B97 family of functionals
   V. Asgeirsson, H. Jonsson                     : NEB implementation
   FAccTs GmbH                                   : IRC, NEB, NEB-TS, DLPNO-Multilevel, CI-OPT
                                                   MM, QMMM, 2- and 3-layer-ONIOM, Crystal-QMMM,
                                                   LR-CPCM, SF, NACMEs, symmetry and pop. for TD-DFT,
                                                   nearIR, NL-DFT gradient (VV10), updates on ESD,
                                                   ML-optimized integration grids, MBIS, APM,
                                                   GOAT, DOCKER, SOLVATOR, interface openCOSMO-RS
   S Lehtola, MJT Oliveira, MAL Marques          : LibXC Library
   Liviu Ungur et al                             : ANISO software


 Your calculation uses the libint2 library for the computation of 2-el integrals
 For citations please refer to: http://libint.valeyev.net

 Your ORCA version has been built with support for libXC version: 6.2.2
 For citations please refer to: https://libxc.gitlab.io

 This ORCA versions uses:
   CBLAS   interface :  Fast vector & matrix operations
   LAPACKE interface :  Fast linear algebra routines
   SCALAPACK package :  Parallel linear algebra routines
   Shared memory     :  Shared parallel matrices
   BLAS/LAPACK       :  OpenBLAS 0.3.27  USE64BITINT DYNAMIC_ARCH NO_AFFINITY Zen SINGLE_THREADED
        Core in use  :  Zen
   Copyright (c) 2011-2014, The OpenBLAS Project



                                 *****************
                                 * O   R   C   A *
                                 *****************

                                            #,                                       
                                            ###                                      
                                            ####                                     
                                            #####                                    
                                            ######                                   
                                           ########,                                 
                                     ,,################,,,,,                         
                               ,,#################################,,                 
                          ,,##########################################,,             
                       ,#########################################, ''#####,          
                    ,#############################################,,   '####,        
                  ,##################################################,,,,####,       
                ,###########''''           ''''###############################       
              ,#####''   ,,,,##########,,,,          '''####'''          '####       
            ,##' ,,,,###########################,,,                        '##       
           ' ,,###''''                  '''############,,,                           
         ,,##''                                '''############,,,,        ,,,,,,###''
      ,#''                                            '''#######################'''  
     '                                                          ''''####''''         
             ,#######,   #######,   ,#######,      ##                                
            ,#'     '#,  ##    ##  ,#'     '#,    #''#        ,####,   ,####,        
            ##       ##  ##   ,#'  ##            #'  '#       #'       #'  '#        
            ##       ##  #######   ##           ,######,      #####,   #    #        
            '#,     ,#'  ##    ##  '#,     ,#' ,#      #,     #,   #   #,  ,#        
             '#######'   ##     ##  '#######'  #'      '#     '####' # '####'        



                #########################################################
                #                        -***-                          #
                #          Department of theory and spectroscopy        #
                #                                                       #
                #                      Frank Neese                      #
                #                                                       #
                #     Directorship, Architecture, Infrastructure        #
                #                    SHARK, DRIVERS                     #
                #        Core code/Algorithms in most modules           #
                #                                                       #
                #        Max Planck Institute fuer Kohlenforschung      #
                #                Kaiser Wilhelm Platz 1                 #
                #                 D-45470 Muelheim/Ruhr                 #
                #                      Germany                          #
                #                                                       #
                #                  All rights reserved                  #
                #                        -***-                          #
                #########################################################


                         Program Version 6.0.0  -   RELEASE  -


 With contributions from (in alphabetic order):
   Daniel Aravena         : Magnetic Suceptibility
   Michael Atanasov       : Ab Initio Ligand Field Theory (pilot matlab implementation)
   Alexander A. Auer      : GIAO ZORA, VPT2 properties, NMR spectrum
   Ute Becker             : All parallelization in ORCA, NUMFREQ, NUMCALC
   Giovanni Bistoni       : ED, misc. LED, open-shell LED, HFLD
   Martin Brehm           : Molecular dynamics
   Dmytro Bykov           : pre 5.0 version of the SCF Hessian
   Marcos Casanova-Páez   : Triplet and SCS-CIS(D). UHF-(DLPNO)-IP/EA/STEOM-CCSD. UHF-CVS-IP/STEOM-CCSD
   Vijay G. Chilkuri      : MRCI spin determinant printing, contributions to CSF-ICE
   Pauline Colinet        : FMM embedding
   Dipayan Datta          : RHF DLPNO-CCSD density
   Achintya Kumar Dutta   : EOM-CC, STEOM-CC
   Nicolas Foglia         : Exact transition moments, OPA infrastructure, MCD improvements
   Dmitry Ganyushin       : Spin-Orbit,Spin-Spin,Magnetic field MRCI
   Miquel Garcia          : C-PCM and meta-GGA Hessian, CCSD/C-PCM, Gaussian charge scheme
   Tiago L. C. Gouveia    : GS-ROHF, GS-ROCIS
   Yang Guo               : DLPNO-NEVPT2, F12-NEVPT2, CIM, IAO-localization
   Andreas Hansen         : Spin unrestricted coupled pair/coupled cluster methods
   Ingolf Harden          : AUTO-CI MPn and infrastructure 
   Benjamin Helmich-Paris : MC-RPA, TRAH-(SCF,CASSCF), AVAS, COSX integrals, SCF dyn. polar.
   Lee Huntington         : MR-EOM, pCC
   Robert Izsak           : Overlap fitted RIJCOSX, COSX-SCS-MP3, EOM
   Riya Kayal             : Wick's Theorem for AUTO-CI, AUTO-CI UHF-CCSDT
   Emily Kempfer          : AUTO-CI, RHF CISDT and CCSDT
   Christian Kollmar      : KDIIS, OOCD, Brueckner-CCSD(T), CCSD density, CASPT2, CASPT2-K, improved NEVPT2
   Axel Koslowski         : Symmetry handling
   Simone Kossmann        : Meta GGA functionals, TD-DFT gradient, OOMP2, (MP2 Hessian; deprecated post 5.0)
   Lucas Lang             : DCDCAS
   Marvin Lechner         : AUTO-CI (C++ implementation), FIC-MRCC
   Spencer Leger          : CASSCF response
   Dagmar Lenk            : GEPOL surface, SMD, ORCA-2-JSON
   Dimitrios Liakos       : Extrapolation schemes; Compound Job, initial MDCI parallelization
   Dimitrios Manganas     : Further ROCIS development; embedding schemes. LFT, Crystal Embedding
   Dimitrios Pantazis     : SARC Basis sets
   Anastasios Papadopoulos: AUTO-CI, single reference methods and gradients
   Taras Petrenko         : pre 6.0 DFT Hessian and TD-DFT gradient, (ASA, deprecated), ECA, 1-Electron XAS/XES, NRVS
   Peter Pinski           : DLPNO-MP2, DLPNO-MP2 Gradient
   Christoph Reimann      : Effective Core Potentials
   Marius Retegan         : Local ZFS, SOC
   Christoph Riplinger    : Optimizer, TS searches, QM/MM, DLPNO-CCSD(T), (RO)-DLPNO pert. Triples
   Michael Roemelt        : Original ROCIS implementation
   Masaaki Saitow         : Open-shell DLPNO-CCSD energy and density
   Barbara Sandhoefer     : DKH picture change effects
   Kantharuban Sivalingam : CASSCF convergence/infrastructure, NEVPT2 and variants, FIC-MRCI
   Bernardo de Souza      : ESD, SOC TD-DFT
   Georgi Stoychev        : AutoAux, RI-MP2 NMR, DLPNO-MP2 response, X2C
   Van Anh Tran           : RI-MP2 g-tensors
   Willem Van den Heuvel  : Paramagnetic NMR
   Zikuan Wang            : NOTCH, Electric field optimization 
   Frank Wennmohs         : Technical directorship and infrastructure
   Hang Xu                : AUTO-CI-Response properties 


 We gratefully acknowledge several colleagues who have allowed us to
 interface, adapt or use parts of their codes:
   Stefan Grimme, W. Hujo, H. Kruse, P. Pracht,  : VdW corrections, initial TS optimization,
                  C. Bannwarth, S. Ehlert,         DFT functionals, gCP, sTDA/sTD-DF
                  L. Wittmann, M. Mueller
   Ed Valeev, F. Pavosevic, A. Kumar             : LibInt (2-el integral package), F12 methods
   Garnet Chan, S. Sharma, J. Yang, R. Olivares  : DMRG
   Ulf Ekstrom                                   : XCFun DFT Library
   Mihaly Kallay                                 : mrcc  (arbitrary order and MRCC methods)
   Frank Weinhold                                : gennbo (NPA and NBO analysis)
   Simon Mueller                                 : openCOSMO-RS
   Christopher J. Cramer and Donald G. Truhlar   : smd solvation model
NOTE: MaxCore=3000 MB was set to SCF,MP2,MDCI,CIPSI,MRCI and CIS
      => If you want to overwrite this, your respective input block should be placed after the MaxCore statement
NOTE: MaxCore=3000 MB was set to SCF,MP2,MDCI,CIPSI,MRCI and CIS
      => If you want to overwrite this, your respective input block should be placed after the MaxCore statement
   Lars Goerigk                                  : TD-DFT with DH, B97 family of functionals
   V. Asgeirsson, H. Jonsson                     : NEB implementation
   FAccTs GmbH                                   : IRC, NEB, NEB-TS, DLPNO-Multilevel, CI-OPT
                                                   MM, QMMM, 2- and 3-layer-ONIOM, Crystal-QMMM,
                                                   LR-CPCM, SF, NACMEs, symmetry and pop. for TD-DFT,
                                                   nearIR, NL-DFT gradient (VV10), updates on ESD,
                                                   ML-optimized integration grids, MBIS, APM,
                                                   GOAT, DOCKER, SOLVATOR, interface openCOSMO-RS
   S Lehtola, MJT Oliveira, MAL Marques          : LibXC Library
   Liviu Ungur et al                             : ANISO software


 Your calculation uses the libint2 library for the computation of 2-el integrals
 For citations please refer to: http://libint.valeyev.net

 Your ORCA version has been built with support for libXC version: 6.2.2
 For citations please refer to: https://libxc.gitlab.io

 This ORCA versions uses:
   CBLAS   interface :  Fast vector & matrix operations
   LAPACKE interface :  Fast linear algebra routines
   SCALAPACK package :  Parallel linear algebra routines
   Shared memory     :  Shared parallel matrices
   BLAS/LAPACK       :  OpenBLAS 0.3.27  USE64BITINT DYNAMIC_ARCH NO_AFFINITY Zen SINGLE_THREADED
        Core in use  :  Zen
   Copyright (c) 2011-2014, The OpenBLAS Project


------------------------------------------------------------------------------
                        ORCA OPTIMIZATION COORDINATE SETUP
------------------------------------------------------------------------------

Your calculation utilizes the SMD solvation module
Your calculation utilizes the SMD solvation module
Please cite in your paper:
A.V. Marenich, C.J. Cramer, D.G. Truhlar J. Phys. Chem. B, 113, (2009), 6378 

Warning: RI is on but no J-basis has been assigned. Assigning Def2/J (nothing to worry about!)
Please cite in your paper:
A.V. Marenich, C.J. Cramer, D.G. Truhlar J. Phys. Chem. B, 113, (2009), 6378 
The optimization will be done in redundant internal coordinates (2022)

Warning: RI is on but no J-basis has been assigned. Assigning Def2/J (nothing to worry about!)
================================================================================

================================================================================

----- Orbital basis set information -----
----- Orbital basis set information -----
Your calculation utilizes the basis: ma-def2-SVP
   F. Weigend and R. Ahlrichs, Phys. Chem. Chem. Phys. 7, 3297 (2005).
   J. Zheng, X. Xu and D. G. Truhlar, Theor. Chem. Acc. 128, 295 (2011).

----- AuxJ basis set information -----
Your calculation utilizes the auxiliary basis: def2/J
   F. Weigend, Phys. Chem. Chem. Phys. 8, 1057 (2006).

Your calculation utilizes the basis: ma-def2-SVP
   F. Weigend and R. Ahlrichs, Phys. Chem. Chem. Phys. 7, 3297 (2005).
   J. Zheng, X. Xu and D. G. Truhlar, Theor. Chem. Acc. 128, 295 (2011).

----- AuxJ basis set information -----
Your calculation utilizes the auxiliary basis: def2/J
   F. Weigend, Phys. Chem. Chem. Phys. 8, 1057 (2006).

================================================================================
                                        WARNINGS
                       Please study these warnings very carefully!
================================================================================


WARNING: Geometry Optimization
  ===> : Switching off AutoStart
         For restart on a previous wavefunction, please use MOREAD

================================================================================
                                       INPUT FILE
================================================================================
NAME = job.inp
|  1> !pbe ma-def2-SVP opt SMD(Acetonitrile)  Freq
|  2> %maxcore 3000
|  3> %pal
|  4> nprocs 4
|  5> end
|  6> # MECP_BC
|  7> 
|  8> *xyz 0 1
|  9> C        -1.56001723      -4.54084206       0.33483586 
| 10> C        -1.15472662      -5.30192614      -0.94484133 
| 11> O        -1.21190703      -3.16530776       0.21005765 
| 12> C        -0.84581232      -5.15522957       1.55674505 
| 13> C        -3.08250046      -4.59438992       0.52462274 
| 14> H        -0.19244631      -3.08466673       0.08542375 
| 15> H         0.25343934      -5.07162809       1.43574476 
| 16> H        -1.10638165      -6.22618961       1.69184899 
| 17> H        -1.13207626      -4.60963583       2.47924209 
| 18> H        -3.59481740      -4.13308239      -0.34448445 
| 19> H        -3.37627649      -4.03108358       1.43426251 
| 20> H        -3.44427633      -5.63752937       0.62969470 
| 21> H        -1.67129517      -4.86795044      -1.82545018 
| 22> H        -1.41460979      -6.37960005      -0.88387585 
| 23> H        -0.06150458      -5.21186495      -1.10904062 
| 24> *
| 25> 
| 26>                          ****END OF INPUT****
================================================================================
NOTE: MaxCore=3000 MB was set to SCF,MP2,MDCI,CIPSI,MRCI and CIS
      => If you want to overwrite this, your respective input block should be placed after the MaxCore statement
Your calculation utilizes the SMD solvation module
Please cite in your paper:
A.V. Marenich, C.J. Cramer, D.G. Truhlar J. Phys. Chem. B, 113, (2009), 6378 

Warning: RI is on but no J-basis has been assigned. Assigning Def2/J (nothing to worry about!)
================================================================================

----- Orbital basis set information -----
Your calculation utilizes the basis: ma-def2-SVP
   F. Weigend and R. Ahlrichs, Phys. Chem. Chem. Phys. 7, 3297 (2005).
   J. Zheng, X. Xu and D. G. Truhlar, Theor. Chem. Acc. 128, 295 (2011).

----- AuxJ basis set information -----
Your calculation utilizes the auxiliary basis: def2/J
   F. Weigend, Phys. Chem. Chem. Phys. 8, 1057 (2006).

NOTE: MaxCore=3000 MB was set to SCF,MP2,MDCI,CIPSI,MRCI and CIS
      => If you want to overwrite this, your respective input block should be placed after the MaxCore statement
NOTE: MaxCore=3000 MB was set to SCF,MP2,MDCI,CIPSI,MRCI and CIS

                       *****************************
                       * Geometry Optimization Run *
                       *****************************

Geometry optimization settings:
Update method            Update   .... BFGS
Choice of coordinates    CoordSys .... (2022) Redundant Internals
Initial Hessian          InHess   .... Almloef's Model
Max. no of cycles        MaxIter  .... 50

Convergence Tolerances:
Energy Change            TolE     ....  5.0000e-06 Eh
Max. Gradient            TolMAXG  ....  3.0000e-04 Eh/bohr
RMS Gradient             TolRMSG  ....  1.0000e-04 Eh/bohr
Max. Displacement        TolMAXD  ....  4.0000e-03 bohr
RMS Displacement         TolRMSD  ....  2.0000e-03 bohr
Strict Convergence                .... False

Your calculation utilizes the SMD solvation module
Please cite in your paper:
A.V. Marenich, C.J. Cramer, D.G. Truhlar J. Phys. Chem. B, 113, (2009), 6378 

Warning: RI is on but no J-basis has been assigned. Assigning Def2/J (nothing to worry about!)
      => If you want to overwrite this, your respective input block should be placed after the MaxCore statement
Your calculation utilizes the SMD solvation module
Please cite in your paper:
A.V. Marenich, C.J. Cramer, D.G. Truhlar J. Phys. Chem. B, 113, (2009), 6378 

Warning: RI is on but no J-basis has been assigned. Assigning Def2/J (nothing to worry about!)
================================================================================

----- Orbital basis set information -----
Your calculation utilizes the basis: ma-def2-SVP
   F. Weigend and R. Ahlrichs, Phys. Chem. Chem. Phys. 7, 3297 (2005).
   J. Zheng, X. Xu and D. G. Truhlar, Theor. Chem. Acc. 128, 295 (2011).

----- AuxJ basis set information -----
Your calculation utilizes the auxiliary basis: def2/J
   F. Weigend, Phys. Chem. Chem. Phys. 8, 1057 (2006).

================================================================================

----- Orbital basis set information -----
Your calculation utilizes the basis: ma-def2-SVP
   F. Weigend and R. Ahlrichs, Phys. Chem. Chem. Phys. 7, 3297 (2005).
   J. Zheng, X. Xu and D. G. Truhlar, Theor. Chem. Acc. 128, 295 (2011).

----- AuxJ basis set information -----
Your calculation utilizes the auxiliary basis: def2/J
   F. Weigend, Phys. Chem. Chem. Phys. 8, 1057 (2006).

------------------------------------------------------------------------------
                        ORCA OPTIMIZATION COORDINATE SETUP
------------------------------------------------------------------------------

The optimization will be done in redundant internal coordinates (2022)
NOTE: MaxCore=3000 MB was set to SCF,MP2,MDCI,CIPSI,MRCI and CIS
      => If you want to overwrite this, your respective input block should be placed after the MaxCore statement
Your calculation utilizes the SMD solvation module
Please cite in your paper:
A.V. Marenich, C.J. Cramer, D.G. Truhlar J. Phys. Chem. B, 113, (2009), 6378 

Warning: RI is on but no J-basis has been assigned. Assigning Def2/J (nothing to worry about!)
================================================================================

----- Orbital basis set information -----
Your calculation utilizes the basis: ma-def2-SVP
   F. Weigend and R. Ahlrichs, Phys. Chem. Chem. Phys. 7, 3297 (2005).
   J. Zheng, X. Xu and D. G. Truhlar, Theor. Chem. Acc. 128, 295 (2011).

----- AuxJ basis set information -----
Your calculation utilizes the auxiliary basis: def2/J
   F. Weigend, Phys. Chem. Chem. Phys. 8, 1057 (2006).

NOTE: MaxCore=3000 MB was set to SCF,MP2,MDCI,CIPSI,MRCI and CIS
      => If you want to overwrite this, your respective input block should be placed after the MaxCore statement
Your calculation utilizes the SMD solvation module
Please cite in your paper:
A.V. Marenich, C.J. Cramer, D.G. Truhlar J. Phys. Chem. B, 113, (2009), 6378 

Warning: RI is on but no J-basis has been assigned. Assigning Def2/J (nothing to worry about!)
================================================================================

----- Orbital basis set information -----
Your calculation utilizes the basis: ma-def2-SVP
   F. Weigend and R. Ahlrichs, Phys. Chem. Chem. Phys. 7, 3297 (2005).
   J. Zheng, X. Xu and D. G. Truhlar, Theor. Chem. Acc. 128, 295 (2011).

----- AuxJ basis set information -----
Your calculation utilizes the auxiliary basis: def2/J
   F. Weigend, Phys. Chem. Chem. Phys. 8, 1057 (2006).

================================================================================
                                        WARNINGS
                       Please study these warnings very carefully!
================================================================================


WARNING: Geometry Optimization
  ===> : Switching off AutoStart
         For restart on a previous wavefunction, please use MOREAD

================================================================================
                                        WARNINGS
                       Please study these warnings very carefully!
================================================================================


WARNING: Geometry Optimization
  ===> : Switching off AutoStart
         For restart on a previous wavefunction, please use MOREAD

================================================================================
                                       INPUT FILE
================================================================================
NAME = job.inp
|  1> !pbe ma-def2-SVP opt SMD(Acetonitrile)  Freq
|  2> %maxcore 3000
|  3> %pal
|  4> nprocs 4
|  5> end
|  6> # MECP_BC
|  7> 
|  8> *xyz 0 1
|  9> C        -1.56001723      -4.54084206       0.33483586 
| 10> C        -1.15472662      -5.30192614      -0.94484133 
| 11> O        -1.21190703      -3.16530776       0.21005765 
| 12> C        -0.84581232      -5.15522957       1.55674505 
| 13> C        -3.08250046      -4.59438992       0.52462274 
| 14> H        -0.19244631      -3.08466673       0.08542375 
| 15> H         0.25343934      -5.07162809       1.43574476 
| 16> H        -1.10638165      -6.22618961       1.69184899 
| 17> H        -1.13207626      -4.60963583       2.47924209 
| 18> H        -3.59481740      -4.13308239      -0.34448445 
| 19> H        -3.37627649      -4.03108358       1.43426251 
| 20> H        -3.44427633      -5.63752937       0.62969470 
| 21> H        -1.67129517      -4.86795044      -1.82545018 
| 22> H        -1.41460979      -6.37960005      -0.88387585 
| 23> H        -0.06150458      -5.21186495      -1.10904062 
| 24> *
| 25> 
| 26>                          ****END OF INPUT****
================================================================================

                       *****************************
                       * Geometry Optimization Run *
                       *****************************

Geometry optimization settings:
Update method            Update   .... BFGS
Choice of coordinates    CoordSys .... (2022) Redundant Internals
Initial Hessian          InHess   .... Almloef's Model
Max. no of cycles        MaxIter  .... 50

Convergence Tolerances:
Energy Change            TolE     ....  5.0000e-06 Eh
Max. Gradient            TolMAXG  ....  3.0000e-04 Eh/bohr
RMS Gradient             TolRMSG  ....  1.0000e-04 Eh/bohr
Max. Displacement        TolMAXD  ....  4.0000e-03 bohr
RMS Displacement         TolRMSD  ....  2.0000e-03 bohr
Strict Convergence                .... False

================================================================================
                                        WARNINGS
                       Please study these warnings very carefully!
================================================================================


WARNING: Geometry Optimization
  ===> : Switching off AutoStart
         For restart on a previous wavefunction, please use MOREAD

Making redundant internal coordinates   ...  (2022 redundants) done
Making redundant internal coordinates   ...  (2022 redundants) done
Evaluating the initial hessian          ...  (Almloef) done
Evaluating the initial hessian          ...  (Almloef) done
Evaluating the coordinates              ...  done
Evaluating the coordinates              ...  done
Calculating the B-matrix                .... done
Calculating the B-matrix                .... done
================================================================================
                                       INPUT FILE
================================================================================
NAME = job.inp
|  1> !pbe ma-def2-SVP opt SMD(Acetonitrile)  Freq
|  2> %maxcore 3000
|  3> %pal
|  4> nprocs 4
|  5> end
|  6> # MECP_BC
|  7> 
|  8> *xyz 0 1
|  9> C        -1.56001723      -4.54084206       0.33483586 
| 10> C        -1.15472662      -5.30192614      -0.94484133 
| 11> O        -1.21190703      -3.16530776       0.21005765 
| 12> C        -0.84581232      -5.15522957       1.55674505 
| 13> C        -3.08250046      -4.59438992       0.52462274 
| 14> H        -0.19244631      -3.08466673       0.08542375 
| 15> H         0.25343934      -5.07162809       1.43574476 
| 16> H        -1.10638165      -6.22618961       1.69184899 
| 17> H        -1.13207626      -4.60963583       2.47924209 
| 18> H        -3.59481740      -4.13308239      -0.34448445 
| 19> H        -3.37627649      -4.03108358       1.43426251 
| 20> H        -3.44427633      -5.63752937       0.62969470 
| 21> H        -1.67129517      -4.86795044      -1.82545018 
| 22> H        -1.41460979      -6.37960005      -0.88387585 
------------------------------------------------------------------------------
                        ORCA OPTIMIZATION COORDINATE SETUP
------------------------------------------------------------------------------

The optimization will be done in redundant internal coordinates (2022)
| 23> H        -0.06150458      -5.21186495      -1.10904062 
| 24> *
| 25> 
| 26>                          ****END OF INPUT****
================================================================================

                       *****************************
                       * Geometry Optimization Run *
                       *****************************

Geometry optimization settings:
Update method            Update   .... BFGS
Choice of coordinates    CoordSys .... (2022) Redundant Internals
Initial Hessian          InHess   .... Almloef's Model
Max. no of cycles        MaxIter  .... 50

Convergence Tolerances:
Energy Change            TolE     ....  5.0000e-06 Eh
Max. Gradient            TolMAXG  ....  3.0000e-04 Eh/bohr
RMS Gradient             TolRMSG  ....  1.0000e-04 Eh/bohr
Max. Displacement        TolMAXD  ....  4.0000e-03 bohr
RMS Displacement         TolRMSD  ....  2.0000e-03 bohr
Strict Convergence                .... False

Making redundant internal coordinates   ...  (2022 redundants) done
Evaluating the initial hessian          ...  (Almloef) done
Evaluating the coordinates              ...  done
Calculating the B-matrix                .... done
Calculating the G-matrix                .... done
Calculating the G-matrix                .... done
Calculating the G-matrix                .... done
================================================================================
                                        WARNINGS
                       Please study these warnings very carefully!
================================================================================


WARNING: Geometry Optimization
  ===> : Switching off AutoStart
         For restart on a previous wavefunction, please use MOREAD

------------------------------------------------------------------------------
                        ORCA OPTIMIZATION COORDINATE SETUP
------------------------------------------------------------------------------

The optimization will be done in redundant internal coordinates (2022)
================================================================================
                                       INPUT FILE
================================================================================
NAME = job.inp
|  1> !pbe ma-def2-SVP opt SMD(Acetonitrile)  Freq
|  2> %maxcore 3000
|  3> %pal
|  4> nprocs 4
|  5> end
|  6> # MECP_BC
|  7> 
|  8> *xyz 0 1
|  9> C        -1.56001723      -4.54084206       0.33483586 
| 10> C        -1.15472662      -5.30192614      -0.94484133 
| 11> O        -1.21190703      -3.16530776       0.21005765 
| 12> C        -0.84581232      -5.15522957       1.55674505 
| 13> C        -3.08250046      -4.59438992       0.52462274 
| 14> H        -0.19244631      -3.08466673       0.08542375 
| 15> H         0.25343934      -5.07162809       1.43574476 
| 16> H        -1.10638165      -6.22618961       1.69184899 
| 17> H        -1.13207626      -4.60963583       2.47924209 
| 18> H        -3.59481740      -4.13308239      -0.34448445 
| 19> H        -3.37627649      -4.03108358       1.43426251 
| 20> H        -3.44427633      -5.63752937       0.62969470 
| 21> H        -1.67129517      -4.86795044      -1.82545018 
| 22> H        -1.41460979      -6.37960005      -0.88387585 
| 23> H        -0.06150458      -5.21186495      -1.10904062 
| 24> *
| 25> 
| 26>                          ****END OF INPUT****
================================================================================
Diagonalizing the G-matrix              .... done
Diagonalizing the G-matrix              .... done
Diagonalizing the G-matrix              .... done
================================================================================
                                        WARNINGS
                       Please study these warnings very carefully!
================================================================================

The first mode is                       ....   21
The number of degrees of freedom        ....   39
The first mode is                       ....   21
The number of degrees of freedom        ....   39

WARNING: Geometry Optimization
  ===> : Switching off AutoStart
         For restart on a previous wavefunction, please use MOREAD
The first mode is                       ....   21
The number of degrees of freedom        ....   39

Making redundant internal coordinates   ...  (2022 redundants) done
Evaluating the initial hessian          ...  (Almloef) done
Evaluating the coordinates              ...  done
Calculating the B-matrix                .... done
Calculating the G-matrix                .... done
================================================================================

    -----------------------------------------------------------------
                    Redundant Internal Coordinates


    -----------------------------------------------------------------
         Definition                    Initial Value    Approx d2E/dq
    -----------------------------------------------------------------
      1. B(C   1,C   0)                  1.5431         0.356054   
      2. B(O   2,C   0)                  1.4244         0.493210   
                                        WARNINGS
                       Please study these warnings very carefully!
================================================================================

      3. B(C   3,C   0)                  1.5429         0.356249   
      4. B(C   4,C   0)                  1.5352         0.366505   
      5. B(H   5,O   2)                  1.0302         0.401743   
      6. B(H   6,C   3)                  1.1090         0.335765   
      7. B(H   7,C   3)                  1.1105         0.334035   
      8. B(H   8,C   3)                  1.1093         0.335412   
      9. B(H   9,C   4)                  1.1093         0.335411   
     10. B(H  10,C   4)                  1.1095         0.335166   
     11. B(H  11,C   4)                  1.1091         0.335722   
     12. B(H  12,C   1)                  1.1093         0.335395   
     13. B(H  13,C   1)                  1.1102         0.334294   
     14. B(H  14,C   1)                  1.1091         0.335641   
     15. A(C   1,C   0,O   2)          109.8448         0.375619   
     16. A(C   3,C   0,C   4)          110.3200         0.359247   
     17. A(O   2,C   0,C   3)          109.9250         0.375655   
     18. A(C   1,C   0,C   3)          109.8026         0.357483   
     19. A(O   2,C   0,C   4)          106.6715         0.377502   
     20. A(C   1,C   0,C   4)          110.2302         0.359214   
     21. A(H  12,C   1,H  13)          108.3194         0.284304   
     22. A(C   0,C   1,H  13)          111.8228         0.317889   
     23. A(H  12,C   1,H  14)          108.0402         0.284482   
     24. A(C   0,C   1,H  12)          110.0631         0.318060   
     25. A(H  13,C   1,H  14)          108.5217         0.284336   
     26. A(C   0,C   1,H  14)          109.9745         0.318098   
     27. A(C   0,O   2,H   5)          109.1495         0.340793   
     28. A(H   7,C   3,H   8)          108.2162         0.284272   
     29. A(H   6,C   3,H   8)          108.0246         0.284500   
     30. A(C   0,C   3,H   8)          110.0763         0.318091   
     31. A(H   6,C   3,H   7)          108.5755         0.284318   
     32. A(C   0,C   3,H   7)          111.8248         0.317878   
     33. A(C   0,C   3,H   6)          110.0220         0.318145   
     34. A(C   0,C   4,H  10)          110.2565         0.319529   
     35. A(C   0,C   4,H   9)          110.2820         0.319567   
     36. A(H  10,C   4,H  11)          108.2687         0.284462   
     37. A(H   9,C   4,H  11)          108.3424         0.284494   
     38. A(C   0,C   4,H  11)          111.5929         0.319615   
     39. A(H   9,C   4,H  10)          107.9931         0.284421   
     40. D(H  13,C   1,C   0,O   2)   -179.8272         0.010187   

WARNING: Geometry Optimization
  ===> : Switching off AutoStart
         For restart on a previous wavefunction, please use MOREAD
     41. D(H  13,C   1,C   0,C   3)     59.1734         0.010187   
     42. D(H  12,C   1,C   0,O   2)    -59.3831         0.010187   
     43. D(H  12,C   1,C   0,C   3)    179.6174         0.010187   
     44. D(H  12,C   1,C   0,C   4)     57.8783         0.010187   
     45. D(H  13,C   1,C   0,C   4)    -62.5657         0.010187   
     46. D(H   5,O   2,C   0,C   4)    179.7012         0.019215   
     47. D(H   5,O   2,C   0,C   3)     60.0883         0.019215   
     48. D(H   5,O   2,C   0,C   1)    -60.8374         0.019215   

     49. D(H   7,C   3,C   0,O   2)    179.2300         0.010197   
     50. D(H   7,C   3,C   0,C   1)    -59.8189         0.010197   
     51. D(H   6,C   3,C   0,C   4)   -177.3925         0.010197   
     52. D(H   6,C   3,C   0,O   2)    -60.0291         0.010197   
     53. D(H   7,C   3,C   0,C   4)     61.8665         0.010197   
     54. D(H   6,C   3,C   0,C   1)     60.9221         0.010197   
     55. D(H  10,C   4,C   0,C   3)     59.6317         0.010751   
     56. D(H  10,C   4,C   0,O   2)    -59.7253         0.010751   
     57. D(H  10,C   4,C   0,C   1)   -178.9365         0.010751   
     58. D(H   9,C   4,C   0,C   3)    178.8025         0.010751   
     59. D(H   9,C   4,C   0,O   2)     59.4456         0.010751   
     60. D(H   9,C   4,C   0,C   1)    -59.7656         0.010751   
    -----------------------------------------------------------------

Number of atoms                         .... 15
Number of degrees of freedom            .... 60


         *************************************************************
         *                GEOMETRY OPTIMIZATION CYCLE   1            *
         *************************************************************

    -----------------------------------------------------------------
                    Redundant Internal Coordinates


    -----------------------------------------------------------------
         Definition                    Initial Value    Approx d2E/dq
    -----------------------------------------------------------------
      1. B(C   1,C   0)                  1.5431         0.356054   
      2. B(O   2,C   0)                  1.4244         0.493210   
      3. B(C   3,C   0)                  1.5429         0.356249   
      4. B(C   4,C   0)                  1.5352         0.366505   
      5. B(H   5,O   2)                  1.0302         0.401743   
      6. B(H   6,C   3)                  1.1090         0.335765   
      7. B(H   7,C   3)                  1.1105         0.334035   

                       *****************************
                       * Geometry Optimization Run *
                       *****************************

      8. B(H   8,C   3)                  1.1093         0.335412   
      9. B(H   9,C   4)                  1.1093         0.335411   
     10. B(H  10,C   4)                  1.1095         0.335166   
     11. B(H  11,C   4)                  1.1091         0.335722   
     12. B(H  12,C   1)                  1.1093         0.335395   
     13. B(H  13,C   1)                  1.1102         0.334294   
     14. B(H  14,C   1)                  1.1091         0.335641   
     15. A(C   1,C   0,O   2)          109.8448         0.375619   
     16. A(C   3,C   0,C   4)          110.3200         0.359247   
     17. A(O   2,C   0,C   3)          109.9250         0.375655   
     18. A(C   1,C   0,C   3)          109.8026         0.357483   
     19. A(O   2,C   0,C   4)          106.6715         0.377502   
     20. A(C   1,C   0,C   4)          110.2302         0.359214   
     21. A(H  12,C   1,H  13)          108.3194         0.284304   
     22. A(C   0,C   1,H  13)          111.8228         0.317889   
     23. A(H  12,C   1,H  14)          108.0402         0.284482   
     24. A(C   0,C   1,H  12)          110.0631         0.318060   
     25. A(H  13,C   1,H  14)          108.5217         0.284336   
     26. A(C   0,C   1,H  14)          109.9745         0.318098   
     27. A(C   0,O   2,H   5)          109.1495         0.340793   
     28. A(H   7,C   3,H   8)          108.2162         0.284272   
     29. A(H   6,C   3,H   8)          108.0246         0.284500   
     30. A(C   0,C   3,H   8)          110.0763         0.318091   
Geometry optimization settings:
Update method            Update   .... BFGS
Choice of coordinates    CoordSys .... (2022) Redundant Internals
Initial Hessian          InHess   .... Almloef's Model
Max. no of cycles        MaxIter  .... 50

Convergence Tolerances:
Energy Change            TolE     ....  5.0000e-06 Eh
Max. Gradient            TolMAXG  ....  3.0000e-04 Eh/bohr
RMS Gradient             TolRMSG  ....  1.0000e-04 Eh/bohr
Max. Displacement        TolMAXD  ....  4.0000e-03 bohr
RMS Displacement         TolRMSD  ....  2.0000e-03 bohr
     31. A(H   6,C   3,H   7)          108.5755         0.284318   
     32. A(C   0,C   3,H   7)          111.8248         0.317878   
     33. A(C   0,C   3,H   6)          110.0220         0.318145   
     34. A(C   0,C   4,H  10)          110.2565         0.319529   
     35. A(C   0,C   4,H   9)          110.2820         0.319567   
     36. A(H  10,C   4,H  11)          108.2687         0.284462   
     37. A(H   9,C   4,H  11)          108.3424         0.284494   
     38. A(C   0,C   4,H  11)          111.5929         0.319615   
     39. A(H   9,C   4,H  10)          107.9931         0.284421   
     40. D(H  13,C   1,C   0,O   2)   -179.8272         0.010187   
Strict Convergence                .... False

     41. D(H  13,C   1,C   0,C   3)     59.1734         0.010187   
     42. D(H  12,C   1,C   0,O   2)    -59.3831         0.010187   
     43. D(H  12,C   1,C   0,C   3)    179.6174         0.010187   
     44. D(H  12,C   1,C   0,C   4)     57.8783         0.010187   
     45. D(H  13,C   1,C   0,C   4)    -62.5657         0.010187   
     46. D(H   5,O   2,C   0,C   4)    179.7012         0.019215   
     47. D(H   5,O   2,C   0,C   3)     60.0883         0.019215   
     48. D(H   5,O   2,C   0,C   1)    -60.8374         0.019215   
     49. D(H   7,C   3,C   0,O   2)    179.2300         0.010197   
     50. D(H   7,C   3,C   0,C   1)    -59.8189         0.010197   
     51. D(H   6,C   3,C   0,C   4)   -177.3925         0.010197   
     52. D(H   6,C   3,C   0,O   2)    -60.0291         0.010197   
     53. D(H   7,C   3,C   0,C   4)     61.8665         0.010197   
     54. D(H   6,C   3,C   0,C   1)     60.9221         0.010197   
     55. D(H  10,C   4,C   0,C   3)     59.6317         0.010751   
     56. D(H  10,C   4,C   0,O   2)    -59.7253         0.010751   
     57. D(H  10,C   4,C   0,C   1)   -178.9365         0.010751   
     58. D(H   9,C   4,C   0,C   3)    178.8025         0.010751   
     59. D(H   9,C   4,C   0,O   2)     59.4456         0.010751   
     60. D(H   9,C   4,C   0,C   1)    -59.7656         0.010751   
    -----------------------------------------------------------------

Number of atoms                         .... 15
Number of degrees of freedom            .... 60


    -----------------------------------------------------------------
                    Redundant Internal Coordinates


    -----------------------------------------------------------------
         Definition                    Initial Value    Approx d2E/dq
    -----------------------------------------------------------------
      1. B(C   1,C   0)                  1.5431         0.356054   
      2. B(O   2,C   0)                  1.4244         0.493210   
Diagonalizing the G-matrix              .... done
      3. B(C   3,C   0)                  1.5429         0.356249   
      4. B(C   4,C   0)                  1.5352         0.366505   
      5. B(H   5,O   2)                  1.0302         0.401743   
      6. B(H   6,C   3)                  1.1090         0.335765   
      7. B(H   7,C   3)                  1.1105         0.334035   
      8. B(H   8,C   3)                  1.1093         0.335412   
      9. B(H   9,C   4)                  1.1093         0.335411   
     10. B(H  10,C   4)                  1.1095         0.335166   
     11. B(H  11,C   4)                  1.1091         0.335722   
     12. B(H  12,C   1)                  1.1093         0.335395   
     13. B(H  13,C   1)                  1.1102         0.334294   
     14. B(H  14,C   1)                  1.1091         0.335641   
     15. A(C   1,C   0,O   2)          109.8448         0.375619   
     16. A(C   3,C   0,C   4)          110.3200         0.359247   
     17. A(O   2,C   0,C   3)          109.9250         0.375655   
     18. A(C   1,C   0,C   3)          109.8026         0.357483   
     19. A(O   2,C   0,C   4)          106.6715         0.377502   
     20. A(C   1,C   0,C   4)          110.2302         0.359214   
     21. A(H  12,C   1,H  13)          108.3194         0.284304   
     22. A(C   0,C   1,H  13)          111.8228         0.317889   
     23. A(H  12,C   1,H  14)          108.0402         0.284482   
     24. A(C   0,C   1,H  12)          110.0631         0.318060   
     25. A(H  13,C   1,H  14)          108.5217         0.284336   
     26. A(C   0,C   1,H  14)          109.9745         0.318098   
     27. A(C   0,O   2,H   5)          109.1495         0.340793   
     28. A(H   7,C   3,H   8)          108.2162         0.284272   
     29. A(H   6,C   3,H   8)          108.0246         0.284500   
     30. A(C   0,C   3,H   8)          110.0763         0.318091   
     31. A(H   6,C   3,H   7)          108.5755         0.284318   
     32. A(C   0,C   3,H   7)          111.8248         0.317878   
     33. A(C   0,C   3,H   6)          110.0220         0.318145   
     34. A(C   0,C   4,H  10)          110.2565         0.319529   
     35. A(C   0,C   4,H   9)          110.2820         0.319567   
     36. A(H  10,C   4,H  11)          108.2687         0.284462   
     37. A(H   9,C   4,H  11)          108.3424         0.284494   
     38. A(C   0,C   4,H  11)          111.5929         0.319615   
     39. A(H   9,C   4,H  10)          107.9931         0.284421   
     40. D(H  13,C   1,C   0,O   2)   -179.8272         0.010187   
     41. D(H  13,C   1,C   0,C   3)     59.1734         0.010187   
     42. D(H  12,C   1,C   0,O   2)    -59.3831         0.010187   
     43. D(H  12,C   1,C   0,C   3)    179.6174         0.010187   
     44. D(H  12,C   1,C   0,C   4)     57.8783         0.010187   
     45. D(H  13,C   1,C   0,C   4)    -62.5657         0.010187   
     46. D(H   5,O   2,C   0,C   4)    179.7012         0.019215   
     47. D(H   5,O   2,C   0,C   3)     60.0883         0.019215   
     48. D(H   5,O   2,C   0,C   1)    -60.8374         0.019215   
     49. D(H   7,C   3,C   0,O   2)    179.2300         0.010197   
     50. D(H   7,C   3,C   0,C   1)    -59.8189         0.010197   
     51. D(H   6,C   3,C   0,C   4)   -177.3925         0.010197   
     52. D(H   6,C   3,C   0,O   2)    -60.0291         0.010197   
     53. D(H   7,C   3,C   0,C   4)     61.8665         0.010197   
     54. D(H   6,C   3,C   0,C   1)     60.9221         0.010197   
     55. D(H  10,C   4,C   0,C   3)     59.6317         0.010751   
     56. D(H  10,C   4,C   0,O   2)    -59.7253         0.010751   
     57. D(H  10,C   4,C   0,C   1)   -178.9365         0.010751   
     58. D(H   9,C   4,C   0,C   3)    178.8025         0.010751   
     59. D(H   9,C   4,C   0,O   2)     59.4456         0.010751   
     60. D(H   9,C   4,C   0,C   1)    -59.7656         0.010751   
    -----------------------------------------------------------------

Number of atoms                         .... 15
Number of degrees of freedom            .... 60


         *************************************************************
         *                GEOMETRY OPTIMIZATION CYCLE   1            *
         *************************************************************

         *************************************************************
         *                GEOMETRY OPTIMIZATION CYCLE   1            *
         *************************************************************
The first mode is                       ....   21
The number of degrees of freedom        ....   39

    -----------------------------------------------------------------
                    Redundant Internal Coordinates


    -----------------------------------------------------------------
         Definition                    Initial Value    Approx d2E/dq
    -----------------------------------------------------------------
      1. B(C   1,C   0)                  1.5431         0.356054   
      2. B(O   2,C   0)                  1.4244         0.493210   
      3. B(C   3,C   0)                  1.5429         0.356249   
      4. B(C   4,C   0)                  1.5352         0.366505   
      5. B(H   5,O   2)                  1.0302         0.401743   
      6. B(H   6,C   3)                  1.1090         0.335765   
      7. B(H   7,C   3)                  1.1105         0.334035   
      8. B(H   8,C   3)                  1.1093         0.335412   
      9. B(H   9,C   4)                  1.1093         0.335411   
================================================================================
                                        WARNINGS
                       Please study these warnings very carefully!
================================================================================

     10. B(H  10,C   4)                  1.1095         0.335166   
     11. B(H  11,C   4)                  1.1091         0.335722   
     12. B(H  12,C   1)                  1.1093         0.335395   
     13. B(H  13,C   1)                  1.1102         0.334294   
     14. B(H  14,C   1)                  1.1091         0.335641   
     15. A(C   1,C   0,O   2)          109.8448         0.375619   
     16. A(C   3,C   0,C   4)          110.3200         0.359247   
     17. A(O   2,C   0,C   3)          109.9250         0.375655   
     18. A(C   1,C   0,C   3)          109.8026         0.357483   
     19. A(O   2,C   0,C   4)          106.6715         0.377502   
     20. A(C   1,C   0,C   4)          110.2302         0.359214   
     21. A(H  12,C   1,H  13)          108.3194         0.284304   
     22. A(C   0,C   1,H  13)          111.8228         0.317889   
     23. A(H  12,C   1,H  14)          108.0402         0.284482   
     24. A(C   0,C   1,H  12)          110.0631         0.318060   
     25. A(H  13,C   1,H  14)          108.5217         0.284336   
     26. A(C   0,C   1,H  14)          109.9745         0.318098   
     27. A(C   0,O   2,H   5)          109.1495         0.340793   
     28. A(H   7,C   3,H   8)          108.2162         0.284272   
     29. A(H   6,C   3,H   8)          108.0246         0.284500   
     30. A(C   0,C   3,H   8)          110.0763         0.318091   
     31. A(H   6,C   3,H   7)          108.5755         0.284318   
     32. A(C   0,C   3,H   7)          111.8248         0.317878   
     33. A(C   0,C   3,H   6)          110.0220         0.318145   
     34. A(C   0,C   4,H  10)          110.2565         0.319529   
     35. A(C   0,C   4,H   9)          110.2820         0.319567   
     36. A(H  10,C   4,H  11)          108.2687         0.284462   
     37. A(H   9,C   4,H  11)          108.3424         0.284494   
     38. A(C   0,C   4,H  11)          111.5929         0.319615   
     39. A(H   9,C   4,H  10)          107.9931         0.284421   
     40. D(H  13,C   1,C   0,O   2)   -179.8272         0.010187   
     41. D(H  13,C   1,C   0,C   3)     59.1734         0.010187   
     42. D(H  12,C   1,C   0,O   2)    -59.3831         0.010187   
     43. D(H  12,C   1,C   0,C   3)    179.6174         0.010187   
     44. D(H  12,C   1,C   0,C   4)     57.8783         0.010187   
     45. D(H  13,C   1,C   0,C   4)    -62.5657         0.010187   
     46. D(H   5,O   2,C   0,C   4)    179.7012         0.019215   
     47. D(H   5,O   2,C   0,C   3)     60.0883         0.019215   
     48. D(H   5,O   2,C   0,C   1)    -60.8374         0.019215   
     49. D(H   7,C   3,C   0,O   2)    179.2300         0.010197   

WARNING: Geometry Optimization
  ===> : Switching off AutoStart
         For restart on a previous wavefunction, please use MOREAD
     50. D(H   7,C   3,C   0,C   1)    -59.8189         0.010197   
     51. D(H   6,C   3,C   0,C   4)   -177.3925         0.010197   
     52. D(H   6,C   3,C   0,O   2)    -60.0291         0.010197   
     53. D(H   7,C   3,C   0,C   4)     61.8665         0.010197   
     54. D(H   6,C   3,C   0,C   1)     60.9221         0.010197   
     55. D(H  10,C   4,C   0,C   3)     59.6317         0.010751   
     56. D(H  10,C   4,C   0,O   2)    -59.7253         0.010751   

     57. D(H  10,C   4,C   0,C   1)   -178.9365         0.010751   
     58. D(H   9,C   4,C   0,C   3)    178.8025         0.010751   
     59. D(H   9,C   4,C   0,O   2)     59.4456         0.010751   
     60. D(H   9,C   4,C   0,C   1)    -59.7656         0.010751   
    -----------------------------------------------------------------

Number of atoms                         .... 15
Number of degrees of freedom            .... 60

---------------------------------
CARTESIAN COORDINATES (ANGSTROEM)
---------------------------------
  C     -1.560017   -4.540842    0.334836
  C     -1.154727   -5.301926   -0.944841
  O     -1.211907   -3.165308    0.210058
  C     -0.845812   -5.155230    1.556745
  C     -3.082500   -4.594390    0.524623
  H     -0.192446   -3.084667    0.085424
  H      0.253439   -5.071628    1.435745
  H     -1.106382   -6.226190    1.691849
  H     -1.132076   -4.609636    2.479242
  H     -3.594817   -4.133082   -0.344484
  H     -3.376276   -4.031084    1.434263
  H     -3.444276   -5.637529    0.629695
  H     -1.671295   -4.867950   -1.825450
  H     -1.414610   -6.379600   -0.883876
  H     -0.061505   -5.211865   -1.109041

----------------------------
CARTESIAN COORDINATES (A.U.)
----------------------------
  NO LB      ZA    FRAG     MASS         X           Y           Z
   0 C     6.0000    0    12.011   -2.948005   -8.580948    0.632748
   1 C     6.0000    0    12.011   -2.182117  -10.019188   -1.785491
   2 O     8.0000    0    15.999   -2.290172   -5.981565    0.396951
   3 C     6.0000    0    12.011   -1.598354   -9.741972    2.941822
   4 C     6.0000    0    12.011   -5.825082   -8.682139    0.991393
   5 H     1.0000    0     1.008   -0.363671   -5.829175    0.161427
   6 H     1.0000    0     1.008    0.478931   -9.583988    2.713164
   7 H     1.0000    0     1.008   -2.090758  -11.765793    3.197131
   8 H     1.0000    0     1.008   -2.139314   -8.710949    4.685089
   9 H     1.0000    0     1.008   -6.793220   -7.810394   -0.650981
  10 H     1.0000    0     1.008   -6.380238   -7.617644    2.710363
  11 H     1.0000    0     1.008   -6.508739  -10.653387    1.189951
  12 H     1.0000    0     1.008   -3.158290   -9.199093   -3.449601
  13 H     1.0000    0     1.008   -2.673225  -12.055697   -1.670283
  14 H     1.0000    0     1.008   -0.116227   -9.848997   -2.095783

--------------------------------
INTERNAL COORDINATES (ANGSTROEM)
--------------------------------
 C      0   0   0     0.000000000000     0.00000000     0.00000000
 C      1   0   0     1.543075878235     0.00000000     0.00000000
 O      1   2   0     1.424375274817   109.84480935     0.00000000
---------------------------------
CARTESIAN COORDINATES (ANGSTROEM)
---------------------------------
  C     -1.560017   -4.540842    0.334836
  C     -1.154727   -5.301926   -0.944841
  O     -1.211907   -3.165308    0.210058
  C     -0.845812   -5.155230    1.556745
  C     -3.082500   -4.594390    0.524623
  H     -0.192446   -3.084667    0.085424
 C      1   2   3     1.542926678270   109.80263575   239.00055736
 C      1   2   3     1.535200839878   110.23020539   117.26145501
 H      3   1   2     1.030211990015   109.14952775   299.16258810
 H      4   1   2     1.109046658014   110.02204455    60.92205005
 H      4   1   2     1.110452546315   111.82476023   300.18111264
 H      4   1   2     1.109333295849   110.07632366   179.85711066
 H      5   1   2     1.109333399820   110.28199972   300.23435412
  H      0.253439   -5.071628    1.435745
  H     -1.106382   -6.226190    1.691849
  H     -1.132076   -4.609636    2.479242
  H     -3.594817   -4.133082   -0.344484
  H     -3.376276   -4.031084    1.434263
  H     -3.444276   -5.637529    0.629695
  H     -1.671295   -4.867950   -1.825450
  H     -1.414610   -6.379600   -0.883876
  H     -0.061505   -5.211865   -1.109041

----------------------------
CARTESIAN COORDINATES (A.U.)
----------------------------
  NO LB      ZA    FRAG     MASS         X           Y           Z
 H      5   1   2     1.109532739333   110.25654327   181.06347691
 H      5   1   2     1.109081515958   111.59293728    60.70407015
 H      2   1   3     1.109346619293   110.06307770   300.61687562
 H      2   1   3     1.110241914222   111.82281587   180.17280338
 H      2   1   3     1.109146903490   109.97448860    59.53358819

---------------------------
INTERNAL COORDINATES (A.U.)
---------------------------
 C      0   0   0     0.000000000000     0.00000000     0.00000000
 C      1   0   0     2.915990813724     0.00000000     0.00000000
 O      1   2   0     2.691679181334   109.84480935     0.00000000
   0 C     6.0000    0    12.011   -2.948005   -8.580948    0.632748
   1 C     6.0000    0    12.011   -2.182117  -10.019188   -1.785491
   2 O     8.0000    0    15.999   -2.290172   -5.981565    0.396951
   3 C     6.0000    0    12.011   -1.598354   -9.741972    2.941822
   4 C     6.0000    0    12.011   -5.825082   -8.682139    0.991393
   5 H     1.0000    0     1.008   -0.363671   -5.829175    0.161427
   6 H     1.0000    0     1.008    0.478931   -9.583988    2.713164
   7 H     1.0000    0     1.008   -2.090758  -11.765793    3.197131
 C      1   2   3     2.915708866652   109.80263575   239.00055736
 C      1   2   3     2.901109147935   110.23020539   117.26145501
 H      3   1   2     1.946818521011   109.14952775   299.16258810
 H      4   1   2     2.095794453386   110.02204455    60.92205005
 H      4   1   2     2.098451197250   111.82476023   300.18111264
 H      4   1   2     2.096336120396   110.07632366   179.85711066
 H      5   1   2     2.096336316871   110.28199972   300.23435412
 H      5   1   2     2.096713013959   110.25654327   181.06347691
 H      5   1   2     2.095860325354   111.59293728    60.70407015
   8 H     1.0000    0     1.008   -2.139314   -8.710949    4.685089
   9 H     1.0000    0     1.008   -6.793220   -7.810394   -0.650981
  10 H     1.0000    0     1.008   -6.380238   -7.617644    2.710363
  11 H     1.0000    0     1.008   -6.508739  -10.653387    1.189951
  12 H     1.0000    0     1.008   -3.158290   -9.199093   -3.449601
  13 H     1.0000    0     1.008   -2.673225  -12.055697   -1.670283
  14 H     1.0000    0     1.008   -0.116227   -9.848997   -2.095783

--------------------------------
INTERNAL COORDINATES (ANGSTROEM)
--------------------------------
 C      0   0   0     0.000000000000     0.00000000     0.00000000
 H      2   1   3     2.096361298056   110.06307770   300.61687562
 H      2   1   3     2.098053160280   111.82281587   180.17280338
 H      2   1   3     2.095983889884   109.97448860    59.53358819

 C      1   0   0     1.543075878235     0.00000000     0.00000000
 O      1   2   0     1.424375274817   109.84480935     0.00000000
 C      1   2   3     1.542926678270   109.80263575   239.00055736
 C      1   2   3     1.535200839878   110.23020539   117.26145501
 H      3   1   2     1.030211990015   109.14952775   299.16258810
 H      4   1   2     1.109046658014   110.02204455    60.92205005
 H      4   1   2     1.110452546315   111.82476023   300.18111264
 H      4   1   2     1.109333295849   110.07632366   179.85711066
 H      5   1   2     1.109333399820   110.28199972   300.23435412
 H      5   1   2     1.109532739333   110.25654327   181.06347691
 H      5   1   2     1.109081515958   111.59293728    60.70407015
 H      2   1   3     1.109346619293   110.06307770   300.61687562
 H      2   1   3     1.110241914222   111.82281587   180.17280338
 H      2   1   3     1.109146903490   109.97448860    59.53358819

---------------------------
INTERNAL COORDINATES (A.U.)
---------------------------
 C      0   0   0     0.000000000000     0.00000000     0.00000000
 C      1   0   0     2.915990813724     0.00000000     0.00000000
 O      1   2   0     2.691679181334   109.84480935     0.00000000
 C      1   2   3     2.915708866652   109.80263575   239.00055736
 C      1   2   3     2.901109147935   110.23020539   117.26145501
 H      3   1   2     1.946818521011   109.14952775   299.16258810
 H      4   1   2     2.095794453386   110.02204455    60.92205005
 H      4   1   2     2.098451197250   111.82476023   300.18111264
 H      4   1   2     2.096336120396   110.07632366   179.85711066
 H      5   1   2     2.096336316871   110.28199972   300.23435412
 H      5   1   2     2.096713013959   110.25654327   181.06347691
 H      5   1   2     2.095860325354   111.59293728    60.70407015
 H      2   1   3     2.096361298056   110.06307770   300.61687562
 H      2   1   3     2.098053160280   111.82281587   180.17280338
 H      2   1   3     2.095983889884   109.97448860    59.53358819

================================================================================
                                        WARNINGS
                       Please study these warnings very carefully!
================================================================================

---------------------
BASIS SET INFORMATION
---------------------
There are 3 groups of distinct atoms

 Group   1 Type C   : 8s5p1d contracted to 4s3p1d pattern {5111/311/1}
 Group   2 Type O   : 8s5p1d contracted to 4s3p1d pattern {5111/311/1}

WARNING: Geometry Optimization
  ===> : Switching off AutoStart
         For restart on a previous wavefunction, please use MOREAD
 Group   3 Type H   : 4s1p contracted to 2s1p pattern {31/1}

Atom   0C    basis set group =>   1
Atom   1C    basis set group =>   1
Atom   2O    basis set group =>   2
Atom   3C    basis set group =>   1
Atom   4C    basis set group =>   1
Atom   5H    basis set group =>   3
Atom   6H    basis set group =>   3
Atom   7H    basis set group =>   3
Atom   8H    basis set group =>   3
Atom   9H    basis set group =>   3
Atom  10H    basis set group =>   3
Atom  11H    basis set group =>   3
Atom  12H    basis set group =>   3

---------------------
BASIS SET INFORMATION
---------------------
There are 3 groups of distinct atoms

Atom  13H    basis set group =>   3
Atom  14H    basis set group =>   3
---------------------------------
AUXILIARY/J BASIS SET INFORMATION
---------------------------------
There are 3 groups of distinct atoms

 Group   1 Type C   : 8s5p1d contracted to 4s3p1d pattern {5111/311/1}
 Group   2 Type O   : 8s5p1d contracted to 4s3p1d pattern {5111/311/1}
 Group   1 Type C   : 12s5p4d2f1g contracted to 6s4p3d1f1g pattern {711111/2111/211/2/1}
 Group   2 Type O   : 12s5p4d2f1g contracted to 6s4p3d1f1g pattern {711111/2111/211/2/1}
 Group   3 Type H   : 4s1p contracted to 2s1p pattern {31/1}

Atom   0C    basis set group =>   1
Atom   1C    basis set group =>   1
Atom   2O    basis set group =>   2
Atom   3C    basis set group =>   1
Atom   4C    basis set group =>   1
Atom   5H    basis set group =>   3
Atom   6H    basis set group =>   3
Atom   7H    basis set group =>   3
Atom   8H    basis set group =>   3
Atom   9H    basis set group =>   3
Atom  10H    basis set group =>   3
Atom  11H    basis set group =>   3
Atom  12H    basis set group =>   3
Atom  13H    basis set group =>   3
Atom  14H    basis set group =>   3
 Group   3 Type H   : 5s2p1d contracted to 3s1p1d pattern {311/2/1}

Atom   0C    basis set group =>   1
Atom   1C    basis set group =>   1
Atom   2O    basis set group =>   2
Atom   3C    basis set group =>   1
Atom   4C    basis set group =>   1
Atom   5H    basis set group =>   3
Atom   6H    basis set group =>   3
Atom   7H    basis set group =>   3
Atom   8H    basis set group =>   3
Atom   9H    basis set group =>   3
Atom  10H    basis set group =>   3
Atom  11H    basis set group =>   3
Atom  12H    basis set group =>   3
Atom  13H    basis set group =>   3
Atom  14H    basis set group =>   3
---------------------------------
AUXILIARY/J BASIS SET INFORMATION
---------------------------------
There are 3 groups of distinct atoms

 Group   1 Type C   : 12s5p4d2f1g contracted to 6s4p3d1f1g pattern {711111/2111/211/2/1}
 Group   2 Type O   : 12s5p4d2f1g contracted to 6s4p3d1f1g pattern {711111/2111/211/2/1}
 Group   3 Type H   : 5s2p1d contracted to 3s1p1d pattern {311/2/1}

Atom   0C    basis set group =>   1
Atom   1C    basis set group =>   1
Atom   2O    basis set group =>   2
Atom   3C    basis set group =>   1
Atom   4C    basis set group =>   1
Atom   5H    basis set group =>   3
Atom   6H    basis set group =>   3
Atom   7H    basis set group =>   3
Atom   8H    basis set group =>   3
Atom   9H    basis set group =>   3
Atom  10H    basis set group =>   3
Atom  11H    basis set group =>   3
Atom  12H    basis set group =>   3
Atom  13H    basis set group =>   3
Atom  14H    basis set group =>   3
================================================================================
                                        WARNINGS
                       Please study these warnings very carefully!
================================================================================


WARNING: Geometry Optimization
  ===> : Switching off AutoStart
         For restart on a previous wavefunction, please use MOREAD

================================================================================
                                        WARNINGS
                       Please study these warnings very carefully!
================================================================================


WARNING: Geometry Optimization
  ===> : Switching off AutoStart
         For restart on a previous wavefunction, please use MOREAD

---------------------------------
CARTESIAN COORDINATES (ANGSTROEM)
---------------------------------
  C     -1.560017   -4.540842    0.334836
  C     -1.154727   -5.301926   -0.944841
  O     -1.211907   -3.165308    0.210058
  C     -0.845812   -5.155230    1.556745
  C     -3.082500   -4.594390    0.524623
  H     -0.192446   -3.084667    0.085424
  H      0.253439   -5.071628    1.435745
  H     -1.106382   -6.226190    1.691849
  H     -1.132076   -4.609636    2.479242
  H     -3.594817   -4.133082   -0.344484
  H     -3.376276   -4.031084    1.434263
  H     -3.444276   -5.637529    0.629695
  H     -1.671295   -4.867950   -1.825450
  H     -1.414610   -6.379600   -0.883876
  H     -0.061505   -5.211865   -1.109041

----------------------------
CARTESIAN COORDINATES (A.U.)
----------------------------
  NO LB      ZA    FRAG     MASS         X           Y           Z
   0 C     6.0000    0    12.011   -2.948005   -8.580948    0.632748
   1 C     6.0000    0    12.011   -2.182117  -10.019188   -1.785491
   2 O     8.0000    0    15.999   -2.290172   -5.981565    0.396951
   3 C     6.0000    0    12.011   -1.598354   -9.741972    2.941822
   4 C     6.0000    0    12.011   -5.825082   -8.682139    0.991393
   5 H     1.0000    0     1.008   -0.363671   -5.829175    0.161427
   6 H     1.0000    0     1.008    0.478931   -9.583988    2.713164
   7 H     1.0000    0     1.008   -2.090758  -11.765793    3.197131
   8 H     1.0000    0     1.008   -2.139314   -8.710949    4.685089
   9 H     1.0000    0     1.008   -6.793220   -7.810394   -0.650981
  10 H     1.0000    0     1.008   -6.380238   -7.617644    2.710363
  11 H     1.0000    0     1.008   -6.508739  -10.653387    1.189951
  12 H     1.0000    0     1.008   -3.158290   -9.199093   -3.449601
  13 H     1.0000    0     1.008   -2.673225  -12.055697   -1.670283
  14 H     1.0000    0     1.008   -0.116227   -9.848997   -2.095783

--------------------------------
INTERNAL COORDINATES (ANGSTROEM)
--------------------------------
 C      0   0   0     0.000000000000     0.00000000     0.00000000
 C      1   0   0     1.543075878235     0.00000000     0.00000000
 O      1   2   0     1.424375274817   109.84480935     0.00000000
 C      1   2   3     1.542926678270   109.80263575   239.00055736
 C      1   2   3     1.535200839878   110.23020539   117.26145501
 H      3   1   2     1.030211990015   109.14952775   299.16258810
 H      4   1   2     1.109046658014   110.02204455    60.92205005
 H      4   1   2     1.110452546315   111.82476023   300.18111264
 H      4   1   2     1.109333295849   110.07632366   179.85711066
 H      5   1   2     1.109333399820   110.28199972   300.23435412
 H      5   1   2     1.109532739333   110.25654327   181.06347691
 H      5   1   2     1.109081515958   111.59293728    60.70407015
 H      2   1   3     1.109346619293   110.06307770   300.61687562
 H      2   1   3     1.110241914222   111.82281587   180.17280338
 H      2   1   3     1.109146903490   109.97448860    59.53358819

---------------------------
INTERNAL COORDINATES (A.U.)
---------------------------
 C      0   0   0     0.000000000000     0.00000000     0.00000000
 C      1   0   0     2.915990813724     0.00000000     0.00000000
 O      1   2   0     2.691679181334   109.84480935     0.00000000
 C      1   2   3     2.915708866652   109.80263575   239.00055736
 C      1   2   3     2.901109147935   110.23020539   117.26145501
 H      3   1   2     1.946818521011   109.14952775   299.16258810
 H      4   1   2     2.095794453386   110.02204455    60.92205005
 H      4   1   2     2.098451197250   111.82476023   300.18111264
 H      4   1   2     2.096336120396   110.07632366   179.85711066
 H      5   1   2     2.096336316871   110.28199972   300.23435412
 H      5   1   2     2.096713013959   110.25654327   181.06347691
 H      5   1   2     2.095860325354   111.59293728    60.70407015
 H      2   1   3     2.096361298056   110.06307770   300.61687562
 H      2   1   3     2.098053160280   111.82281587   180.17280338
================================================================================
                                        WARNINGS
                       Please study these warnings very carefully!
================================================================================


WARNING: Geometry Optimization
  ===> : Switching off AutoStart
         For restart on a previous wavefunction, please use MOREAD

================================================================================
                                        WARNINGS
                       Please study these warnings very carefully!
================================================================================


WARNING: Geometry Optimization
  ===> : Switching off AutoStart
         For restart on a previous wavefunction, please use MOREAD

[file orca_main/main_driver_opt1.cpp, line 1412]: Cannot read GBW-INFO

================================================================================
                                        WARNINGS
                       Please study these warnings very carefully!
================================================================================


WARNING: Geometry Optimization
  ===> : Switching off AutoStart
         For restart on a previous wavefunction, please use MOREAD

[file orca_main/main_driver_opt1.cpp, line 1508]: Error (ORCA_GSTEP): GBW file contains no geometry information job.gbw

 H      2   1   3     2.095983889884   109.97448860    59.53358819

---------------------
BASIS SET INFORMATION
---------------------
There are 3 groups of distinct atoms

 Group   1 Type C   : 8s5p1d contracted to 4s3p1d pattern {5111/311/1}
 Group   2 Type O   : 8s5p1d contracted to 4s3p1d pattern {5111/311/1}
 Group   3 Type H   : 4s1p contracted to 2s1p pattern {31/1}

Atom   0C    basis set group =>   1
Atom   1C    basis set group =>   1
Atom   2O    basis set group =>   2
Atom   3C    basis set group =>   1
Atom   4C    basis set group =>   1
Atom   5H    basis set group =>   3
Atom   6H    basis set group =>   3
Atom   7H    basis set group =>   3
Atom   8H    basis set group =>   3
Atom   9H    basis set group =>   3
Atom  10H    basis set group =>   3
Atom  11H    basis set group =>   3
Atom  12H    basis set group =>   3
Atom  13H    basis set group =>   3
Atom  14H    basis set group =>   3
---------------------------------
AUXILIARY/J BASIS SET INFORMATION
---------------------------------
There are 3 groups of distinct atoms

 Group   1 Type C   : 12s5p4d2f1g contracted to 6s4p3d1f1g pattern {711111/2111/211/2/1}
 Group   2 Type O   : 12s5p4d2f1g contracted to 6s4p3d1f1g pattern {711111/2111/211/2/1}
 Group   3 Type H   : 5s2p1d contracted to 3s1p1d pattern {311/2/1}

Atom   0C    basis set group =>   1
Atom   1C    basis set group =>   1
Atom   2O    basis set group =>   2
Atom   3C    basis set group =>   1
Atom   4C    basis set group =>   1
Atom   5H    basis set group =>   3
Atom   6H    basis set group =>   3
Atom   7H    basis set group =>   3
Atom   8H    basis set group =>   3
Atom   9H    basis set group =>   3
Atom  10H    basis set group =>   3
Atom  11H    basis set group =>   3
Atom  12H    basis set group =>   3
Atom  13H    basis set group =>   3
Atom  14H    basis set group =>   3
================================================================================
                                       INPUT FILE
================================================================================
NAME = job.inp
|  1> !pbe ma-def2-SVP opt SMD(Acetonitrile)  Freq
|  2> %maxcore 3000
|  3> %pal
|  4> nprocs 4
|  5> end
|  6> # MECP_BC
|  7> 
|  8> *xyz 0 1
|  9> C        -1.56001723      -4.54084206       0.33483586 
| 10> C        -1.15472662      -5.30192614      -0.94484133 
| 11> O        -1.21190703      -3.16530776       0.21005765 
| 12> C        -0.84581232      -5.15522957       1.55674505 
| 13> C        -3.08250046      -4.59438992       0.52462274 
| 14> H        -0.19244631      -3.08466673       0.08542375 
| 15> H         0.25343934      -5.07162809       1.43574476 
| 16> H        -1.10638165      -6.22618961       1.69184899 
| 17> H        -1.13207626      -4.60963583       2.47924209 
| 18> H        -3.59481740      -4.13308239      -0.34448445 
| 19> H        -3.37627649      -4.03108358       1.43426251 
| 20> H        -3.44427633      -5.63752937       0.62969470 
| 21> H        -1.67129517      -4.86795044      -1.82545018 
| 22> H        -1.41460979      -6.37960005      -0.88387585 
| 23> H        -0.06150458      -5.21186495      -1.10904062 
| 24> *
| 25> 
| 26>                          ****END OF INPUT****
================================================================================

                       *****************************
                       * Geometry Optimization Run *
                       *****************************

Geometry optimization settings:
Update method            Update   .... BFGS
Choice of coordinates    CoordSys .... (2022) Redundant Internals
Initial Hessian          InHess   .... Almloef's Model
Max. no of cycles        MaxIter  .... 50

Convergence Tolerances:
Energy Change            TolE     ....  5.0000e-06 Eh
Max. Gradient            TolMAXG  ....  3.0000e-04 Eh/bohr
RMS Gradient             TolRMSG  ....  1.0000e-04 Eh/bohr
Max. Displacement        TolMAXD  ....  4.0000e-03 bohr
RMS Displacement         TolRMSD  ....  2.0000e-03 bohr
Strict Convergence                .... False

------------------------------------------------------------------------------
                        ORCA OPTIMIZATION COORDINATE SETUP
------------------------------------------------------------------------------

The optimization will be done in redundant internal coordinates (2022)
Making redundant internal coordinates   ...  (2022 redundants) done
Evaluating the initial hessian          ...  (Almloef) done
Evaluating the coordinates              ...  done
Calculating the B-matrix                .... done
Calculating the G-matrix                .... done
Diagonalizing the G-matrix              .... done
The first mode is                       ....   21
The number of degrees of freedom        ....   39

    -----------------------------------------------------------------
                    Redundant Internal Coordinates


    -----------------------------------------------------------------
         Definition                    Initial Value    Approx d2E/dq
    -----------------------------------------------------------------
      1. B(C   1,C   0)                  1.5431         0.356054   
      2. B(O   2,C   0)                  1.4244         0.493210   
      3. B(C   3,C   0)                  1.5429         0.356249   
      4. B(C   4,C   0)                  1.5352         0.366505   
      5. B(H   5,O   2)                  1.0302         0.401743   
      6. B(H   6,C   3)                  1.1090         0.335765   
      7. B(H   7,C   3)                  1.1105         0.334035   
      8. B(H   8,C   3)                  1.1093         0.335412   
      9. B(H   9,C   4)                  1.1093         0.335411   
     10. B(H  10,C   4)                  1.1095         0.335166   
     11. B(H  11,C   4)                  1.1091         0.335722   
     12. B(H  12,C   1)                  1.1093         0.335395   
     13. B(H  13,C   1)                  1.1102         0.334294   
     14. B(H  14,C   1)                  1.1091         0.335641   
     15. A(C   1,C   0,O   2)          109.8448         0.375619   
     16. A(C   3,C   0,C   4)          110.3200         0.359247   
     17. A(O   2,C   0,C   3)          109.9250         0.375655   
     18. A(C   1,C   0,C   3)          109.8026         0.357483   
     19. A(O   2,C   0,C   4)          106.6715         0.377502   
     20. A(C   1,C   0,C   4)          110.2302         0.359214   
     21. A(H  12,C   1,H  13)          108.3194         0.284304   
     22. A(C   0,C   1,H  13)          111.8228         0.317889   
     23. A(H  12,C   1,H  14)          108.0402         0.284482   
     24. A(C   0,C   1,H  12)          110.0631         0.318060   
     25. A(H  13,C   1,H  14)          108.5217         0.284336   
     26. A(C   0,C   1,H  14)          109.9745         0.318098   
     27. A(C   0,O   2,H   5)          109.1495         0.340793   
     28. A(H   7,C   3,H   8)          108.2162         0.284272   
     29. A(H   6,C   3,H   8)          108.0246         0.284500   
     30. A(C   0,C   3,H   8)          110.0763         0.318091   
     31. A(H   6,C   3,H   7)          108.5755         0.284318   
     32. A(C   0,C   3,H   7)          111.8248         0.317878   
     33. A(C   0,C   3,H   6)          110.0220         0.318145   
     34. A(C   0,C   4,H  10)          110.2565         0.319529   
     35. A(C   0,C   4,H   9)          110.2820         0.319567   
     36. A(H  10,C   4,H  11)          108.2687         0.284462   
     37. A(H   9,C   4,H  11)          108.3424         0.284494   
     38. A(C   0,C   4,H  11)          111.5929         0.319615   
     39. A(H   9,C   4,H  10)          107.9931         0.284421   
     40. D(H  13,C   1,C   0,O   2)   -179.8272         0.010187   
     41. D(H  13,C   1,C   0,C   3)     59.1734         0.010187   
     42. D(H  12,C   1,C   0,O   2)    -59.3831         0.010187   
     43. D(H  12,C   1,C   0,C   3)    179.6174         0.010187   
     44. D(H  12,C   1,C   0,C   4)     57.8783         0.010187   
     45. D(H  13,C   1,C   0,C   4)    -62.5657         0.010187   
     46. D(H   5,O   2,C   0,C   4)    179.7012         0.019215   
     47. D(H   5,O   2,C   0,C   3)     60.0883         0.019215   
     48. D(H   5,O   2,C   0,C   1)    -60.8374         0.019215   
     49. D(H   7,C   3,C   0,O   2)    179.2300         0.010197   
     50. D(H   7,C   3,C   0,C   1)    -59.8189         0.010197   
     51. D(H   6,C   3,C   0,C   4)   -177.3925         0.010197   
     52. D(H   6,C   3,C   0,O   2)    -60.0291         0.010197   
     53. D(H   7,C   3,C   0,C   4)     61.8665         0.010197   
     54. D(H   6,C   3,C   0,C   1)     60.9221         0.010197   
     55. D(H  10,C   4,C   0,C   3)     59.6317         0.010751   
     56. D(H  10,C   4,C   0,O   2)    -59.7253         0.010751   
     57. D(H  10,C   4,C   0,C   1)   -178.9365         0.010751   
     58. D(H   9,C   4,C   0,C   3)    178.8025         0.010751   
     59. D(H   9,C   4,C   0,O   2)     59.4456         0.010751   
     60. D(H   9,C   4,C   0,C   1)    -59.7656         0.010751   
    -----------------------------------------------------------------

Number of atoms                         .... 15
Number of degrees of freedom            .... 60


         *************************************************************
         *                GEOMETRY OPTIMIZATION CYCLE   1            *
         *************************************************************
---------------------------------
CARTESIAN COORDINATES (ANGSTROEM)
---------------------------------
  C     -1.560017   -4.540842    0.334836
  C     -1.154727   -5.301926   -0.944841
  O     -1.211907   -3.165308    0.210058
  C     -0.845812   -5.155230    1.556745
  C     -3.082500   -4.594390    0.524623
  H     -0.192446   -3.084667    0.085424
  H      0.253439   -5.071628    1.435745
  H     -1.106382   -6.226190    1.691849
  H     -1.132076   -4.609636    2.479242
  H     -3.594817   -4.133082   -0.344484
  H     -3.376276   -4.031084    1.434263
  H     -3.444276   -5.637529    0.629695
  H     -1.671295   -4.867950   -1.825450
  H     -1.414610   -6.379600   -0.883876
  H     -0.061505   -5.211865   -1.109041

----------------------------
CARTESIAN COORDINATES (A.U.)
----------------------------
  NO LB      ZA    FRAG     MASS         X           Y           Z
   0 C     6.0000    0    12.011   -2.948005   -8.580948    0.632748
   1 C     6.0000    0    12.011   -2.182117  -10.019188   -1.785491
   2 O     8.0000    0    15.999   -2.290172   -5.981565    0.396951
   3 C     6.0000    0    12.011   -1.598354   -9.741972    2.941822
   4 C     6.0000    0    12.011   -5.825082   -8.682139    0.991393
   5 H     1.0000    0     1.008   -0.363671   -5.829175    0.161427
   6 H     1.0000    0     1.008    0.478931   -9.583988    2.713164
   7 H     1.0000    0     1.008   -2.090758  -11.765793    3.197131
   8 H     1.0000    0     1.008   -2.139314   -8.710949    4.685089
   9 H     1.0000    0     1.008   -6.793220   -7.810394   -0.650981
  10 H     1.0000    0     1.008   -6.380238   -7.617644    2.710363
  11 H     1.0000    0     1.008   -6.508739  -10.653387    1.189951
  12 H     1.0000    0     1.008   -3.158290   -9.199093   -3.449601
  13 H     1.0000    0     1.008   -2.673225  -12.055697   -1.670283
  14 H     1.0000    0     1.008   -0.116227   -9.848997   -2.095783

--------------------------------
INTERNAL COORDINATES (ANGSTROEM)
--------------------------------
 C      0   0   0     0.000000000000     0.00000000     0.00000000
 C      1   0   0     1.543075878235     0.00000000     0.00000000
 O      1   2   0     1.424375274817   109.84480935     0.00000000
 C      1   2   3     1.542926678270   109.80263575   239.00055736
 C      1   2   3     1.535200839878   110.23020539   117.26145501
 H      3   1   2     1.030211990015   109.14952775   299.16258810
 H      4   1   2     1.109046658014   110.02204455    60.92205005
 H      4   1   2     1.110452546315   111.82476023   300.18111264
 H      4   1   2     1.109333295849   110.07632366   179.85711066
 H      5   1   2     1.109333399820   110.28199972   300.23435412
 H      5   1   2     1.109532739333   110.25654327   181.06347691
 H      5   1   2     1.109081515958   111.59293728    60.70407015
 H      2   1   3     1.109346619293   110.06307770   300.61687562
 H      2   1   3     1.110241914222   111.82281587   180.17280338
 H      2   1   3     1.109146903490   109.97448860    59.53358819

---------------------------
INTERNAL COORDINATES (A.U.)
---------------------------
 C      0   0   0     0.000000000000     0.00000000     0.00000000
 C      1   0   0     2.915990813724     0.00000000     0.00000000
 O      1   2   0     2.691679181334   109.84480935     0.00000000
 C      1   2   3     2.915708866652   109.80263575   239.00055736
 C      1   2   3     2.901109147935   110.23020539   117.26145501
 H      3   1   2     1.946818521011   109.14952775   299.16258810
 H      4   1   2     2.095794453386   110.02204455    60.92205005
 H      4   1   2     2.098451197250   111.82476023   300.18111264
 H      4   1   2     2.096336120396   110.07632366   179.85711066
 H      5   1   2     2.096336316871   110.28199972   300.23435412
 H      5   1   2     2.096713013959   110.25654327   181.06347691
 H      5   1   2     2.095860325354   111.59293728    60.70407015
 H      2   1   3     2.096361298056   110.06307770   300.61687562
 H      2   1   3     2.098053160280   111.82281587   180.17280338
 H      2   1   3     2.095983889884   109.97448860    59.53358819

---------------------
BASIS SET INFORMATION
---------------------
There are 3 groups of distinct atoms

 Group   1 Type C   : 8s5p1d contracted to 4s3p1d pattern {5111/311/1}
 Group   2 Type O   : 8s5p1d contracted to 4s3p1d pattern {5111/311/1}
 Group   3 Type H   : 4s1p contracted to 2s1p pattern {31/1}

Atom   0C    basis set group =>   1
Atom   1C    basis set group =>   1
Atom   2O    basis set group =>   2
Atom   3C    basis set group =>   1
Atom   4C    basis set group =>   1
Atom   5H    basis set group =>   3
Atom   6H    basis set group =>   3
Atom   7H    basis set group =>   3
Atom   8H    basis set group =>   3
Atom   9H    basis set group =>   3
Atom  10H    basis set group =>   3
Atom  11H    basis set group =>   3
Atom  12H    basis set group =>   3
Atom  13H    basis set group =>   3
Atom  14H    basis set group =>   3
---------------------------------
AUXILIARY/J BASIS SET INFORMATION
---------------------------------
There are 3 groups of distinct atoms

 Group   1 Type C   : 12s5p4d2f1g contracted to 6s4p3d1f1g pattern {711111/2111/211/2/1}
 Group   2 Type O   : 12s5p4d2f1g contracted to 6s4p3d1f1g pattern {711111/2111/211/2/1}
 Group   3 Type H   : 5s2p1d contracted to 3s1p1d pattern {311/2/1}

Atom   0C    basis set group =>   1
Atom   1C    basis set group =>   1
Atom   2O    basis set group =>   2
Atom   3C    basis set group =>   1
Atom   4C    basis set group =>   1
Atom   5H    basis set group =>   3
Atom   6H    basis set group =>   3
Atom   7H    basis set group =>   3
Atom   8H    basis set group =>   3
Atom   9H    basis set group =>   3
Atom  10H    basis set group =>   3
Atom  11H    basis set group =>   3
Atom  12H    basis set group =>   3
Atom  13H    basis set group =>   3
Atom  14H    basis set group =>   3


           ************************************************************
           *        Program running with 4 parallel MPI-processes     *
           *              working on a common directory               *
           ************************************************************
------------------------------------------------------------------------------
                             ORCA STARTUP CALCULATIONS
                           -- RI-GTO INTEGRALS CHOSEN --
------------------------------------------------------------------------------
------------------------------------------------------------------------------
                   ___                                                        
                  /   \      - P O W E R E D   B Y -                         
                 /     \                                                     
                 |  |  |   _    _      __       _____    __    __             
                 |  |  |  | |  | |    /  \     |  _  \  |  |  /  |          
                  \  \/   | |  | |   /    \    | | | |  |  | /  /          
                 / \  \   | |__| |  /  /\  \   | |_| |  |  |/  /          
                |  |  |   |  __  | /  /__\  \  |    /   |      \           
                |  |  |   | |  | | |   __   |  |    \   |  |\   \          
                \     /   | |  | | |  |  |  |  | |\  \  |  | \   \       
                 \___/    |_|  |_| |__|  |__|  |_| \__\ |__|  \__/        
                                                                              
                      - O R C A' S   B I G   F R I E N D -                    
                                      &                                       
                       - I N T E G R A L  F E E D E R -                       
                                                                              
 v1 FN, 2020, v2 2021, v3 2022-2024                                           
------------------------------------------------------------------------------




           ************************************************************
           *        Program running with 4 parallel MPI-processes     *
           *              working on a common directory               *
           ************************************************************
------------------------------------------------------------------------------
                             ORCA STARTUP CALCULATIONS
                           -- RI-GTO INTEGRALS CHOSEN --
------------------------------------------------------------------------------
------------------------------------------------------------------------------
                   ___                                                        
                  /   \      - P O W E R E D   B Y -                         
                 /     \                                                     
                 |  |  |   _    _      __       _____    __    __             
                 |  |  |  | |  | |    /  \     |  _  \  |  |  /  |          
                  \  \/   | |  | |   /    \    | | | |  |  | /  /          
                 / \  \   | |__| |  /  /\  \   | |_| |  |  |/  /          
                |  |  |   |  __  | /  /__\  \  |    /   |      \           
                |  |  |   | |  | | |   __   |  |    \   |  |\   \          
                \     /   | |  | | |  |  |  |  | |\  \  |  | \   \       
                 \___/    |_|  |_| |__|  |__|  |_| \__\ |__|  \__/        
                                                                              
                      - O R C A' S   B I G   F R I E N D -                    
                                      &                                       
                       - I N T E G R A L  F E E D E R -                       
                                                                              
 v1 FN, 2020, v2 2021, v3 2022-2024                                           
------------------------------------------------------------------------------




           ************************************************************
           *        Program running with 4 parallel MPI-processes     *
           *              working on a common directory               *
           ************************************************************
------------------------------------------------------------------------------
                             ORCA STARTUP CALCULATIONS
                           -- RI-GTO INTEGRALS CHOSEN --
------------------------------------------------------------------------------
------------------------------------------------------------------------------
                   ___                                                        
                  /   \      - P O W E R E D   B Y -                         
                 /     \                                                     
                 |  |  |   _    _      __       _____    __    __             
                 |  |  |  | |  | |    /  \     |  _  \  |  |  /  |          
                  \  \/   | |  | |   /    \    | | | |  |  | /  /          
                 / \  \   | |__| |  /  /\  \   | |_| |  |  |/  /          
                |  |  |   |  __  | /  /__\  \  |    /   |      \           
                |  |  |   | |  | | |   __   |  |    \   |  |\   \          
                \     /   | |  | | |  |  |  |  | |\  \  |  | \   \       
                 \___/    |_|  |_| |__|  |__|  |_| \__\ |__|  \__/        
                                                                              
                      - O R C A' S   B I G   F R I E N D -                    
                                      &                                       
                       - I N T E G R A L  F E E D E R -                       
                                                                              
 v1 FN, 2020, v2 2021, v3 2022-2024                                           
------------------------------------------------------------------------------


----------------------
SHARK INTEGRAL PACKAGE
----------------------

Number of atoms                             ...     15
Number of basis functions                   ...    140
Number of shells                            ...     70
Maximum angular momentum                    ...      2
Integral batch strategy                     ... SHARK/LIBINT Hybrid
RI-J (if used) integral strategy            ... SPLIT-RIJ (Revised 2003 algorithm where possible)
Printlevel                                  ...      1
Contraction scheme used                     ... SEGMENTED contraction
Prescreening option                         ... SCHWARTZ
   Thresh                                   ... 2.500e-11
   Tcut                                     ... 2.500e-12
   Tpresel                                  ... 2.500e-12 
Coulomb Range Separation                    ... NOT USED
Exchange Range Separation                   ... NOT USED
Multipole approximations                    ... NOT USED
Finite Nucleus Model                        ... NOT USED
CABS basis                                  ... NOT available
Auxiliary Coulomb fitting basis             ... AVAILABLE
   # of basis functions in Aux-J            ...    355
   # of shells in Aux-J                     ...    125
   Maximum angular momentum in Aux-J        ...      4
Auxiliary J/K fitting basis                 ... NOT available
Auxiliary Correlation fitting basis         ... NOT available
Auxiliary 'external' fitting basis          ... NOT available

Checking pre-screening integrals            ... done (  0.0 sec) Dimension = 70
Check shell pair data                       ... done (  0.0 sec)
Shell pair information
Shell pair cut-off parameter TPreSel        ...   2.5e-12
Total number of shell pairs                 ...      2485
Shell pairs after pre-screening             ...      2470
Total number of primitive shell pairs       ...      7355
Primitive shell pairs kept                  ...      6103
          la=0 lb=0:    814 shell pairs
          la=1 lb=0:    991 shell pairs
          la=1 lb=1:    325 shell pairs
          la=2 lb=0:    200 shell pairs
          la=2 lb=1:    125 shell pairs
          la=2 lb=2:     15 shell pairs

----------------------
SHARK INTEGRAL PACKAGE
----------------------

Number of atoms                             ...     15
Number of basis functions                   ...    140
Number of shells                            ...     70
Maximum angular momentum                    ...      2
Integral batch strategy                     ... SHARK/LIBINT Hybrid
RI-J (if used) integral strategy            ... SPLIT-RIJ (Revised 2003 algorithm where possible)
Printlevel                                  ...      1
Contraction scheme used                     ... SEGMENTED contraction
Prescreening option                         ... SCHWARTZ
   Thresh                                   ... 2.500e-11
   Tcut                                     ... 2.500e-12
   Tpresel                                  ... 2.500e-12 
Coulomb Range Separation                    ... NOT USED
Exchange Range Separation                   ... NOT USED
Multipole approximations                    ... NOT USED
Finite Nucleus Model                        ... NOT USED
CABS basis                                  ... NOT available
Auxiliary Coulomb fitting basis             ... AVAILABLE
   # of basis functions in Aux-J            ...    355
   # of shells in Aux-J                     ...    125
   Maximum angular momentum in Aux-J        ...      4
Auxiliary J/K fitting basis                 ... NOT available
Auxiliary Correlation fitting basis         ... NOT available
Auxiliary 'external' fitting basis          ... NOT available

Checking pre-screening integrals            ... done (  0.0 sec) Dimension = 70
Check shell pair data                       ... done (  0.0 sec)
Shell pair information
Shell pair cut-off parameter TPreSel        ...   2.5e-12
Total number of shell pairs                 ...      2485
Shell pairs after pre-screening             ...      2470
Total number of primitive shell pairs       ...      7355
Primitive shell pairs kept                  ...      6103
          la=0 lb=0:    814 shell pairs
          la=1 lb=0:    991 shell pairs
          la=1 lb=1:    325 shell pairs
          la=2 lb=0:    200 shell pairs
          la=2 lb=1:    125 shell pairs
          la=2 lb=2:     15 shell pairs

Calculating one electron integrals          ... done (  0.0 sec)
Calculating one electron integrals          ... done (  0.0 sec)
----------------------
SHARK INTEGRAL PACKAGE
----------------------

Number of atoms                             ...     15
Number of basis functions                   ...    140
Number of shells                            ...     70
Maximum angular momentum                    ...      2
Integral batch strategy                     ... SHARK/LIBINT Hybrid
RI-J (if used) integral strategy            ... SPLIT-RIJ (Revised 2003 algorithm where possible)
Printlevel                                  ...      1
Contraction scheme used                     ... SEGMENTED contraction
Prescreening option                         ... SCHWARTZ
   Thresh                                   ... 2.500e-11
   Tcut                                     ... 2.500e-12
   Tpresel                                  ... 2.500e-12 
Coulomb Range Separation                    ... NOT USED
Exchange Range Separation                   ... NOT USED
Multipole approximations                    ... NOT USED
Finite Nucleus Model                        ... NOT USED
CABS basis                                  ... NOT available
Auxiliary Coulomb fitting basis             ... AVAILABLE
   # of basis functions in Aux-J            ...    355
   # of shells in Aux-J                     ...    125
   Maximum angular momentum in Aux-J        ...      4
Auxiliary J/K fitting basis                 ... NOT available
Auxiliary Correlation fitting basis         ... NOT available
Auxiliary 'external' fitting basis          ... NOT available

Checking pre-screening integrals            ... done (  0.0 sec) Dimension = 70
Check shell pair data                       ... done (  0.0 sec)
Shell pair information
Shell pair cut-off parameter TPreSel        ...   2.5e-12
Total number of shell pairs                 ...      2485
Shell pairs after pre-screening             ...      2470
Total number of primitive shell pairs       ...      7355
Primitive shell pairs kept                  ...      6103
          la=0 lb=0:    814 shell pairs
          la=1 lb=0:    991 shell pairs
          la=1 lb=1:    325 shell pairs
          la=2 lb=0:    200 shell pairs
          la=2 lb=1:    125 shell pairs
          la=2 lb=2:     15 shell pairs



           ************************************************************
           *        Program running with 4 parallel MPI-processes     *
           *              working on a common directory               *
           ************************************************************
------------------------------------------------------------------------------
                             ORCA STARTUP CALCULATIONS
                           -- RI-GTO INTEGRALS CHOSEN --
------------------------------------------------------------------------------
Calculating one electron integrals          ... done (  0.0 sec)
------------------------------------------------------------------------------
                   ___                                                        
                  /   \      - P O W E R E D   B Y -                         
                 /     \                                                     
                 |  |  |   _    _      __       _____    __    __             
                 |  |  |  | |  | |    /  \     |  _  \  |  |  /  |          
                  \  \/   | |  | |   /    \    | | | |  |  | /  /          
                 / \  \   | |__| |  /  /\  \   | |_| |  |  |/  /          
                |  |  |   |  __  | /  /__\  \  |    /   |      \           
                |  |  |   | |  | | |   __   |  |    \   |  |\   \          
                \     /   | |  | | |  |  |  |  | |\  \  |  | \   \       
                 \___/    |_|  |_| |__|  |__|  |_| \__\ |__|  \__/        
                                                                              
                      - O R C A' S   B I G   F R I E N D -                    
                                      &                                       
                       - I N T E G R A L  F E E D E R -                       
                                                                              
 v1 FN, 2020, v2 2021, v3 2022-2024                                           
------------------------------------------------------------------------------


Calculating RI/J V-Matrix + Cholesky decomp.... done (  0.0 sec)
Calculating Nuclear repulsion               ... done (  0.0 sec) ENN=    197.822901801746 Eh

Diagonalization of the overlap matrix:
Calculating RI/J V-Matrix + Cholesky decomp.... done (  0.0 sec)
Calculating Nuclear repulsion               ... done (  0.0 sec) ENN=    197.822901801746 Eh
Smallest eigenvalue                        ... 8.849e-05
Time for diagonalization                   ...    0.004 sec
Threshold for overlap eigenvalues          ... 1.000e-07
Number of eigenvalues below threshold      ... 0
Time for construction of square roots      ...    0.014 sec
Total time needed                          ...    0.019 sec

-------------------
DFT GRID GENERATION
-------------------

General Integration Accuracy     IntAcc      ... 4.388
Radial Grid Type                 RadialGrid  ... OptM3 with GC (2021)
Angular Grid (max. ang.)         AngularGrid ... 4 (Lebedev-302)
Angular grid pruning method      GridPruning ... 4 (adaptive)
Weight generation scheme         WeightScheme... mBecke (2022)
Basis function cutoff            BFCut       ... 1.0000e-11
Integration weight cutoff        WCut        ... 1.0000e-14
Partially contracted basis set               ... off
Rotationally invariant grid construction     ... off
Angular grids for H and He will be reduced by one unit
Diffuse basis detected: some atoms will have their outermost
                        angular grid increased by 1.

Calculating RI/J V-Matrix + Cholesky decomp.... done (  0.0 sec)
Calculating Nuclear repulsion               ... done (  0.0 sec) ENN=    197.822901801746 Eh

Diagonalization of the overlap matrix:

Diagonalization of the overlap matrix:
----------------------
SHARK INTEGRAL PACKAGE
----------------------

Number of atoms                             ...     15
Number of basis functions                   ...    140
Number of shells                            ...     70
Maximum angular momentum                    ...      2
Integral batch strategy                     ... SHARK/LIBINT Hybrid
RI-J (if used) integral strategy            ... SPLIT-RIJ (Revised 2003 algorithm where possible)
Printlevel                                  ...      1
Contraction scheme used                     ... SEGMENTED contraction
Prescreening option                         ... SCHWARTZ
   Thresh                                   ... 2.500e-11
   Tcut                                     ... 2.500e-12
   Tpresel                                  ... 2.500e-12 
Coulomb Range Separation                    ... NOT USED
Exchange Range Separation                   ... NOT USED
Multipole approximations                    ... NOT USED
Finite Nucleus Model                        ... NOT USED
CABS basis                                  ... NOT available
Auxiliary Coulomb fitting basis             ... AVAILABLE
   # of basis functions in Aux-J            ...    355
   # of shells in Aux-J                     ...    125
   Maximum angular momentum in Aux-J        ...      4
Auxiliary J/K fitting basis                 ... NOT available
Auxiliary Correlation fitting basis         ... NOT available
Auxiliary 'external' fitting basis          ... NOT available

Checking pre-screening integrals            ... done (  0.0 sec) Dimension = 70
Check shell pair data                       ... done (  0.0 sec)
Shell pair information
Shell pair cut-off parameter TPreSel        ...   2.5e-12
Total number of shell pairs                 ...      2485
Shell pairs after pre-screening             ...      2470
Total number of primitive shell pairs       ...      7355
Primitive shell pairs kept                  ...      6103
          la=0 lb=0:    814 shell pairs
          la=1 lb=0:    991 shell pairs
          la=1 lb=1:    325 shell pairs
          la=2 lb=0:    200 shell pairs
          la=2 lb=1:    125 shell pairs
          la=2 lb=2:     15 shell pairs

Smallest eigenvalue                        ... 8.849e-05
Time for diagonalization                   ...    0.004 sec
Threshold for overlap eigenvalues          ... 1.000e-07
Number of eigenvalues below threshold      ... 0
Calculating one electron integrals          ... done (  0.0 sec)
Time for construction of square roots      ...    0.004 sec
Total time needed                          ...    0.037 sec

-------------------
DFT GRID GENERATION
-------------------

General Integration Accuracy     IntAcc      ... 4.388
Radial Grid Type                 RadialGrid  ... OptM3 with GC (2021)
Angular Grid (max. ang.)         AngularGrid ... 4 (Lebedev-302)
Angular grid pruning method      GridPruning ... 4 (adaptive)
Weight generation scheme         WeightScheme... mBecke (2022)
Basis function cutoff            BFCut       ... 1.0000e-11
Integration weight cutoff        WCut        ... 1.0000e-14
Partially contracted basis set               ... off
Rotationally invariant grid construction     ... off
Angular grids for H and He will be reduced by one unit
Diffuse basis detected: some atoms will have their outermost
                        angular grid increased by 1.

Calculating RI/J V-Matrix + Cholesky decomp.... done (  0.0 sec)
Calculating Nuclear repulsion               ... done (  0.0 sec) ENN=    197.822901801746 Eh

Diagonalization of the overlap matrix:
Smallest eigenvalue                        ... 8.849e-05
Time for diagonalization                   ...    0.004 sec
Threshold for overlap eigenvalues          ... 1.000e-07
Number of eigenvalues below threshold      ... 0
Time for construction of square roots      ...    0.003 sec
Total time needed                          ...    0.007 sec

-------------------
DFT GRID GENERATION
-------------------

General Integration Accuracy     IntAcc      ... 4.388
Radial Grid Type                 RadialGrid  ... OptM3 with GC (2021)
Angular Grid (max. ang.)         AngularGrid ... 4 (Lebedev-302)
Angular grid pruning method      GridPruning ... 4 (adaptive)
Weight generation scheme         WeightScheme... mBecke (2022)
Basis function cutoff            BFCut       ... 1.0000e-11
Integration weight cutoff        WCut        ... 1.0000e-14
Partially contracted basis set               ... off
Rotationally invariant grid construction     ... off
Angular grids for H and He will be reduced by one unit
Diffuse basis detected: some atoms will have their outermost
                        angular grid increased by 1.

Smallest eigenvalue                        ... 8.849e-05
Time for diagonalization                   ...    0.022 sec
Threshold for overlap eigenvalues          ... 1.000e-07
Number of eigenvalues below threshold      ... 0
Time for construction of square roots      ...    0.085 sec
Total time needed                          ...    0.227 sec

-------------------
DFT GRID GENERATION
-------------------

General Integration Accuracy     IntAcc      ... 4.388
Radial Grid Type                 RadialGrid  ... OptM3 with GC (2021)
Angular Grid (max. ang.)         AngularGrid ... 4 (Lebedev-302)
Angular grid pruning method      GridPruning ... 4 (adaptive)
Weight generation scheme         WeightScheme... mBecke (2022)
Basis function cutoff            BFCut       ... 1.0000e-11
Integration weight cutoff        WCut        ... 1.0000e-14
Partially contracted basis set               ... off
Rotationally invariant grid construction     ... off
Angular grids for H and He will be reduced by one unit
Diffuse basis detected: some atoms will have their outermost
                        angular grid increased by 1.

Total number of grid points                  ...    63639
Total number of batches                      ...     1000
Average number of points per batch           ...       63
Average number of grid points per atom       ...     4243
Initializing property integral containers    ... done (  0.0 sec)

SHARK setup successfully completed in   0.7 seconds

Maximum memory used throughout the entire STARTUP-calculation: 19.4 MB

ORCA finished by error termination in Startup
Calling Command: mpirun -np 4  /mnt/home/soft/orca/programs/x86_64/orca_6_0_0_avx2/orca_startup_mpi job.int.tmp job 
[file orca_tools/qcmsg.cpp, line 394]: 
  .... aborting the run


ORCA finished by error termination in Startup
Calling Command: mpirun -np 4  /mnt/home/soft/orca/programs/x86_64/orca_6_0_0_avx2/orca_startup_mpi job.int.tmp job 
[file orca_tools/qcmsg.cpp, line 394]: 
  .... aborting the run


ORCA finished by error termination in Startup
Calling Command: mpirun -np 4  /mnt/home/soft/orca/programs/x86_64/orca_6_0_0_avx2/orca_startup_mpi job.int.tmp job 
[file orca_tools/qcmsg.cpp, line 394]: 
  .... aborting the run



           ************************************************************
           *        Program running with 4 parallel MPI-processes     *
           *              working on a common directory               *
           ************************************************************
-------------------------------------------------------------------------------
                                 ORCA GUESS
                   Start orbitals & Density for SCF / CASSCF
-------------------------------------------------------------------------------

------------
SCF SETTINGS
------------
Hamiltonian:
 Density Functional     Method          .... DFT(GTOs)
 Exchange Functional    Exchange        .... PBE
   PBE kappa parameter   XKappa         ....  0.804000
   PBE mue parameter    XMuePBE         ....  0.219520
 Correlation Functional Correlation     .... PBE
   PBE beta parameter  CBetaPBE         ....  0.066725
 LDA part of GGA corr.  LDAOpt          .... PW91-LDA
 Gradients option       PostSCFGGA      .... off
   NL short-range parameter             ....  6.400000
 RI-approximation to the Coulomb term is turned on
   Number of AuxJ basis functions       .... 355


General Settings:
 Integral files         IntName         .... job
 Hartree-Fock type      HFTyp           .... RHF
 Total Charge           Charge          ....    0
 Multiplicity           Mult            ....    1
 Number of Electrons    NEL             ....   42
 Basis Dimension        Dim             ....  140
 Nuclear Repulsion      ENuc            ....    197.8229018017 Eh

Convergence Acceleration:
 AO-DIIS                CNVDIIS         .... on
   Start iteration      DIISMaxIt       ....    12
   Startup error        DIISStart       ....  0.200000
   # of expansion vecs  DIISMaxEq       ....     5
   Bias factor          DIISBfac        ....   1.050
   Max. coefficient     DIISMaxC        ....  10.000
 MO-DIIS                CNVKDIIS        .... off
 Trust-Rad. Augm. Hess. CNVTRAH         .... auto
   Auto Start mean grad. ratio tolernc. ....  1.125000
   Auto Start start iteration           ....    50
   Auto Start num. interpolation iter.  ....    10
   Max. Number of Micro iterations      ....    24
   Max. Number of Macro iterations      .... Maxiter - #DIIS iter
   Number of Davidson start vectors     ....     2
   Converg. threshold    (grad. norm)   ....   1.000e-05
   Grad. Scal. Fac. for Micro threshold ....   0.100
   Minimum threshold for Micro iter.    ....   1.000e-02
   NR start threshold (gradient norm)   ....   1.000e-04
   Initial trust radius                 ....   0.400
   Minimum AH scaling param. (alpha)    ....   1.000
   Maximum AH scaling param. (alpha)    .... 1000.000
   Quad. conv. algorithm                .... NR
   White noise on init. David. guess    .... on
   Maximum white noise                  ....   0.010
   Pseudo random numbers                .... off
   Inactive MOs                         .... canonical
   Orbital update algorithm             .... Taylor
   Preconditioner                       .... Diag
   Full preconditioner red. dimension   ....   250
 SOSCF                  CNVSOSCF        .... on
   Start iteration      SOSCFMaxIt      ....   150
   Startup grad/error   SOSCFStart      ....  0.003300
   Hessian update       SOSCFHessUp     .... L-BFGS
 Level Shifting         CNVShift        .... on
   Level shift para.    LevelShift      ....    0.2500
   Turn off err/grad.   ShiftErr        ....    0.0010
 Zerner damping         CNVZerner       .... off
 Static damping         CNVDamp         .... on
   Fraction old density DampFac         ....    0.7000
   Max. Damping (<1)    DampMax         ....    0.9800
   Min. Damping (>=0)   DampMin         ....    0.0000
   Turn off err/grad.   DampErr         ....    0.1000

SCF Procedure:
 Maximum # iterations   MaxIter         ....   125
 SCF integral mode      SCFMode         .... Direct
   Integral package                     .... SHARK and LIBINT hybrid scheme
 Reset frequency        DirectResetFreq ....    20
 Integral Threshold     Thresh          ....  2.500e-11 Eh
 Primitive CutOff       TCut            ....  2.500e-12 Eh

Convergence Tolerance:
 Convergence Check Mode ConvCheckMode   .... Total+1el-Energy
 Convergence forced     ConvForced      .... 0
 Energy Change          TolE            ....  1.000e-08 Eh
 1-El. energy change                    ....  1.000e-05 Eh
 Orbital Gradient       TolG            ....  1.000e-05
 Orbital Rotation angle TolX            ....  1.000e-05
 DIIS Error             TolErr          ....  5.000e-07

------------------------------
INITIAL GUESS: MODEL POTENTIAL
------------------------------
Loading Hartree-Fock densities                     ... done
Calculating cut-offs                               ... done
Initializing the effective Hamiltonian             ... done
Setting up the integral package (SHARK)            ... done
Starting the Coulomb interaction                   ... done (   0.0 sec)
Making the grid                                    ... done (   0.1 sec)
Mapping shells                                     ... done
Starting the XC term evaluation                    ... done (   0.1 sec)
  promolecular density results
     # of electrons  =     41.995906979
     EX              =    -31.512300829
     EC              =     -1.360822084
     EX+EC           =    -32.873122912
Transforming the Hamiltonian                       ... done (   0.0 sec)
Diagonalizing the Hamiltonian                      ... done (   0.0 sec)
Back transforming the eigenvectors                 ... done (   0.0 sec)
Now organizing SCF variables                       ... done
                      ------------------
                      INITIAL GUESS DONE (   0.2 sec)
                      ------------------
             **** ENERGY FILE WAS UPDATED (job.en.tmp) ****
Finished Guess after   0.6 sec
Maximum memory used throughout the entire GUESS-calculation: 10.8 MB


           ************************************************************
           *        Program running with 4 parallel MPI-processes     *
           *              working on a common directory               *
           ************************************************************

-------------------------------------------------------------------------------------------
                                      ORCA LEAN-SCF
                              memory conserving SCF solver
-------------------------------------------------------------------------------------------

--------------------
CPCM SOLVATION MODEL
--------------------
CPCM parameters:
  Epsilon                                         ...      35.6880
  Refrac                                          ...       1.3442
  Rsolv                                           ...       1.3000
  Surface type                                    ... GAUSSIAN VDW
  Discretization scheme                           ... Constant charge density
    Threshold for H atoms                         ...       5.0000 (charges/Ang^2)
    Threshold for non-H atoms                     ...       5.0000 (charges/Ang^2)
  Epsilon function type                           ...         CPCM
Solvent:                                          ... ACETONITRILE
SMD-CDS solvent descriptors:
  Soln                                            ...       1.3442
  Soln25                                          ...       1.3416
  Sola                                            ...       0.0700
  Solb                                            ...       0.3200
  Solg                                            ...      41.2500
  Solc                                            ...       0.0000
  Solh                                            ...       0.0000
Radii:
  Scheme                                          ... Element-dependent radii
  Radius for C  used is    3.4960 Bohr (=   1.8500 Ang.)
  Radius for O  used is    4.0969 Bohr (=   2.1680 Ang.)
  Radius for H  used is    2.2677 Bohr (=   1.2000 Ang.)
Calculating surface                               ...        done! (  0.0s)
Cavity surface points                             ...         1136
Cavity Volume                                     ...     722.9745
Cavity Surface-area                               ...     462.3151
Calculating surface distance matrix               ...        done! (  0.0s)
Performing Cholesky decomposition & store         ...        done! (  0.1s)
Overall time for CPCM initialization              ...                 0.1s

----------------------------------------D-I-I-S--------------------------------------------
Iteration    Energy (Eh)           Delta-E    RMSDP     MaxDP     DIISErr   Damp  Time(sec)
-------------------------------------------------------------------------------------------
               ***  Starting incremental Fock matrix formation  ***
    1    -233.0331569109071665     0.00e+00  3.73e-03  7.36e-02  2.17e-01  0.700   0.5
    2    -233.1218807474770074    -8.87e-02  2.43e-03  4.17e-02  7.77e-02  0.700   0.4
                               ***Turning on AO-DIIS***
    3    -233.1508287591479416    -2.89e-02  8.93e-04  1.60e-02  1.95e-02  0.700   0.4
    4    -233.1681933303032679    -1.74e-02  1.37e-03  3.13e-02  9.45e-03  0.000   0.4
    5    -233.2082202462881924    -4.00e-02  3.96e-04  8.28e-03  6.54e-03  0.000   0.4
                              *** Initializing SOSCF ***
---------------------------------------S-O-S-C-F--------------------------------------
Iteration    Energy (Eh)           Delta-E    RMSDP     MaxDP     MaxGrad    Time(sec)
--------------------------------------------------------------------------------------
    6    -233.2086088554954699    -3.89e-04  1.89e-04  5.24e-03  1.97e-03     0.4
               *** Restarting incremental Fock matrix formation ***
    7    -233.2086437442665670    -3.49e-05  1.88e-04  4.97e-03  2.71e-04     0.4
    8    -233.2086430542498192     6.90e-07  4.95e-05  9.51e-04  3.74e-04     0.4
    9    -233.2086489320495275    -5.88e-06  3.35e-05  1.01e-03  7.23e-05     0.4
   10    -233.2086487985519057     1.33e-07  9.53e-06  2.39e-04  1.51e-04     0.4
   11    -233.2086490807637915    -2.82e-07  7.25e-06  2.11e-04  1.36e-05     0.4
   12    -233.2086490854721319    -4.71e-09  2.35e-06  6.84e-05  5.13e-06     0.4
                 **** Energy Check signals convergence ****

               *****************************************************
               *                     SUCCESS                       *
               *           SCF CONVERGED AFTER  12 CYCLES          *
               *****************************************************


SMD CDS free energy correction energy :                -0.92728     Kcal/mol
Total Energy after SMD CDS correction =              -233.210126802 Eh
             **** ENERGY FILE WAS UPDATED (job.en.tmp) ****

----------------
TOTAL SCF ENERGY
----------------

Total Energy       :       -233.21012680243874 Eh           -6345.97017 eV

Components:
Nuclear Repulsion  :        197.82290180174601 Eh            5383.03483 eV
Electronic Energy  :       -431.02324230005576 Eh          -11728.73870 eV
One Electron Energy:       -707.07771668553539 Eh          -19240.56284 eV
Two Electron Energy:        276.05447438547964 Eh            7511.82414 eV
CPCM Dielectric    :         -0.00830858716240 Eh              -0.22609 eV
SMD CDS (Gcds)     :         -0.00147771696662 Eh              -0.04021 eV

Virial components:
Potential Energy   :       -463.64710351219026 Eh          -12616.47910 eV
Kinetic Energy     :        230.43697670975155 Eh            6270.50892 eV
Virial Ratio       :          2.01203431034499

DFT components:
N(Alpha)           :       21.000078456281 electrons
N(Beta)            :       21.000078456281 electrons
N(Total)           :       42.000156912562 electrons
E(X)               :      -32.208030629831 Eh       
E(C)               :       -1.370347197438 Eh       
E(XC)              :      -33.578377827269 Eh       

CPCM Solvation Model Properties:
Surface-charge          :         -0.04175116037818
Corrected charge        :          0.00000000000000
Outlying charge corr.   :          0.00014652529739 Eh               0.00399 eV
Free-energy (cav+disp)  :         -0.00147771696662 Eh              -0.04021 eV

---------------
SCF CONVERGENCE
---------------

  Last Energy change         ...    4.7083e-09  Tolerance :   1.0000e-08
  Last MAX-Density change    ...    6.8392e-05  Tolerance :   1.0000e-07
  Last RMS-Density change    ...    2.3525e-06  Tolerance :   5.0000e-09
  Last DIIS Error            ...    1.9652e-03  Tolerance :   5.0000e-07
  Last Orbital Gradient      ...    5.1294e-06  Tolerance :   1.0000e-05
  Last Orbital Rotation      ...    1.6549e-05  Tolerance :   1.0000e-05


----------------
ORBITAL ENERGIES
----------------

  NO   OCC          E(Eh)            E(eV) 
   0   2.0000     -18.759771      -510.4793 
   1   2.0000      -9.948363      -270.7087 
   2   2.0000      -9.883024      -268.9307 
   3   2.0000      -9.882261      -268.9100 
   4   2.0000      -9.882149      -268.9069 
   5   2.0000      -0.912728       -24.8366 
   6   2.0000      -0.696304       -18.9474 
   7   2.0000      -0.606866       -16.5137 
   8   2.0000      -0.604471       -16.4485 
   9   2.0000      -0.502540       -13.6748 
  10   2.0000      -0.427887       -11.6434 
  11   2.0000      -0.394432       -10.7330 
  12   2.0000      -0.390713       -10.6318 
  13   2.0000      -0.352574        -9.5940 
  14   2.0000      -0.340288        -9.2597 
  15   2.0000      -0.329734        -8.9725 
  16   2.0000      -0.310087        -8.4379 
  17   2.0000      -0.304136        -8.2760 
  18   2.0000      -0.295479        -8.0404 
  19   2.0000      -0.269987        -7.3467 
  20   2.0000      -0.221939        -6.0393 
  21   0.0000      -0.008445        -0.2298 
  22   0.0000       0.023172         0.6305 
  23   0.0000       0.029664         0.8072 
  24   0.0000       0.030414         0.8276 
  25   0.0000       0.047209         1.2846 
  26   0.0000       0.062086         1.6894 
  27   0.0000       0.063814         1.7365 
  28   0.0000       0.074903         2.0382 
  29   0.0000       0.079191         2.1549 
  30   0.0000       0.081613         2.2208 
  31   0.0000       0.115936         3.1548 
*Only the first 10 virtual orbitals were printed.

                    ********************************
                    * MULLIKEN POPULATION ANALYSIS *
                    ********************************

-----------------------
MULLIKEN ATOMIC CHARGES
-----------------------
   0 C :   -1.315412
   1 C :    0.080414
   2 O :   -0.455936
   3 C :    0.078769
   4 C :    0.061922
   5 H :    0.347207
   6 H :    0.128201
   7 H :    0.145666
   8 H :    0.127745
   9 H :    0.125362
  10 H :    0.125288
  11 H :    0.149614
  12 H :    0.127498
  13 H :    0.145631
  14 H :    0.128030
Sum of atomic charges:    0.0000000

--------------------------------
MULLIKEN REDUCED ORBITAL CHARGES
--------------------------------
  0 C s       :     3.837078  s :     3.837078
      pz      :     1.183891  p :     3.401833
      px      :     1.287872
      py      :     0.930070
      dz2     :     0.013809  d :     0.076502
      dxz     :     0.009978
      dyz     :     0.018789
      dx2y2   :     0.019683
      dxy     :     0.014243

  1 C s       :     2.813010  s :     2.813010
      pz      :     0.977564  p :     3.083701
      px      :     1.053732
      py      :     1.052405
      dz2     :     0.005971  d :     0.022875
      dxz     :     0.004224
      dyz     :     0.003996
      dx2y2   :     0.006860
      dxy     :     0.001824

  2 O s       :     3.850051  s :     3.850051
      pz      :     1.869246  p :     4.595072
      px      :     1.338398
      py      :     1.387428
      dz2     :     0.001724  d :     0.010813
      dxz     :     0.000475
      dyz     :     0.001769
      dx2y2   :     0.005390
      dxy     :     0.001455

  3 C s       :     2.814524  s :     2.814524
      pz      :     0.987927  p :     3.083838
      px      :     1.035085
      py      :     1.060826
      dz2     :     0.006456  d :     0.022868
      dxz     :     0.003035
      dyz     :     0.004487
      dx2y2   :     0.007120
      dxy     :     0.001769

  4 C s       :     2.803984  s :     2.803984
      pz      :     1.069412  p :     3.111266
      px      :     0.978934
      py      :     1.062920
      dz2     :     0.004248  d :     0.022828
      dxz     :     0.005468
      dyz     :     0.004073
      dx2y2   :     0.005673
      dxy     :     0.003366

  5 H s       :     0.592799  s :     0.592799
      pz      :     0.016267  p :     0.059994
      px      :     0.032397
      py      :     0.011330

  6 H s       :     0.849478  s :     0.849478
      pz      :     0.004599  p :     0.022320
      px      :     0.012565
      py      :     0.005157

  7 H s       :     0.832204  s :     0.832204
      pz      :     0.004576  p :     0.022130
      px      :     0.005338
      py      :     0.012216

  8 H s       :     0.850168  s :     0.850168
      pz      :     0.009800  p :     0.022087
      px      :     0.005422
      py      :     0.006864

  9 H s       :     0.852431  s :     0.852431
      pz      :     0.009884  p :     0.022207
      px      :     0.005724
      py      :     0.006598

 10 H s       :     0.852511  s :     0.852511
      pz      :     0.010363  p :     0.022201
      px      :     0.004600
      py      :     0.007238

 11 H s       :     0.828180  s :     0.828180
      pz      :     0.005371  p :     0.022205
      px      :     0.004851
      py      :     0.011984

 12 H s       :     0.850418  s :     0.850418
      pz      :     0.009271  p :     0.022084
      px      :     0.006734
      py      :     0.006078

 13 H s       :     0.832237  s :     0.832237
      pz      :     0.004351  p :     0.022132
      px      :     0.005551
      py      :     0.012231

 14 H s       :     0.849654  s :     0.849654
      pz      :     0.004669  p :     0.022317
      px      :     0.012591
      py      :     0.005057



                     *******************************
                     * LOEWDIN POPULATION ANALYSIS *
                     *******************************

----------------------
LOEWDIN ATOMIC CHARGES
----------------------
   0 C :   -0.180655
   1 C :   -0.222593
   2 O :   -0.346255
   3 C :   -0.222594
   4 C :   -0.212799
   5 H :    0.223050
   6 H :    0.104690
   7 H :    0.108707
   8 H :    0.105576
   9 H :    0.106483
  10 H :    0.106500
  11 H :    0.111122
  12 H :    0.105530
  13 H :    0.108547
  14 H :    0.104690

-------------------------------
LOEWDIN REDUCED ORBITAL CHARGES
-------------------------------
  0 C s       :     2.847112  s :     2.847112
      pz      :     1.126132  p :     3.167252
      px      :     1.120994
      py      :     0.920126
      dz2     :     0.030723  d :     0.166290
      dxz     :     0.021020
      dyz     :     0.041775
      dx2y2   :     0.047312
      dxy     :     0.025460

  1 C s       :     2.877521  s :     2.877521
      pz      :     1.078883  p :     3.281312
      px      :     1.107804
      py      :     1.094625
      dz2     :     0.016390  d :     0.063760
      dxz     :     0.011296
      dyz     :     0.012371
      dx2y2   :     0.018707
      dxy     :     0.004996

  2 O s       :     3.510536  s :     3.510536
      pz      :     1.872112  p :     4.814179
      px      :     1.430348
      py      :     1.511719
      dz2     :     0.003401  d :     0.021541
      dxz     :     0.000525
      dyz     :     0.002910
      dx2y2   :     0.011780
      dxy     :     0.002924

  3 C s       :     2.877420  s :     2.877420
      pz      :     1.081356  p :     3.281418
      px      :     1.100306
      py      :     1.099757
      dz2     :     0.017145  d :     0.063756
      dxz     :     0.009398
      dyz     :     0.013024
      dx2y2   :     0.019190
      dxy     :     0.005000

  4 C s       :     2.871406  s :     2.871406
      pz      :     1.114105  p :     3.278017
      px      :     1.055708
      py      :     1.108205
      dz2     :     0.012325  d :     0.063376
      dxz     :     0.013473
      dyz     :     0.011309
      dx2y2   :     0.017710
      dxy     :     0.008559

  5 H s       :     0.627093  s :     0.627093
      pz      :     0.038228  p :     0.149857
      px      :     0.086887
      py      :     0.024742

  6 H s       :     0.829495  s :     0.829495
      pz      :     0.012598  p :     0.065815
      px      :     0.041192
      py      :     0.012024

  7 H s       :     0.825238  s :     0.825238
      pz      :     0.012710  p :     0.066055
      px      :     0.013451
      py      :     0.039894

  8 H s       :     0.828782  s :     0.828782
      pz      :     0.032764  p :     0.065642
      px      :     0.013860
      py      :     0.019018

  9 H s       :     0.827874  s :     0.827874
      pz      :     0.029990  p :     0.065643
      px      :     0.018568
      py      :     0.017085

 10 H s       :     0.827887  s :     0.827887
      pz      :     0.031675  p :     0.065612
      px      :     0.014315
      py      :     0.019622

 11 H s       :     0.823204  s :     0.823204
      pz      :     0.012329  p :     0.065674
      px      :     0.015173
      py      :     0.038172

 12 H s       :     0.828835  s :     0.828835
      pz      :     0.031100  p :     0.065635
      px      :     0.018176
      py      :     0.016359

 13 H s       :     0.825357  s :     0.825357
      pz      :     0.012293  p :     0.066095
      px      :     0.013426
      py      :     0.040376

 14 H s       :     0.829516  s :     0.829516
      pz      :     0.013085  p :     0.065795
      px      :     0.040643
      py      :     0.012067



                      *****************************
                      * MAYER POPULATION ANALYSIS *
                      *****************************

  NA   - Mulliken gross atomic population
  ZA   - Total nuclear charge
  QA   - Mulliken gross atomic charge
  VA   - Mayer's total valence
  BVA  - Mayer's bonded valence
  FA   - Mayer's free valence

  ATOM       NA         ZA         QA         VA         BVA        FA
  0 C      7.3154     6.0000    -1.3154     5.4302     5.4302    -0.0000
  1 C      5.9196     6.0000     0.0804     3.6279     3.6279    -0.0000
  2 O      8.4559     8.0000    -0.4559     1.7433     1.7433     0.0000
  3 C      5.9212     6.0000     0.0788     3.6290     3.6290    -0.0000
  4 C      5.9381     6.0000     0.0619     3.7309     3.7309    -0.0000
  5 H      0.6528     1.0000     0.3472     0.8563     0.8563     0.0000
  6 H      0.8718     1.0000     0.1282     0.9629     0.9629    -0.0000
  7 H      0.8543     1.0000     0.1457     0.9595     0.9595    -0.0000
  8 H      0.8723     1.0000     0.1277     0.9642     0.9642     0.0000
  9 H      0.8746     1.0000     0.1254     0.9700     0.9700     0.0000
 10 H      0.8747     1.0000     0.1253     0.9700     0.9700     0.0000
 11 H      0.8504     1.0000     0.1496     0.9585     0.9585     0.0000
 12 H      0.8725     1.0000     0.1275     0.9644     0.9644     0.0000
 13 H      0.8544     1.0000     0.1456     0.9594     0.9594     0.0000
 14 H      0.8720     1.0000     0.1280     0.9631     0.9631     0.0000

  Mayer bond orders larger than 0.100000
B(  0-C ,  1-C ) :   1.1896 B(  0-C ,  2-O ) :   0.9220 B(  0-C ,  3-C ) :   1.1897 
B(  0-C ,  4-C ) :   1.2414 B(  0-C ,  7-H ) :   0.1130 B(  0-C , 11-H ) :   0.1158 
B(  0-C , 13-H ) :   0.1129 B(  1-C , 12-H ) :   0.8970 B(  1-C , 13-H ) :   0.8844 
B(  1-C , 14-H ) :   0.8984 B(  2-O ,  5-H ) :   0.8149 B(  3-C ,  6-H ) :   0.8985 
B(  3-C ,  7-H ) :   0.8843 B(  3-C ,  8-H ) :   0.8975 B(  4-C ,  9-H ) :   0.8905 
B(  4-C , 10-H ) :   0.8905 B(  4-C , 11-H ) :   0.8859 

-------
TIMINGS
-------

Total SCF time: 0 days 0 hours 0 min 5 sec 

Total time                  ....       5.431 sec
Sum of individual times     ....       5.376 sec  ( 99.0%)

SCF preparation             ....       0.408 sec  (  7.5%)
Fock matrix formation       ....       4.713 sec  ( 86.8%)
  Startup                   ....       0.038 sec  (  0.8% of F)
  Split-RI-J                ....       0.798 sec  ( 16.9% of F)
  XC integration            ....       2.449 sec  ( 52.0% of F)
    Basis function eval.    ....       0.677 sec  ( 27.7% of XC)
    Density eval.           ....       0.402 sec  ( 16.4% of XC)
    XC-Functional eval.     ....       0.110 sec  (  4.5% of XC)
    XC-Potential eval.      ....       0.493 sec  ( 20.1% of XC)
  CPCM terms                ....       1.361 sec  ( 28.9% of F)
Diagonalization             ....       0.000 sec  (  0.0%)
Density matrix formation    ....       0.032 sec  (  0.6%)
Total Energy calculation    ....       0.019 sec  (  0.3%)
Population analysis         ....       0.018 sec  (  0.3%)
Orbital Transformation      ....       0.023 sec  (  0.4%)
Orbital Orthonormalization  ....       0.000 sec  (  0.0%)
DIIS solution               ....       0.111 sec  (  2.0%)
SOSCF solution              ....       0.052 sec  (  1.0%)
Finished LeanSCF after   5.5 sec

Maximum memory used throughout the entire LEANSCF-calculation: 13.7 MB


           ************************************************************
           *        Program running with 4 parallel MPI-processes     *
           *              working on a common directory               *
           ************************************************************

------------------------------------------------------------------------------
                         ORCA PROPERTY INTEGRAL CALCULATIONS
------------------------------------------------------------------------------

GBWName                                   ... job.gbw
Number of atoms                           ...     15
Number of basis functions                 ...    140
Max core memory                           ...   3000 MB

Dipole integrals                          ... YES
Quadrupole integrals                      ...  NO
Linear momentum integrals                 ...  NO
Angular momentum integrals                ...  NO
Higher moments length integrals           ...  NO
Higher moments velocity integrals         ...  NO
Kinetic energy integrals                  ...  NO
GIAO right hand sides                     ...  NO
GIAO dipole derivative integrals          ...  NO
SOC integrals                             ...  NO
EPR diamagnetic integrals (GIAO)          ...  NO
EPR gauge integrals                       ...  NO
Field gradient integrals                  ...  NO (   0 nuclei)
Spin-dipole/Fermi contact integrals       ...  NO (   0 nuclei)
Contact density integrals                 ...  NO (   0 nuclei)
Nucleus-orbit integrals                   ...  NO (   0 nuclei)
Geometric perturbations                   ...  NO (  15 nuclei)

Choice of electric origin   ... Center of mass
Position of electric origin ... ( -2.9330, -8.5563,  0.6286) 
Choice of magnetic origin   ... GIAO
Position of magnetic origin ... (  0.0000,  0.0000,  0.0000) 

Calculating integrals                     ... Electric Dipole (Length)     done (  0.0 sec)

Property integrals calculated in   0.0 sec

Maximum memory used throughout the entire PROPINT-calculation: 8.8 MB

-------------------------   --------------------
FINAL SINGLE POINT ENERGY      -233.210126802439
-------------------------   --------------------



           ************************************************************
           *        Program running with 4 parallel MPI-processes     *
           *              working on a common directory               *
           ************************************************************
------------------------------------------------------------------------------
                         ORCA SCF GRADIENT CALCULATION
------------------------------------------------------------------------------

Nuc. rep. gradient        (SHARK) ... done (  0.0 sec)
HCore & Overlap gradient  (SHARK) ... done (  0.1 sec)
Split-RIJ-J gradient      (SHARK) ... done (  0.4 sec)
XC gradient                       ... done (  1.4 sec)
CPCM gradient                     ... done (  0.2 sec)
SMD gradient                      ... done (  0.0 sec)

------------------
CARTESIAN GRADIENT
------------------

   1   C   :   -0.000409819    0.018206101   -0.000770202
   2   C   :    0.001717148   -0.002570016   -0.001106448
   3   O   :   -0.036789089   -0.016194927    0.005037566
   4   C   :    0.002190628   -0.002459182    0.000815010
   5   C   :   -0.001153584   -0.004054217    0.000077488
   6   H   :    0.038686223    0.005735223   -0.004778971
   7   H   :   -0.001479897    0.001146223   -0.000400233
   8   H   :   -0.000639088   -0.000735969    0.000528291
   9   H   :   -0.000214326    0.000120927   -0.000704922
  10   H   :    0.000743312    0.000232785    0.000202586
  11   H   :    0.000709560    0.000191358   -0.000296212
  12   H   :   -0.001408084   -0.000447045    0.000228517
  13   H   :   -0.000079683    0.000282956    0.000733112
  14   H   :   -0.000564296   -0.000675122   -0.000187166
  15   H   :   -0.001309005    0.001220905    0.000621582

Difference to translation invariance:
           :    0.0000000000    0.0000000000    0.0000000000

Difference to rotation invariance:
           :    0.0000944418   -0.0002038654   -0.0001302306

Norm of the Cartesian gradient     ...    0.0598307183
RMS gradient                       ...    0.0089190369
MAX gradient                       ...    0.0386862228

-------
TIMINGS
-------

Total SCF gradient time     ....        2.113 sec

Densities                   ....       0.000 sec  (  0.0%)
One electron gradient       ....       0.069 sec  (  3.3%)
RI-J Coulomb gradient       ....       0.380 sec  ( 18.0%)
XC gradient                 ....       1.377 sec  ( 65.2%)
CPCM gradient               ....       0.164 sec  (  7.7%)
   A-Matrix (El+Nuc)        ....       0.062 sec  (  2.9%)
   Potential                ....       0.102 sec  (  4.8%)
SMD gradient                ....       0.002 sec  (  0.1%)

Maximum memory used throughout the entire SCFGRAD-calculation: 18.3 MB
------------------------------------------------------------------------------
                         ORCA GEOMETRY RELAXATION STEP
------------------------------------------------------------------------------

Reading the OPT-File                    .... done
Getting information on internals        .... done
Copying old internal coords+grads       .... done
Making the new internal coordinates     .... (2022 redundants) done
Validating the new internal coordinates .... (2022 redundants) done
Calculating the B-matrix                .... done
Calculating the G,G- and P matrices     .... done
Transforming gradient to internals      .... done
Projecting the internal gradient        .... done
Number of atoms                         ....  15
Number of internal coordinates          ....  60
Current Energy                          ....  -233.210126802 Eh
Current gradient norm                   ....     0.059830718 Eh/bohr
Maximum allowed component of the step   ....  0.300
Current trust radius                    ....  0.300
Evaluating the initial hessian          ....  (Almloef) done
Projecting the Hessian                  .... done
Forming the augmented Hessian           .... done
Diagonalizing the augmented Hessian     .... done
Last element of RFO vector              ....  0.993916085
Lowest eigenvalues of augmented Hessian:
 -0.004324848  0.010192046  0.010202923  0.010750856  0.019216019
Length of the computed step             ....  0.110814171
The final length of the internal step   ....  0.110814171
Converting the step to Cartesian space:
 Initial RMS(Int)=    0.0143060479
Transforming coordinates:
 Iter   0:  RMS(Cart)=    0.0180617289 RMS(Int)=    0.8097313987
done
Storing new coordinates                 .... done

                                .--------------------.
          ----------------------|Geometry convergence|-------------------------
          Item                value                   Tolerance       Converged
          ---------------------------------------------------------------------
          RMS gradient        0.0053473834            0.0001000000      NO
          MAX gradient        0.0393063789            0.0003000000      NO
          RMS step            0.0143060479            0.0020000000      NO
          MAX step            0.0967976374            0.0040000000      NO
          ........................................................
          Max(Bonds)      0.0512      Max(Angles)    0.88
          Max(Dihed)        0.91      Max(Improp)    0.00
          ---------------------------------------------------------------------

The optimization has not yet converged - more geometry cycles are needed


    ---------------------------------------------------------------------------
                         Redundant Internal Coordinates
                            (Angstroem and degrees)

        Definition                    Value    dE/dq     Step     New-Value
    ----------------------------------------------------------------------------
     1. B(C   1,C   0)                1.5431  0.000747 -0.0011    1.5420   
     2. B(O   2,C   0)                1.4244 -0.009658  0.0103    1.4346   
     3. B(C   3,C   0)                1.5429  0.000888 -0.0013    1.5416   
     4. B(C   4,C   0)                1.5352  0.001270 -0.0018    1.5334   
     5. B(H   5,O   2)                1.0302  0.039306 -0.0512    0.9790   
     6. B(H   6,C   3)                1.1090 -0.001333  0.0021    1.1111   
     7. B(H   7,C   3)                1.1105  0.000920 -0.0014    1.1090   
     8. B(H   8,C   3)                1.1093 -0.000472  0.0007    1.1101   
     9. B(H   9,C   4)                1.1093 -0.000409  0.0006    1.1100   
    10. B(H  10,C   4)                1.1095 -0.000332  0.0005    1.1101   
    11. B(H  11,C   4)                1.1091  0.000904 -0.0014    1.1077   
    12. B(H  12,C   1)                1.1093 -0.000433  0.0007    1.1100   
    13. B(H  13,C   1)                1.1102  0.000779 -0.0012    1.1090   
    14. B(H  14,C   1)                1.1091 -0.001285  0.0020    1.1111   
    15. A(C   1,C   0,O   2)          109.84 -0.000466    0.04    109.89   
    16. A(C   3,C   0,C   4)          110.32 -0.000695    0.22    110.54   
    17. A(O   2,C   0,C   3)          109.93 -0.000332   -0.02    109.91   
    18. A(C   1,C   0,C   3)          109.80  0.000028    0.35    110.15   
    19. A(O   2,C   0,C   4)          106.67  0.002285   -0.88    105.80   
    20. A(C   1,C   0,C   4)          110.23 -0.000778    0.26    110.49   
    21. A(H  12,C   1,H  13)          108.32  0.000182   -0.04    108.28   
    22. A(C   0,C   1,H  13)          111.82  0.001175   -0.20    111.62   
    23. A(H  12,C   1,H  14)          108.04 -0.000314    0.07    108.11   
    24. A(C   0,C   1,H  12)          110.06 -0.001442    0.26    110.32   
    25. A(H  13,C   1,H  14)          108.52  0.001853   -0.36    108.16   
    26. A(C   0,C   1,H  14)          109.97 -0.001436    0.26    110.24   
    27. A(C   0,O   2,H   5)          109.15  0.005193   -0.86    108.29   
    28. A(H   7,C   3,H   8)          108.22  0.000367    0.01    108.22   
    29. A(H   6,C   3,H   8)          108.02  0.000329    0.01    108.04   
    30. A(C   0,C   3,H   8)          110.08 -0.000853    0.22    110.30   
    31. A(H   6,C   3,H   7)          108.58  0.000927   -0.32    108.26   
    32. A(C   0,C   3,H   7)          111.82  0.000849   -0.18    111.65   
    33. A(C   0,C   3,H   6)          110.02 -0.001579    0.25    110.27   
    34. A(C   0,C   4,H  10)          110.26 -0.001274    0.26    110.52   
    35. A(C   0,C   4,H   9)          110.28 -0.001097    0.23    110.51   
    36. A(H  10,C   4,H  11)          108.27 -0.000273   -0.03    108.24   
    37. A(H   9,C   4,H  11)          108.34 -0.000186   -0.05    108.30   
    38. A(C   0,C   4,H  11)          111.59  0.002253   -0.48    111.12   
    39. A(H   9,C   4,H  10)          107.99  0.000563    0.06    108.05   
    40. D(H  13,C   1,C   0,O   2)   -179.83 -0.001062    0.91   -178.91   
    41. D(H  13,C   1,C   0,C   3)     59.17 -0.000371    0.69     59.86   
    42. D(H  12,C   1,C   0,O   2)    -59.38 -0.001037    0.91    -58.47   
    43. D(H  12,C   1,C   0,C   3)    179.62 -0.000346    0.69    180.30   
    44. D(H  12,C   1,C   0,C   4)     57.88  0.001010    0.02     57.90   
    45. D(H  13,C   1,C   0,C   4)    -62.57  0.000985    0.02    -62.54   
    46. D(H   5,O   2,C   0,C   4)    179.70 -0.000006    0.13    179.83   
    47. D(H   5,O   2,C   0,C   3)     60.09 -0.000332    0.40     60.48   
    48. D(H   5,O   2,C   0,C   1)    -60.84  0.000143   -0.05    -60.89   
    49. D(H   7,C   3,C   0,O   2)    179.23  0.000739   -0.56    178.67   
    50. D(H   7,C   3,C   0,C   1)    -59.82 -0.000033   -0.30    -60.12   
    51. D(H   6,C   3,C   0,C   4)   -177.39 -0.000783    0.04   -177.35   
    52. D(H   6,C   3,C   0,O   2)    -60.03  0.001395   -0.91    -60.94   
    53. D(H   7,C   3,C   0,C   4)     61.87 -0.001440    0.39     62.26   
    54. D(H   6,C   3,C   0,C   1)     60.92  0.000624   -0.65     60.27   
    55. D(H  10,C   4,C   0,C   3)     59.63  0.000890   -0.54     59.09   
    56. D(H  10,C   4,C   0,O   2)    -59.73  0.000316   -0.12    -59.85   
    57. D(H  10,C   4,C   0,C   1)   -178.94 -0.000046    0.20   -178.73   
    58. D(H   9,C   4,C   0,C   3)    178.80  0.000095   -0.16    178.65   
    59. D(H   9,C   4,C   0,O   2)     59.45 -0.000478    0.27     59.71   
    60. D(H   9,C   4,C   0,C   1)    -59.77 -0.000840    0.59    -59.17   
    ----------------------------------------------------------------------------

Geometry step timings:
Preparation and reading OPT file:      0.000 s ( 9.229 %)
Internal coordinates            :      0.000 s ( 1.459 %)
B/P matrices and projection     :      0.001 s (20.036 %)
Hessian update/contruction      :      0.001 s (37.571 %)
Making the step                 :      0.000 s (12.444 %)
Converting the step to Cartesian:      0.000 s ( 2.650 %)
Storing new data                :      0.000 s ( 1.459 %)
Checking convergence            :      0.000 s ( 0.089 %)
Final printing                  :      0.000 s (14.558 %)
Total time                      :      0.003 s

Time for energy+gradient        :     11.567 s
Time for complete geometry iter :     12.067 s

         *************************************************************
         *                GEOMETRY OPTIMIZATION CYCLE   2            *
         *************************************************************
---------------------------------
CARTESIAN COORDINATES (ANGSTROEM)
---------------------------------
  C     -1.556312   -4.547290    0.334661
  C     -1.151749   -5.303118   -0.947038
  O     -1.215378   -3.159253    0.210837
  C     -0.842333   -5.156081    1.557858
  C     -3.077376   -4.588184    0.524323
  H     -0.246277   -3.090538    0.090252
  H      0.259660   -5.080994    1.437189
  H     -1.104824   -6.224852    1.694744
  H     -1.125116   -4.608216    2.480967
  H     -3.590364   -4.127789   -0.345685
  H     -3.371285   -4.024920    1.434578
  H     -3.438539   -5.630019    0.629597
  H     -1.660076   -4.863564   -1.830521
  H     -1.420511   -6.377562   -0.889821
  H     -0.054729   -5.228548   -1.107154

----------------------------
CARTESIAN COORDINATES (A.U.)
----------------------------
  NO LB      ZA    FRAG     MASS         X           Y           Z
   0 C     6.0000    0    12.011   -2.941003   -8.593132    0.632417
   1 C     6.0000    0    12.011   -2.176489  -10.021441   -1.789642
   2 O     8.0000    0    15.999   -2.296731   -5.970123    0.398424
   3 C     6.0000    0    12.011   -1.591779   -9.743580    2.943925
   4 C     6.0000    0    12.011   -5.815397   -8.670410    0.990827
   5 H     1.0000    0     1.008   -0.465396   -5.840270    0.170551
   6 H     1.0000    0     1.008    0.490686   -9.601687    2.715893
   7 H     1.0000    0     1.008   -2.087815  -11.763266    3.202602
   8 H     1.0000    0     1.008   -2.126162   -8.708266    4.688347
   9 H     1.0000    0     1.008   -6.784805   -7.800390   -0.653250
  10 H     1.0000    0     1.008   -6.370805   -7.605997    2.710959
  11 H     1.0000    0     1.008   -6.497898  -10.639193    1.189766
  12 H     1.0000    0     1.008   -3.137089   -9.190804   -3.459183
  13 H     1.0000    0     1.008   -2.684376  -12.051846   -1.681519
  14 H     1.0000    0     1.008   -0.103423   -9.880524   -2.092217

--------------------------------
INTERNAL COORDINATES (ANGSTROEM)
--------------------------------
 C      0   0   0     0.000000000000     0.00000000     0.00000000
 C      1   0   0     1.541978795370     0.00000000     0.00000000
 O      1   2   0     1.434647836340   109.88615397     0.00000000
 C      1   2   3     1.541623835461   110.14742763   238.77527867
 C      1   2   3     1.533388288340   110.48704220   116.36999203
 H      3   1   2     0.978988886897   108.28736297   299.11395419
 H      4   1   2     1.111120104919   110.27177671    60.27268136
 H      4   1   2     1.109014151425   111.64714418   299.88230443
 H      4   1   2     1.110068252470   110.29977362   179.51709443
 H      5   1   2     1.109970735007   110.51416845   300.82668991
 H      5   1   2     1.110050350669   110.52013367   181.26611248
 H      5   1   2     1.107674105469   111.11706249    61.07981827
 H      2   1   3     1.110021559627   110.32339918   301.52866531
 H      2   1   3     1.109024845524   111.61813308   181.08834242
 H      2   1   3     1.111147763316   110.23739448    60.85922729

---------------------------
INTERNAL COORDINATES (A.U.)
---------------------------
 C      0   0   0     0.000000000000     0.00000000     0.00000000
 C      1   0   0     2.913917627562     0.00000000     0.00000000
 O      1   2   0     2.711091509305   109.88615397     0.00000000
 C      1   2   3     2.913246850546   110.14742763   238.77527867
 C      1   2   3     2.897683921925   110.48704220   116.36999203
 H      3   1   2     1.850020884388   108.28736297   299.11395419
 H      4   1   2     2.099712700190   110.27177671    60.27268136
 H      4   1   2     2.095733024836   111.64714418   299.88230443
 H      4   1   2     2.097724987128   110.29977362   179.51709443
 H      5   1   2     2.097540705830   110.51416845   300.82668991
 H      5   1   2     2.097691157627   110.52013367   181.26611248
 H      5   1   2     2.093200704972   111.11706249    61.07981827
 H      2   1   3     2.097636750442   110.32339918   301.52866531
 H      2   1   3     2.095753233754   111.61813308   181.08834242
 H      2   1   3     2.099764966987   110.23739448    60.85922729



           ************************************************************
           *        Program running with 4 parallel MPI-processes     *
           *              working on a common directory               *
           ************************************************************
------------------------------------------------------------------------------
                   ___                                                        
                  /   \      - P O W E R E D   B Y -                         
                 /     \                                                     
                 |  |  |   _    _      __       _____    __    __             
                 |  |  |  | |  | |    /  \     |  _  \  |  |  /  |          
                  \  \/   | |  | |   /    \    | | | |  |  | /  /          
                 / \  \   | |__| |  /  /\  \   | |_| |  |  |/  /          
                |  |  |   |  __  | /  /__\  \  |    /   |      \           
                |  |  |   | |  | | |   __   |  |    \   |  |\   \          
                \     /   | |  | | |  |  |  |  | |\  \  |  | \   \       
                 \___/    |_|  |_| |__|  |__|  |_| \__\ |__|  \__/        
                                                                              
                      - O R C A' S   B I G   F R I E N D -                    
                                      &                                       
                       - I N T E G R A L  F E E D E R -                       
                                                                              
 v1 FN, 2020, v2 2021, v3 2022-2024                                           
------------------------------------------------------------------------------


----------------------
SHARK INTEGRAL PACKAGE
----------------------

Number of atoms                             ...     15
Number of basis functions                   ...    140
Number of shells                            ...     70
Maximum angular momentum                    ...      2
Integral batch strategy                     ... SHARK/LIBINT Hybrid
RI-J (if used) integral strategy            ... SPLIT-RIJ (Revised 2003 algorithm where possible)
Printlevel                                  ...      1
Contraction scheme used                     ... SEGMENTED contraction
Prescreening option                         ... SCHWARTZ
   Thresh                                   ... 2.500e-11
   Tcut                                     ... 2.500e-12
   Tpresel                                  ... 2.500e-12 
Coulomb Range Separation                    ... NOT USED
Exchange Range Separation                   ... NOT USED
Multipole approximations                    ... NOT USED
Finite Nucleus Model                        ... NOT USED
CABS basis                                  ... NOT available
Auxiliary Coulomb fitting basis             ... AVAILABLE
   # of basis functions in Aux-J            ...    355
   # of shells in Aux-J                     ...    125
   Maximum angular momentum in Aux-J        ...      4
Auxiliary J/K fitting basis                 ... NOT available
Auxiliary Correlation fitting basis         ... NOT available
Auxiliary 'external' fitting basis          ... NOT available

Checking pre-screening integrals            ... done (  0.0 sec) Dimension = 70
Check shell pair data                       ... done (  0.0 sec)
Shell pair information
Shell pair cut-off parameter TPreSel        ...   2.5e-12
Total number of shell pairs                 ...      2485
Shell pairs after pre-screening             ...      2470
Total number of primitive shell pairs       ...      7355
Primitive shell pairs kept                  ...      6104
          la=0 lb=0:    814 shell pairs
          la=1 lb=0:    991 shell pairs
          la=1 lb=1:    325 shell pairs
          la=2 lb=0:    200 shell pairs
          la=2 lb=1:    125 shell pairs
          la=2 lb=2:     15 shell pairs

Calculating one electron integrals          ... done (  0.0 sec)
Calculating RI/J V-Matrix + Cholesky decomp.... done (  0.0 sec)
Calculating Nuclear repulsion               ... done (  0.0 sec) ENN=    197.927808415155 Eh

Diagonalization of the overlap matrix:
Smallest eigenvalue                        ... 8.826e-05
Time for diagonalization                   ...    0.003 sec
Threshold for overlap eigenvalues          ... 1.000e-07
Number of eigenvalues below threshold      ... 0
Time for construction of square roots      ...    0.003 sec
Total time needed                          ...    0.007 sec

-------------------
DFT GRID GENERATION
-------------------

General Integration Accuracy     IntAcc      ... 4.388
Radial Grid Type                 RadialGrid  ... OptM3 with GC (2021)
Angular Grid (max. ang.)         AngularGrid ... 4 (Lebedev-302)
Angular grid pruning method      GridPruning ... 4 (adaptive)
Weight generation scheme         WeightScheme... mBecke (2022)
Basis function cutoff            BFCut       ... 1.0000e-11
Integration weight cutoff        WCut        ... 1.0000e-14
Partially contracted basis set               ... off
Rotationally invariant grid construction     ... off
Angular grids for H and He will be reduced by one unit
Diffuse basis detected: some atoms will have their outermost
                        angular grid increased by 1.

Total number of grid points                  ...    63634
Total number of batches                      ...     1001
Average number of points per batch           ...       63
Average number of grid points per atom       ...     4242
Initializing property integral containers    ... done (  0.0 sec)

SHARK setup successfully completed in   0.6 seconds

Maximum memory used throughout the entire STARTUP-calculation: 19.5 MB


           ************************************************************
           *        Program running with 4 parallel MPI-processes     *
           *              working on a common directory               *
           ************************************************************
Occupation numbers will be reassigned to an Aufbau configuration
             **** ENERGY FILE WAS UPDATED (job.en.tmp) ****
Finished Guess after   0.4 sec
Maximum memory used throughout the entire GUESS-calculation: 8.7 MB


           ************************************************************
           *        Program running with 4 parallel MPI-processes     *
           *              working on a common directory               *
           ************************************************************
--------------------
CPCM SOLVATION MODEL
--------------------
CPCM parameters:
  Epsilon                                         ...      35.6880
  Refrac                                          ...       1.3442
  Rsolv                                           ...       1.3000
  Surface type                                    ... GAUSSIAN VDW
  Discretization scheme                           ... Constant charge density
    Threshold for H atoms                         ...       5.0000 (charges/Ang^2)
    Threshold for non-H atoms                     ...       5.0000 (charges/Ang^2)
  Epsilon function type                           ...         CPCM
Solvent:                                          ... ACETONITRILE
SMD-CDS solvent descriptors:
  Soln                                            ...       1.3442
  Soln25                                          ...       1.3416
  Sola                                            ...       0.0700
  Solb                                            ...       0.3200
  Solg                                            ...      41.2500
  Solc                                            ...       0.0000
  Solh                                            ...       0.0000
Radii:
  Scheme                                          ... Element-dependent radii
  Radius for C  used is    3.4960 Bohr (=   1.8500 Ang.)
  Radius for O  used is    4.0969 Bohr (=   2.1680 Ang.)
  Radius for H  used is    2.2677 Bohr (=   1.2000 Ang.)
Calculating surface                               ...        done! (  0.0s)
Cavity surface points                             ...         1132
Cavity Volume                                     ...     723.4167
Cavity Surface-area                               ...     462.5082
Calculating surface distance matrix               ...        done! (  0.0s)
Performing Cholesky decomposition & store         ...        done! (  0.0s)
Overall time for CPCM initialization              ...                 0.1s

----------------------------------------D-I-I-S--------------------------------------------
Iteration    Energy (Eh)           Delta-E    RMSDP     MaxDP     DIISErr   Damp  Time(sec)
-------------------------------------------------------------------------------------------
               ***  Starting incremental Fock matrix formation  ***
    1    -233.2102552908906148     0.00e+00  3.38e-04  9.11e-03  1.50e-02  0.700   0.4
    2    -233.2105039374331739    -2.49e-04  2.77e-04  7.33e-03  1.08e-02  0.700   0.4
                               ***Turning on AO-DIIS***
    3    -233.2106709229812225    -1.67e-04  2.01e-04  5.26e-03  7.27e-03  0.700   0.4
    4    -233.2107830463003495    -1.12e-04  4.78e-04  1.20e-02  5.08e-03  0.000   0.4
                              *** Initializing SOSCF ***
---------------------------------------S-O-S-C-F--------------------------------------
Iteration    Energy (Eh)           Delta-E    RMSDP     MaxDP     MaxGrad    Time(sec)
--------------------------------------------------------------------------------------
    5    -233.2110420642166844    -2.59e-04  2.89e-05  7.77e-04  3.08e-04     0.4
               *** Restarting incremental Fock matrix formation ***
    6    -233.2110422800863319    -2.16e-07  1.89e-05  5.34e-04  3.26e-05     0.4
    7    -233.2110422796000364     4.86e-10  6.10e-06  1.26e-04  4.85e-05     0.4
                 **** Energy Check signals convergence ****

               *****************************************************
               *                     SUCCESS                       *
               *           SCF CONVERGED AFTER   7 CYCLES          *
               *****************************************************


SMD CDS free energy correction energy :                -0.94016     Kcal/mol
Total Energy after SMD CDS correction =              -233.212540524 Eh
             **** ENERGY FILE WAS UPDATED (job.en.tmp) ****

----------------
TOTAL SCF ENERGY
----------------

Total Energy       :       -233.21254052407582 Eh           -6346.03585 eV

Components:
Nuclear Repulsion  :        197.92780841515477 Eh            5385.88948 eV
Electronic Energy  :       -431.13090571440279 Eh          -11731.66837 eV
One Electron Energy:       -707.23698584103113 Eh          -19244.89678 eV
Two Electron Energy:        276.10608012662834 Eh            7513.22841 eV
CPCM Dielectric    :         -0.00794498035201 Eh              -0.21619 eV
SMD CDS (Gcds)     :         -0.00149824447579 Eh              -0.04077 eV

Virial components:
Potential Energy   :       -463.70894736490652 Eh          -12618.16195 eV
Kinetic Energy     :        230.49640684083067 Eh            6272.12610 eV
Virial Ratio       :          2.01178384392396

DFT components:
N(Alpha)           :       21.000076028423 electrons
N(Beta)            :       21.000076028423 electrons
N(Total)           :       42.000152056846 electrons
E(X)               :      -32.225070064807 Eh       
E(C)               :       -1.371009959110 Eh       
E(XC)              :      -33.596080023917 Eh       

CPCM Solvation Model Properties:
Surface-charge          :         -0.04159602745000
Corrected charge        :         -0.00000000000000
Outlying charge corr.   :          0.00014538776662 Eh               0.00396 eV
Free-energy (cav+disp)  :         -0.00149824447579 Eh              -0.04077 eV

---------------
SCF CONVERGENCE
---------------

  Last Energy change         ...   -4.8630e-10  Tolerance :   1.0000e-08
  Last MAX-Density change    ...    1.2585e-04  Tolerance :   1.0000e-07
  Last RMS-Density change    ...    6.0954e-06  Tolerance :   5.0000e-09
  Last DIIS Error            ...    3.0784e-04  Tolerance :   5.0000e-07
  Last Orbital Gradient      ...    4.8532e-05  Tolerance :   1.0000e-05
  Last Orbital Rotation      ...    3.0742e-05  Tolerance :   1.0000e-05


Total SCF time: 0 days 0 hours 0 min 3 sec 
Finished LeanSCF after   3.4 sec

Maximum memory used throughout the entire LEANSCF-calculation: 13.9 MB


           ************************************************************
           *        Program running with 4 parallel MPI-processes     *
           *              working on a common directory               *
           ************************************************************

------------------------------------------------------------------------------
                         ORCA PROPERTY INTEGRAL CALCULATIONS
------------------------------------------------------------------------------

GBWName                                   ... job.gbw
Number of atoms                           ...     15
Number of basis functions                 ...    140
Max core memory                           ...   3000 MB

Dipole integrals                          ... YES
Quadrupole integrals                      ...  NO
Linear momentum integrals                 ...  NO
Angular momentum integrals                ...  NO
Higher moments length integrals           ...  NO
Higher moments velocity integrals         ...  NO
Kinetic energy integrals                  ...  NO
GIAO right hand sides                     ...  NO
GIAO dipole derivative integrals          ...  NO
SOC integrals                             ...  NO
EPR diamagnetic integrals (GIAO)          ...  NO
EPR gauge integrals                       ...  NO
Field gradient integrals                  ...  NO (   0 nuclei)
Spin-dipole/Fermi contact integrals       ...  NO (   0 nuclei)
Contact density integrals                 ...  NO (   0 nuclei)
Nucleus-orbit integrals                   ...  NO (   0 nuclei)
Geometric perturbations                   ...  NO (  15 nuclei)

Choice of electric origin   ... Center of mass
Position of electric origin ... ( -2.9301, -8.5546,  0.6284) 
Choice of magnetic origin   ... GIAO
Position of magnetic origin ... (  0.0000,  0.0000,  0.0000) 

Calculating integrals                     ... Electric Dipole (Length)     done (  0.0 sec)

Property integrals calculated in   0.0 sec

Maximum memory used throughout the entire PROPINT-calculation: 8.8 MB

-------------------------   --------------------
FINAL SINGLE POINT ENERGY      -233.212540524076
-------------------------   --------------------



           ************************************************************
           *        Program running with 4 parallel MPI-processes     *
           *              working on a common directory               *
           ************************************************************
------------------------------------------------------------------------------
                         ORCA SCF GRADIENT CALCULATION
------------------------------------------------------------------------------

Nuc. rep. gradient        (SHARK) ... done (  0.0 sec)
HCore & Overlap gradient  (SHARK) ... done (  0.1 sec)
Split-RIJ-J gradient      (SHARK) ... done (  0.3 sec)
XC gradient                       ... done (  1.5 sec)
CPCM gradient                     ... done (  0.2 sec)
SMD gradient                      ... done (  0.0 sec)

------------------
CARTESIAN GRADIENT
------------------

   1   C   :    0.001692681    0.010801052   -0.000641054
   2   C   :    0.000089590   -0.003084522   -0.000800312
   3   O   :   -0.001112208   -0.006858511    0.000419337
   4   C   :    0.000375143   -0.003129060    0.000867560
   5   C   :   -0.000440484   -0.002218870    0.000068660
   6   H   :    0.000316597    0.001020594   -0.000031242
   7   H   :   -0.000169771    0.000864263   -0.000406865
   8   H   :   -0.000209045    0.000130451    0.000387894
   9   H   :   -0.000196227    0.000285956   -0.000084413
  10   H   :    0.000185253    0.000310572   -0.000112061
  11   H   :    0.000212671    0.000283476    0.000081136
  12   H   :   -0.000304108    0.000389562    0.000028307
  13   H   :   -0.000215681    0.000302147    0.000119688
  14   H   :   -0.000174496    0.000079855   -0.000294055
  15   H   :   -0.000049916    0.000823036    0.000397419

Difference to translation invariance:
           :   -0.0000000000    0.0000000000   -0.0000000000

Difference to rotation invariance:
           :    0.0000956848   -0.0001245763   -0.0000999559

Norm of the Cartesian gradient     ...    0.0140860470
RMS gradient                       ...    0.0020998239
MAX gradient                       ...    0.0108010521

-------
TIMINGS
-------

Total SCF gradient time     ....        2.309 sec

Densities                   ....       0.000 sec  (  0.0%)
One electron gradient       ....       0.054 sec  (  2.3%)
RI-J Coulomb gradient       ....       0.331 sec  ( 14.4%)
XC gradient                 ....       1.462 sec  ( 63.3%)
CPCM gradient               ....       0.232 sec  ( 10.1%)
   A-Matrix (El+Nuc)        ....       0.059 sec  (  2.6%)
   Potential                ....       0.173 sec  (  7.5%)
SMD gradient                ....       0.002 sec  (  0.1%)

Maximum memory used throughout the entire SCFGRAD-calculation: 18.3 MB
------------------------------------------------------------------------------
                         ORCA GEOMETRY RELAXATION STEP
------------------------------------------------------------------------------

Reading the OPT-File                    .... done
Getting information on internals        .... done
Copying old internal coords+grads       .... done
Making the new internal coordinates     .... (2022 redundants) done
Validating the new internal coordinates .... (2022 redundants) done
Calculating the B-matrix                .... done
Calculating the G,G- and P matrices     .... done
Transforming gradient to internals      .... done
Projecting the internal gradient        .... done
Number of atoms                         ....  15
Number of internal coordinates          ....  60
Current Energy                          ....  -233.212540524 Eh
Current gradient norm                   ....     0.014086047 Eh/bohr
Maximum allowed component of the step   ....  0.300
Current trust radius                    ....  0.300
Updating the Hessian (BFGS)             .... done
Forming the augmented Hessian           .... done
Diagonalizing the augmented Hessian     .... done
Last element of RFO vector              ....  0.999437603
Lowest eigenvalues of augmented Hessian:
 -0.000165468  0.010183008  0.010196027  0.010750697  0.019213821
Length of the computed step             ....  0.033552113
The final length of the internal step   ....  0.033552113
Converting the step to Cartesian space:
 Initial RMS(Int)=    0.0043315591
Transforming coordinates:
 Iter   0:  RMS(Cart)=    0.0049263551 RMS(Int)=    0.0043341094
done
Storing new coordinates                 .... done
The predicted energy change is          ....    -0.000082827
Previously predicted energy change      ....    -0.002188978
Actually observed energy change         ....    -0.002413722
Ratio of predicted to observed change   ....     1.102670658
New trust radius                        ....     0.450000000

                                .--------------------.
          ----------------------|Geometry convergence|-------------------------
          Item                value                   Tolerance       Converged
          ---------------------------------------------------------------------
          Energy change      -0.0024137216            0.0000050000      NO
          RMS gradient        0.0009331639            0.0001000000      NO
          MAX gradient        0.0058695839            0.0003000000      NO
          RMS step            0.0043315591            0.0020000000      NO
          MAX step            0.0133295429            0.0040000000      NO
          ........................................................
          Max(Bonds)      0.0071      Max(Angles)    0.36
          Max(Dihed)        0.64      Max(Improp)    0.00
          ---------------------------------------------------------------------

The optimization has not yet converged - more geometry cycles are needed


    ---------------------------------------------------------------------------
                         Redundant Internal Coordinates
                            (Angstroem and degrees)

        Definition                    Value    dE/dq     Step     New-Value
    ----------------------------------------------------------------------------
     1. B(C   1,C   0)                1.5420  0.001310 -0.0021    1.5399   
     2. B(O   2,C   0)                1.4346 -0.005870  0.0071    1.4417   
     3. B(C   3,C   0)                1.5416  0.001242 -0.0020    1.5396   
     4. B(C   4,C   0)                1.5334  0.000386 -0.0007    1.5327   
     5. B(H   5,O   2)                0.9790  0.000387 -0.0022    0.9768   
     6. B(H   6,C   3)                1.1111 -0.000063  0.0002    1.1113   
     7. B(H   7,C   3)                1.1090 -0.000032  0.0000    1.1090   
     8. B(H   8,C   3)                1.1101  0.000121 -0.0002    1.1099   
     9. B(H   9,C   4)                1.1100  0.000129 -0.0002    1.1098   
    10. B(H  10,C   4)                1.1101  0.000155 -0.0002    1.1098   
    11. B(H  11,C   4)                1.1077 -0.000262  0.0004    1.1081   
    12. B(H  12,C   1)                1.1100  0.000123 -0.0002    1.1098   
    13. B(H  13,C   1)                1.1090 -0.000049  0.0000    1.1091   
    14. B(H  14,C   1)                1.1111 -0.000053  0.0002    1.1113   
    15. A(C   1,C   0,O   2)          109.89  0.000305   -0.19    109.70   
    16. A(C   3,C   0,C   4)          110.53 -0.000235    0.18    110.71   
    17. A(O   2,C   0,C   3)          109.91  0.000358   -0.21    109.70   
    18. A(C   1,C   0,C   3)          110.15 -0.000322    0.18    110.33   
    19. A(O   2,C   0,C   4)          105.80  0.000173   -0.17    105.63   
    20. A(C   1,C   0,C   4)          110.49 -0.000250    0.19    110.68   
    21. A(H  12,C   1,H  13)          108.28 -0.000002   -0.02    108.27   
    22. A(C   0,C   1,H  13)          111.62  0.000966   -0.19    111.43   
    23. A(H  12,C   1,H  14)          108.11 -0.000105    0.04    108.15   
    24. A(C   0,C   1,H  12)          110.32 -0.000829    0.17    110.49   
    25. A(H  13,C   1,H  14)          108.16  0.001091   -0.23    107.93   
    26. A(C   0,C   1,H  14)          110.24 -0.001099    0.23    110.47   
    27. A(C   0,O   2,H   5)          108.29  0.001842   -0.36    107.93   
    28. A(H   7,C   3,H   8)          108.22  0.000239    0.01    108.23   
    29. A(H   6,C   3,H   8)          108.04  0.000125    0.03    108.07   
    30. A(C   0,C   3,H   8)          110.30 -0.000510    0.16    110.46   
    31. A(H   6,C   3,H   7)          108.26  0.000588   -0.24    108.02   
    32. A(C   0,C   3,H   7)          111.65  0.000824   -0.18    111.46   
    33. A(C   0,C   3,H   6)          110.27 -0.001241    0.22    110.49   
    34. A(C   0,C   4,H  10)          110.52 -0.000515    0.13    110.65   
    35. A(C   0,C   4,H   9)          110.51 -0.000460    0.12    110.63   
    36. A(H  10,C   4,H  11)          108.24 -0.000052   -0.03    108.21   
    37. A(H   9,C   4,H  11)          108.30 -0.000008   -0.04    108.25   
    38. A(C   0,C   4,H  11)          111.12  0.000840   -0.22    110.90   
    39. A(H   9,C   4,H  10)          108.05  0.000196    0.05    108.11   
    40. D(H  13,C   1,C   0,O   2)   -178.91 -0.000038    0.37   -178.54   
    41. D(H  13,C   1,C   0,C   3)     59.86 -0.000474    0.64     60.50   
    42. D(H  12,C   1,C   0,O   2)    -58.47  0.000038    0.34    -58.13   
    43. D(H  12,C   1,C   0,C   3)   -179.70 -0.000398    0.60   -179.09   
    44. D(H  12,C   1,C   0,C   4)     57.90  0.000284    0.14     58.04   
    45. D(H  13,C   1,C   0,C   4)    -62.54  0.000208    0.17    -62.37   
    46. D(H   5,O   2,C   0,C   4)    179.83 -0.000021    0.11    179.94   
    47. D(H   5,O   2,C   0,C   3)     60.48 -0.000030    0.11     60.59   
    48. D(H   5,O   2,C   0,C   1)    -60.89 -0.000058    0.14    -60.75   
    49. D(H   7,C   3,C   0,O   2)    178.67 -0.000219   -0.12    178.55   
    50. D(H   7,C   3,C   0,C   1)    -60.12  0.000185   -0.36    -60.48   
    51. D(H   6,C   3,C   0,C   4)   -177.35 -0.000058   -0.16   -177.51   
    52. D(H   6,C   3,C   0,O   2)    -60.94  0.000228   -0.39    -61.33   
    53. D(H   7,C   3,C   0,C   4)     62.26 -0.000506    0.11     62.37   
    54. D(H   6,C   3,C   0,C   1)     60.27  0.000633   -0.64     59.64   
    55. D(H  10,C   4,C   0,C   3)     59.09  0.000558   -0.28     58.81   
    56. D(H  10,C   4,C   0,O   2)    -59.85  0.000154   -0.02    -59.87   
    57. D(H  10,C   4,C   0,C   1)   -178.73 -0.000178    0.19   -178.54   
    58. D(H   9,C   4,C   0,C   3)    178.65  0.000175   -0.06    178.59   
    59. D(H   9,C   4,C   0,O   2)     59.71 -0.000228    0.20     59.91   
    60. D(H   9,C   4,C   0,C   1)    -59.17 -0.000560    0.41    -58.76   
    ----------------------------------------------------------------------------

Geometry step timings:
Preparation and reading OPT file:      0.001 s ( 7.758 %)
Internal coordinates            :      0.000 s ( 0.391 %)
B/P matrices and projection     :      0.001 s (13.741 %)
Hessian update/contruction      :      0.003 s (48.169 %)
Making the step                 :      0.001 s (10.302 %)
Converting the step to Cartesian:      0.000 s ( 1.398 %)
Storing new data                :      0.000 s ( 1.034 %)
Checking convergence            :      0.000 s ( 0.405 %)
Final printing                  :      0.001 s (16.760 %)
Total time                      :      0.007 s

Time for energy+gradient        :      8.902 s
Time for complete geometry iter :      9.470 s

         *************************************************************
         *                GEOMETRY OPTIMIZATION CYCLE   3            *
         *************************************************************
---------------------------------
CARTESIAN COORDINATES (ANGSTROEM)
---------------------------------
  C     -1.557820   -4.550998    0.335085
  C     -1.151243   -5.300907   -0.946913
  O     -1.216217   -3.155847    0.211139
  C     -0.841723   -5.154017    1.557372
  C     -3.078306   -4.588552    0.524788
  H     -0.249138   -3.092746    0.089190
  H      0.260718   -5.084397    1.435924
  H     -1.104804   -6.222493    1.695487
  H     -1.121618   -4.605380    2.480685
  H     -3.592374   -4.130676   -0.345663
  H     -3.373176   -4.025713    1.434697
  H     -3.437772   -5.631294    0.631045
  H     -1.653445   -4.857912   -1.831947
  H     -1.425338   -6.374199   -0.892631
  H     -0.052953   -5.235795   -1.103471

----------------------------
CARTESIAN COORDINATES (A.U.)
----------------------------
  NO LB      ZA    FRAG     MASS         X           Y           Z
   0 C     6.0000    0    12.011   -2.943854   -8.600140    0.633219
   1 C     6.0000    0    12.011   -2.175534  -10.017263   -1.789407
   2 O     8.0000    0    15.999   -2.298317   -5.963686    0.398994
   3 C     6.0000    0    12.011   -1.590625   -9.739681    2.943006
   4 C     6.0000    0    12.011   -5.817155   -8.671107    0.991705
   5 H     1.0000    0     1.008   -0.470802   -5.844444    0.168544
   6 H     1.0000    0     1.008    0.492686   -9.608117    2.713503
   7 H     1.0000    0     1.008   -2.087776  -11.758808    3.204006
   8 H     1.0000    0     1.008   -2.119550   -8.702907    4.687816
   9 H     1.0000    0     1.008   -6.788603   -7.805846   -0.653208
  10 H     1.0000    0     1.008   -6.374380   -7.607495    2.711184
  11 H     1.0000    0     1.008   -6.496447  -10.641604    1.192502
  12 H     1.0000    0     1.008   -3.124558   -9.180122   -3.461878
  13 H     1.0000    0     1.008   -2.693499  -12.045491   -1.686829
  14 H     1.0000    0     1.008   -0.100067   -9.894219   -2.085258

--------------------------------
INTERNAL COORDINATES (ANGSTROEM)
--------------------------------
 C      0   0   0     0.000000000000     0.00000000     0.00000000
 C      1   0   0     1.539866407290     0.00000000     0.00000000
 O      1   2   0     1.441701526649   109.70242896     0.00000000
 C      1   2   3     1.539614597259   110.32824735   239.03765026
 C      1   2   3     1.532734209497   110.67296294   116.16573715
 H      3   1   2     0.976778091903   107.92910462   299.25004358
 H      4   1   2     1.111293275081   110.49417405    59.63400444
 H      4   1   2     1.109021510826   111.46204703   299.51860277
 H      4   1   2     1.109888019508   110.45878175   179.15904274
 H      5   1   2     1.109775062599   110.62994779   301.24286278
 H      5   1   2     1.109806570277   110.64769834   181.46069354
 H      5   1   2     1.108069585683   110.90013509    61.37499600
 H      2   1   3     1.109836245980   110.48988596   301.86873532
 H      2   1   3     1.109067458941   111.42518968   181.46258393
 H      2   1   3     1.111301245302   110.46869369    61.49897111

---------------------------
INTERNAL COORDINATES (A.U.)
---------------------------
 C      0   0   0     0.000000000000     0.00000000     0.00000000
 C      1   0   0     2.909925792603     0.00000000     0.00000000
 O      1   2   0     2.724421052222   109.70242896     0.00000000
 C      1   2   3     2.909449940607   110.32824735   239.03765026
 C      1   2   3     2.896447892042   110.67296294   116.16573715
 H      3   1   2     1.845843087311   107.92910462   299.25004358
 H      4   1   2     2.100039944371   110.49417405    59.63400444
 H      4   1   2     2.095746932089   111.46204703   299.51860277
 H      4   1   2     2.097384396190   110.45878175   179.15904274
 H      5   1   2     2.097170938568   110.62994779   301.24286278
 H      5   1   2     2.097230479450   110.64769834   181.46069354
 H      5   1   2     2.093948054268   110.90013509    61.37499600
 H      2   1   3     2.097286558402   110.48988596   301.86873532
 H      2   1   3     2.095833761442   111.42518968   181.46258393
 H      2   1   3     2.100055005907   110.46869369    61.49897111



           ************************************************************
           *        Program running with 4 parallel MPI-processes     *
           *              working on a common directory               *
           ************************************************************
------------------------------------------------------------------------------
                   ___                                                        
                  /   \      - P O W E R E D   B Y -                         
                 /     \                                                     
                 |  |  |   _    _      __       _____    __    __             
                 |  |  |  | |  | |    /  \     |  _  \  |  |  /  |          
                  \  \/   | |  | |   /    \    | | | |  |  | /  /          
                 / \  \   | |__| |  /  /\  \   | |_| |  |  |/  /          
                |  |  |   |  __  | /  /__\  \  |    /   |      \           
                |  |  |   | |  | | |   __   |  |    \   |  |\   \          
                \     /   | |  | | |  |  |  |  | |\  \  |  | \   \       
                 \___/    |_|  |_| |__|  |__|  |_| \__\ |__|  \__/        
                                                                              
                      - O R C A' S   B I G   F R I E N D -                    
                                      &                                       
                       - I N T E G R A L  F E E D E R -                       
                                                                              
 v1 FN, 2020, v2 2021, v3 2022-2024                                           
------------------------------------------------------------------------------


----------------------
SHARK INTEGRAL PACKAGE
----------------------

Number of atoms                             ...     15
Number of basis functions                   ...    140
Number of shells                            ...     70
Maximum angular momentum                    ...      2
Integral batch strategy                     ... SHARK/LIBINT Hybrid
RI-J (if used) integral strategy            ... SPLIT-RIJ (Revised 2003 algorithm where possible)
Printlevel                                  ...      1
Contraction scheme used                     ... SEGMENTED contraction
Prescreening option                         ... SCHWARTZ
   Thresh                                   ... 2.500e-11
   Tcut                                     ... 2.500e-12
   Tpresel                                  ... 2.500e-12 
Coulomb Range Separation                    ... NOT USED
Exchange Range Separation                   ... NOT USED
Multipole approximations                    ... NOT USED
Finite Nucleus Model                        ... NOT USED
CABS basis                                  ... NOT available
Auxiliary Coulomb fitting basis             ... AVAILABLE
   # of basis functions in Aux-J            ...    355
   # of shells in Aux-J                     ...    125
   Maximum angular momentum in Aux-J        ...      4
Auxiliary J/K fitting basis                 ... NOT available
Auxiliary Correlation fitting basis         ... NOT available
Auxiliary 'external' fitting basis          ... NOT available

Checking pre-screening integrals            ... done (  0.0 sec) Dimension = 70
Check shell pair data                       ... done (  0.0 sec)
Shell pair information
Shell pair cut-off parameter TPreSel        ...   2.5e-12
Total number of shell pairs                 ...      2485
Shell pairs after pre-screening             ...      2470
Total number of primitive shell pairs       ...      7355
Primitive shell pairs kept                  ...      6106
          la=0 lb=0:    814 shell pairs
          la=1 lb=0:    991 shell pairs
          la=1 lb=1:    325 shell pairs
          la=2 lb=0:    200 shell pairs
          la=2 lb=1:    125 shell pairs
          la=2 lb=2:     15 shell pairs

Calculating one electron integrals          ... done (  0.0 sec)
Calculating RI/J V-Matrix + Cholesky decomp.... done (  0.0 sec)
Calculating Nuclear repulsion               ... done (  0.0 sec) ENN=    197.864448113816 Eh

Diagonalization of the overlap matrix:
Smallest eigenvalue                        ... 8.796e-05
Time for diagonalization                   ...    0.004 sec
Threshold for overlap eigenvalues          ... 1.000e-07
Number of eigenvalues below threshold      ... 0
Time for construction of square roots      ...    0.004 sec
Total time needed                          ...    0.009 sec

-------------------
DFT GRID GENERATION
-------------------

General Integration Accuracy     IntAcc      ... 4.388
Radial Grid Type                 RadialGrid  ... OptM3 with GC (2021)
Angular Grid (max. ang.)         AngularGrid ... 4 (Lebedev-302)
Angular grid pruning method      GridPruning ... 4 (adaptive)
Weight generation scheme         WeightScheme... mBecke (2022)
Basis function cutoff            BFCut       ... 1.0000e-11
Integration weight cutoff        WCut        ... 1.0000e-14
Partially contracted basis set               ... off
Rotationally invariant grid construction     ... off
Angular grids for H and He will be reduced by one unit
Diffuse basis detected: some atoms will have their outermost
                        angular grid increased by 1.

Total number of grid points                  ...    63637
Total number of batches                      ...     1002
Average number of points per batch           ...       63
Average number of grid points per atom       ...     4242
Initializing property integral containers    ... done (  0.0 sec)

SHARK setup successfully completed in   0.6 seconds

Maximum memory used throughout the entire STARTUP-calculation: 19.5 MB


           ************************************************************
           *        Program running with 4 parallel MPI-processes     *
           *              working on a common directory               *
           ************************************************************
Occupation numbers will be reassigned to an Aufbau configuration
             **** ENERGY FILE WAS UPDATED (job.en.tmp) ****
Finished Guess after   0.3 sec
Maximum memory used throughout the entire GUESS-calculation: 8.7 MB


           ************************************************************
           *        Program running with 4 parallel MPI-processes     *
           *              working on a common directory               *
           ************************************************************
--------------------
CPCM SOLVATION MODEL
--------------------
CPCM parameters:
  Epsilon                                         ...      35.6880
  Refrac                                          ...       1.3442
  Rsolv                                           ...       1.3000
  Surface type                                    ... GAUSSIAN VDW
  Discretization scheme                           ... Constant charge density
    Threshold for H atoms                         ...       5.0000 (charges/Ang^2)
    Threshold for non-H atoms                     ...       5.0000 (charges/Ang^2)
  Epsilon function type                           ...         CPCM
Solvent:                                          ... ACETONITRILE
SMD-CDS solvent descriptors:
  Soln                                            ...       1.3442
  Soln25                                          ...       1.3416
  Sola                                            ...       0.0700
  Solb                                            ...       0.3200
  Solg                                            ...      41.2500
  Solc                                            ...       0.0000
  Solh                                            ...       0.0000
Radii:
  Scheme                                          ... Element-dependent radii
  Radius for C  used is    3.4960 Bohr (=   1.8500 Ang.)
  Radius for O  used is    4.0969 Bohr (=   2.1680 Ang.)
  Radius for H  used is    2.2677 Bohr (=   1.2000 Ang.)
Calculating surface                               ...        done! (  0.0s)
Cavity surface points                             ...         1133
Cavity Volume                                     ...     723.6191
Cavity Surface-area                               ...     462.6244
Calculating surface distance matrix               ...        done! (  0.0s)
Performing Cholesky decomposition & store         ...        done! (  0.0s)
Overall time for CPCM initialization              ...                 0.1s

----------------------------------------D-I-I-S--------------------------------------------
Iteration    Energy (Eh)           Delta-E    RMSDP     MaxDP     DIISErr   Damp  Time(sec)
-------------------------------------------------------------------------------------------
               ***  Starting incremental Fock matrix formation  ***
                              *** Initializing SOSCF ***
---------------------------------------S-O-S-C-F--------------------------------------
Iteration    Energy (Eh)           Delta-E    RMSDP     MaxDP     MaxGrad    Time(sec)
--------------------------------------------------------------------------------------
    1    -233.2111086575717707     0.00e+00  2.07e-04  3.73e-03  1.66e-04     0.4
               *** Restarting incremental Fock matrix formation ***
    2    -233.2111548696789498    -4.62e-05  8.82e-05  1.65e-03  2.47e-04     0.4
    3    -233.2111558057124796    -9.36e-07  4.54e-05  8.83e-04  4.22e-04     0.4
    4    -233.2111578565564116    -2.05e-06  3.11e-05  5.65e-04  1.25e-04     0.4
    5    -233.2111582079818106    -3.51e-07  7.67e-06  2.39e-04  5.45e-05     0.4
    6    -233.2111582650935304    -5.71e-08  7.04e-06  1.62e-04  3.94e-05     0.4
    7    -233.2111583082900381    -4.32e-08  2.21e-06  5.22e-05  8.81e-06     0.4
    8    -233.2111583111476136    -2.86e-09  1.51e-06  9.53e-05  3.54e-06     0.3
                 **** Energy Check signals convergence ****

               *****************************************************
               *                     SUCCESS                       *
               *           SCF CONVERGED AFTER   8 CYCLES          *
               *****************************************************


SMD CDS free energy correction energy :                -0.94595     Kcal/mol
Total Energy after SMD CDS correction =              -233.212665780 Eh
             **** ENERGY FILE WAS UPDATED (job.en.tmp) ****

----------------
TOTAL SCF ENERGY
----------------

Total Energy       :       -233.21266577971954 Eh           -6346.03926 eV

Components:
Nuclear Repulsion  :        197.86444811381611 Eh            5384.16536 eV
Electronic Energy  :       -431.06761931882210 Eh          -11729.94626 eV
One Electron Energy:       -707.11421079378317 Eh          -19241.55590 eV
Two Electron Energy:        276.04659147496108 Eh            7511.60964 eV
CPCM Dielectric    :         -0.00798710614164 Eh              -0.21734 eV
SMD CDS (Gcds)     :         -0.00150746857194 Eh              -0.04102 eV

Virial components:
Potential Energy   :       -463.70898823758955 Eh          -12618.16306 eV
Kinetic Energy     :        230.49632245787001 Eh            6272.12380 eV
Virial Ratio       :          2.01178475774747

DFT components:
N(Alpha)           :       21.000075205024 electrons
N(Beta)            :       21.000075205024 electrons
N(Total)           :       42.000150410048 electrons
E(X)               :      -32.225078650861 Eh       
E(C)               :       -1.370922484879 Eh       
E(XC)              :      -33.596001135740 Eh       

CPCM Solvation Model Properties:
Surface-charge          :         -0.04152184192736
Corrected charge        :          0.00000000000000
Outlying charge corr.   :          0.00014484714586 Eh               0.00394 eV
Free-energy (cav+disp)  :         -0.00150746857194 Eh              -0.04102 eV

---------------
SCF CONVERGENCE
---------------

  Last Energy change         ...    2.8576e-09  Tolerance :   1.0000e-08
  Last MAX-Density change    ...    9.5305e-05  Tolerance :   1.0000e-07
  Last RMS-Density change    ...    1.5121e-06  Tolerance :   5.0000e-09
  Last DIIS Error            ...    1.9485e-03  Tolerance :   5.0000e-07
  Last Orbital Gradient      ...    3.5354e-06  Tolerance :   1.0000e-05
  Last Orbital Rotation      ...    3.7307e-06  Tolerance :   1.0000e-05


Total SCF time: 0 days 0 hours 0 min 3 sec 
Finished LeanSCF after   3.6 sec

Maximum memory used throughout the entire LEANSCF-calculation: 14.0 MB


           ************************************************************
           *        Program running with 4 parallel MPI-processes     *
           *              working on a common directory               *
           ************************************************************

------------------------------------------------------------------------------
                         ORCA PROPERTY INTEGRAL CALCULATIONS
------------------------------------------------------------------------------

GBWName                                   ... job.gbw
Number of atoms                           ...     15
Number of basis functions                 ...    140
Max core memory                           ...   3000 MB

Dipole integrals                          ... YES
Quadrupole integrals                      ...  NO
Linear momentum integrals                 ...  NO
Angular momentum integrals                ...  NO
Higher moments length integrals           ...  NO
Higher moments velocity integrals         ...  NO
Kinetic energy integrals                  ...  NO
GIAO right hand sides                     ...  NO
GIAO dipole derivative integrals          ...  NO
SOC integrals                             ...  NO
EPR diamagnetic integrals (GIAO)          ...  NO
EPR gauge integrals                       ...  NO
Field gradient integrals                  ...  NO (   0 nuclei)
Spin-dipole/Fermi contact integrals       ...  NO (   0 nuclei)
Contact density integrals                 ...  NO (   0 nuclei)
Nucleus-orbit integrals                   ...  NO (   0 nuclei)
Geometric perturbations                   ...  NO (  15 nuclei)

Choice of electric origin   ... Center of mass
Position of electric origin ... ( -2.9307, -8.5532,  0.6287) 
Choice of magnetic origin   ... GIAO
Position of magnetic origin ... (  0.0000,  0.0000,  0.0000) 

Calculating integrals                     ... Electric Dipole (Length)     done (  0.0 sec)

Property integrals calculated in   0.0 sec

Maximum memory used throughout the entire PROPINT-calculation: 8.8 MB

-------------------------   --------------------
FINAL SINGLE POINT ENERGY      -233.212665779720
-------------------------   --------------------



           ************************************************************
           *        Program running with 4 parallel MPI-processes     *
           *              working on a common directory               *
           ************************************************************
------------------------------------------------------------------------------
                         ORCA SCF GRADIENT CALCULATION
------------------------------------------------------------------------------

Nuc. rep. gradient        (SHARK) ... done (  0.0 sec)
HCore & Overlap gradient  (SHARK) ... done (  0.1 sec)
Split-RIJ-J gradient      (SHARK) ... done (  0.3 sec)
XC gradient                       ... done (  1.4 sec)
CPCM gradient                     ... done (  0.2 sec)
SMD gradient                      ... done (  0.0 sec)

------------------
CARTESIAN GRADIENT
------------------

   1   C   :    0.000920495    0.006062152   -0.000345594
   2   C   :   -0.000059321   -0.001954788   -0.000512364
   3   O   :    0.001279795   -0.003801084   -0.000018501
   4   C   :    0.000124672   -0.002063155    0.000529082
   5   C   :   -0.000368983   -0.001195029    0.000072973
   6   H   :   -0.001681930    0.000574444    0.000229492
   7   H   :    0.000015419    0.000533553   -0.000236989
   8   H   :   -0.000101898    0.000226136    0.000177141
   9   H   :   -0.000086437    0.000211759   -0.000038663
  10   H   :    0.000092009    0.000210223   -0.000034031
  11   H   :    0.000090610    0.000173360    0.000014453
  12   H   :   -0.000145854    0.000180223    0.000015425
  13   H   :   -0.000103601    0.000202952    0.000052233
  14   H   :   -0.000060252    0.000183443   -0.000148005
  15   H   :    0.000085275    0.000455811    0.000243348

Difference to translation invariance:
           :   -0.0000000000   -0.0000000000   -0.0000000000

Difference to rotation invariance:
           :    0.0000955821   -0.0001241705   -0.0000700009

Norm of the Cartesian gradient     ...    0.0082610820
RMS gradient                       ...    0.0012314894
MAX gradient                       ...    0.0060621524

-------
TIMINGS
-------

Total SCF gradient time     ....        2.086 sec

Densities                   ....       0.000 sec  (  0.0%)
One electron gradient       ....       0.053 sec  (  2.5%)
RI-J Coulomb gradient       ....       0.327 sec  ( 15.7%)
XC gradient                 ....       1.394 sec  ( 66.8%)
CPCM gradient               ....       0.170 sec  (  8.1%)
   A-Matrix (El+Nuc)        ....       0.062 sec  (  3.0%)
   Potential                ....       0.108 sec  (  5.2%)
SMD gradient                ....       0.002 sec  (  0.1%)

Maximum memory used throughout the entire SCFGRAD-calculation: 18.3 MB
------------------------------------------------------------------------------
                         ORCA GEOMETRY RELAXATION STEP
------------------------------------------------------------------------------

Reading the OPT-File                    .... done
Getting information on internals        .... done
Copying old internal coords+grads       .... done
Making the new internal coordinates     .... (2022 redundants) done
Validating the new internal coordinates .... (2022 redundants) done
Calculating the B-matrix                .... done
Calculating the G,G- and P matrices     .... done
Transforming gradient to internals      .... done
Projecting the internal gradient        .... done
Number of atoms                         ....  15
Number of internal coordinates          ....  60
Current Energy                          ....  -233.212665780 Eh
Current gradient norm                   ....     0.008261082 Eh/bohr
Maximum allowed component of the step   ....  0.300
Current trust radius                    ....  0.450
Updating the Hessian (BFGS)             .... done
Forming the augmented Hessian           .... done
Diagonalizing the augmented Hessian     .... done
Last element of RFO vector              ....  0.999158078
Lowest eigenvalues of augmented Hessian:
 -0.000129890  0.010029840  0.010198577  0.010739100  0.019139060
Length of the computed step             ....  0.041060594
The final length of the internal step   ....  0.041060594
Converting the step to Cartesian space:
 Initial RMS(Int)=    0.0053008998
Transforming coordinates:
 Iter   0:  RMS(Cart)=    0.0051585568 RMS(Int)=    0.8107004655
done
Storing new coordinates                 .... done
The predicted energy change is          ....    -0.000065054
Previously predicted energy change      ....    -0.000082827
Actually observed energy change         ....    -0.000125256
Ratio of predicted to observed change   ....     1.512254294
New trust radius                        ....     0.300000000

                                .--------------------.
          ----------------------|Geometry convergence|-------------------------
          Item                value                   Tolerance       Converged
          ---------------------------------------------------------------------
          Energy change      -0.0001252556            0.0000050000      NO
          RMS gradient        0.0005720612            0.0001000000      NO
          MAX gradient        0.0032350404            0.0003000000      NO
          RMS step            0.0053008998            0.0020000000      NO
          MAX step            0.0172809672            0.0040000000      NO
          ........................................................
          Max(Bonds)      0.0091      Max(Angles)    0.55
          Max(Dihed)        0.79      Max(Improp)    0.00
          ---------------------------------------------------------------------

The optimization has not yet converged - more geometry cycles are needed


    ---------------------------------------------------------------------------
                         Redundant Internal Coordinates
                            (Angstroem and degrees)

        Definition                    Value    dE/dq     Step     New-Value
    ----------------------------------------------------------------------------
     1. B(C   1,C   0)                1.5399  0.000810 -0.0030    1.5369   
     2. B(O   2,C   0)                1.4417 -0.003235  0.0091    1.4508   
     3. B(C   3,C   0)                1.5396  0.000745 -0.0028    1.5368   
     4. B(C   4,C   0)                1.5327  0.000355 -0.0013    1.5315   
     5. B(H   5,O   2)                0.9768 -0.001658  0.0019    0.9787   
     6. B(H   6,C   3)                1.1113  0.000077 -0.0001    1.1112   
     7. B(H   7,C   3)                1.1090 -0.000175  0.0005    1.1095   
     8. B(H   8,C   3)                1.1099  0.000095 -0.0003    1.1096   
     9. B(H   9,C   4)                1.1098  0.000069 -0.0002    1.1095   
    10. B(H  10,C   4)                1.1098  0.000077 -0.0003    1.1095   
    11. B(H  11,C   4)                1.1081 -0.000119  0.0004    1.1085   
    12. B(H  12,C   1)                1.1098  0.000086 -0.0003    1.1095   
    13. B(H  13,C   1)                1.1091 -0.000168  0.0005    1.1096   
    14. B(H  14,C   1)                1.1113  0.000075 -0.0001    1.1112   
    15. A(C   1,C   0,O   2)          109.70  0.000205   -0.25    109.45   
    16. A(C   3,C   0,C   4)          110.70 -0.000088    0.21    110.91   
    17. A(O   2,C   0,C   3)          109.70  0.000226   -0.28    109.42   
    18. A(C   1,C   0,C   3)          110.33 -0.000270    0.28    110.61   
    19. A(O   2,C   0,C   4)          105.63  0.000035   -0.20    105.43   
    20. A(C   1,C   0,C   4)          110.67 -0.000086    0.22    110.89   
    21. A(H  12,C   1,H  13)          108.27  0.000025   -0.04    108.23   
    22. A(C   0,C   1,H  13)          111.43  0.000499   -0.24    111.19   
    23. A(H  12,C   1,H  14)          108.15 -0.000009    0.04    108.18   
    24. A(C   0,C   1,H  12)          110.49 -0.000438    0.21    110.70   
    25. A(H  13,C   1,H  14)          107.93  0.000593   -0.29    107.64   
    26. A(C   0,C   1,H  14)          110.47 -0.000648    0.32    110.79   
    27. A(C   0,O   2,H   5)          107.93  0.001259   -0.55    107.38   
    28. A(H   7,C   3,H   8)          108.23  0.000210   -0.02    108.21   
    29. A(H   6,C   3,H   8)          108.07  0.000019    0.07    108.13   
    30. A(C   0,C   3,H   8)          110.46 -0.000298    0.22    110.68   
    31. A(H   6,C   3,H   7)          108.02  0.000365   -0.34    107.68   
    32. A(C   0,C   3,H   7)          111.46  0.000460   -0.24    111.22   
    33. A(C   0,C   3,H   6)          110.49 -0.000736    0.31    110.80   
    34. A(C   0,C   4,H  10)          110.65 -0.000244    0.15    110.80   
    35. A(C   0,C   4,H   9)          110.63 -0.000233    0.15    110.78   
    36. A(H  10,C   4,H  11)          108.21 -0.000014   -0.05    108.15   
    37. A(H   9,C   4,H  11)          108.25  0.000016   -0.07    108.18   
    38. A(C   0,C   4,H  11)          110.90  0.000413   -0.27    110.63   
    39. A(H   9,C   4,H  10)          108.10  0.000064    0.09    108.20   
    40. D(H  13,C   1,C   0,O   2)   -178.54 -0.000010    0.33   -178.20   
    41. D(H  13,C   1,C   0,C   3)     60.50 -0.000252    0.66     61.16   
    42. D(H  12,C   1,C   0,O   2)    -58.13  0.000057    0.26    -57.87   
    43. D(H  12,C   1,C   0,C   3)   -179.09 -0.000185    0.59   -178.50   
    44. D(H  12,C   1,C   0,C   4)     58.03  0.000172   -0.01     58.03   
    45. D(H  13,C   1,C   0,C   4)    -62.37  0.000105    0.06    -62.31   
    46. D(H   5,O   2,C   0,C   4)    179.94 -0.000028    0.21    180.15   
    47. D(H   5,O   2,C   0,C   3)     60.59 -0.000061    0.23     60.82   
    48. D(H   5,O   2,C   0,C   1)    -60.75 -0.000002    0.22    -60.53   
    49. D(H   7,C   3,C   0,O   2)    178.55 -0.000150   -0.09    178.46   
    50. D(H   7,C   3,C   0,C   1)    -60.48  0.000080   -0.41    -60.89   
    51. D(H   6,C   3,C   0,C   4)   -177.51 -0.000006   -0.18   -177.69   
    52. D(H   6,C   3,C   0,O   2)    -61.33  0.000120   -0.47    -61.80   
    53. D(H   7,C   3,C   0,C   4)     62.37 -0.000275    0.20     62.57   
    54. D(H   6,C   3,C   0,C   1)     59.63  0.000349   -0.79     58.85   
    55. D(H  10,C   4,C   0,C   3)     58.81  0.000340   -0.35     58.46   
    56. D(H  10,C   4,C   0,O   2)    -59.87  0.000096   -0.01    -59.88   
    57. D(H  10,C   4,C   0,C   1)   -178.54 -0.000124    0.30   -178.24   
    58. D(H   9,C   4,C   0,C   3)    178.59  0.000109   -0.04    178.55   
    59. D(H   9,C   4,C   0,O   2)     59.91 -0.000134    0.30     60.21   
    60. D(H   9,C   4,C   0,C   1)    -58.76 -0.000354    0.61    -58.15   
    ----------------------------------------------------------------------------

Geometry step timings:
Preparation and reading OPT file:      0.001 s ( 8.881 %)
Internal coordinates            :      0.000 s ( 0.311 %)
B/P matrices and projection     :      0.001 s (10.331 %)
Hessian update/contruction      :      0.005 s (52.180 %)
Making the step                 :      0.001 s ( 8.591 %)
Converting the step to Cartesian:      0.000 s ( 1.203 %)
Storing new data                :      0.000 s ( 0.881 %)
Checking convergence            :      0.000 s ( 0.161 %)
Final printing                  :      0.002 s (17.408 %)
Total time                      :      0.009 s

Time for energy+gradient        :      8.994 s
Time for complete geometry iter :      9.605 s

         *************************************************************
         *                GEOMETRY OPTIMIZATION CYCLE   4            *
         *************************************************************
---------------------------------
CARTESIAN COORDINATES (ANGSTROEM)
---------------------------------
  C     -1.559752   -4.555741    0.335816
  C     -1.151022   -5.297389   -0.946708
  O     -1.217153   -3.151390    0.211796
  C     -0.841560   -5.151032    1.557163
  C     -3.079081   -4.589260    0.525228
  H     -0.248050   -3.096892    0.086594
  H      0.261173   -5.088117    1.435874
  H     -1.104814   -6.219866    1.696306
  H     -1.119216   -4.602430    2.480792
  H     -3.594431   -4.135445   -0.346286
  H     -3.375286   -4.026643    1.434497
  H     -3.436287   -5.633033    0.633312
  H     -1.648042   -4.851499   -1.832844
  H     -1.429665   -6.370194   -0.895656
  H     -0.052022   -5.241992   -1.101100

----------------------------
CARTESIAN COORDINATES (A.U.)
----------------------------
  NO LB      ZA    FRAG     MASS         X           Y           Z
   0 C     6.0000    0    12.011   -2.947504   -8.609103    0.634601
   1 C     6.0000    0    12.011   -2.175116  -10.010615   -1.789018
   2 O     8.0000    0    15.999   -2.300087   -5.955265    0.400237
   3 C     6.0000    0    12.011   -1.590318   -9.734040    2.942611
   4 C     6.0000    0    12.011   -5.818620   -8.672444    0.992537
   5 H     1.0000    0     1.008   -0.468747   -5.852278    0.163640
   6 H     1.0000    0     1.008    0.493546   -9.615148    2.713409
   7 H     1.0000    0     1.008   -2.087796  -11.753844    3.205553
   8 H     1.0000    0     1.008   -2.115012   -8.697332    4.688017
   9 H     1.0000    0     1.008   -6.792489   -7.814859   -0.654385
  10 H     1.0000    0     1.008   -6.378367   -7.609253    2.710807
  11 H     1.0000    0     1.008   -6.493642  -10.644890    1.196786
  12 H     1.0000    0     1.008   -3.114349   -9.168005   -3.463573
  13 H     1.0000    0     1.008   -2.701676  -12.037922   -1.692544
  14 H     1.0000    0     1.008   -0.098307   -9.905930   -2.080777

--------------------------------
INTERNAL COORDINATES (ANGSTROEM)
--------------------------------
 C      0   0   0     0.000000000000     0.00000000     0.00000000
 C      1   0   0     1.536870334729     0.00000000     0.00000000
 O      1   2   0     1.450846220626   109.44919594     0.00000000
 C      1   2   3     1.536833818325   110.60888705   239.36665165
 C      1   2   3     1.531457732760   110.88500229   115.89358682
 H      3   1   2     0.978676087009   107.37736112   299.46697755
 H      4   1   2     1.111166240080   110.79919410    58.84523242
 H      4   1   2     1.109535628108   111.21841637   299.11171193
 H      4   1   2     1.109570994502   110.67587363   178.79015881
 H      5   1   2     1.109535224352   110.77471209   301.85416223
 H      5   1   2     1.109524681763   110.80024301   181.76019082
 H      5   1   2     1.108486005773   110.63193838    61.81807546
 H      2   1   3     1.109542752571   110.69626793   302.13208458
 H      2   1   3     1.109575612297   111.18594342   181.79729410
 H      2   1   3     1.111173500301   110.78902090    62.14684597

---------------------------
INTERNAL COORDINATES (A.U.)
---------------------------
 C      0   0   0     0.000000000000     0.00000000     0.00000000
 C      1   0   0     2.904264035986     0.00000000     0.00000000
 O      1   2   0     2.741702019418   109.44919594     0.00000000
 C      1   2   3     2.904195029983   110.60888705   239.36665165
 C      1   2   3     2.894035700593   110.88500229   115.89358682
 H      3   1   2     1.849429778265   107.37736112   299.46697755
 H      4   1   2     2.099799883010   110.79919410    58.84523242
 H      4   1   2     2.096718472952   111.21841637   299.11171193
 H      4   1   2     2.096785305752   110.67587363   178.79015881
 H      5   1   2     2.096717709965   110.77471209   301.85416223
 H      5   1   2     2.096697787358   110.80024301   181.76019082
 H      5   1   2     2.094734974196   110.63193838    61.81807546
 H      2   1   3     2.096731936236   110.69626793   302.13208458
 H      2   1   3     2.096794032119   111.18594342   181.79729410
 H      2   1   3     2.099813602839   110.78902090    62.14684597



           ************************************************************
           *        Program running with 4 parallel MPI-processes     *
           *              working on a common directory               *
           ************************************************************
------------------------------------------------------------------------------
                   ___                                                        
                  /   \      - P O W E R E D   B Y -                         
                 /     \                                                     
                 |  |  |   _    _      __       _____    __    __             
                 |  |  |  | |  | |    /  \     |  _  \  |  |  /  |          
                  \  \/   | |  | |   /    \    | | | |  |  | /  /          
                 / \  \   | |__| |  /  /\  \   | |_| |  |  |/  /          
                |  |  |   |  __  | /  /__\  \  |    /   |      \           
                |  |  |   | |  | | |   __   |  |    \   |  |\   \          
                \     /   | |  | | |  |  |  |  | |\  \  |  | \   \       
                 \___/    |_|  |_| |__|  |__|  |_| \__\ |__|  \__/        
                                                                              
                      - O R C A' S   B I G   F R I E N D -                    
                                      &                                       
                       - I N T E G R A L  F E E D E R -                       
                                                                              
 v1 FN, 2020, v2 2021, v3 2022-2024                                           
------------------------------------------------------------------------------


----------------------
SHARK INTEGRAL PACKAGE
----------------------

Number of atoms                             ...     15
Number of basis functions                   ...    140
Number of shells                            ...     70
Maximum angular momentum                    ...      2
Integral batch strategy                     ... SHARK/LIBINT Hybrid
RI-J (if used) integral strategy            ... SPLIT-RIJ (Revised 2003 algorithm where possible)
Printlevel                                  ...      1
Contraction scheme used                     ... SEGMENTED contraction
Prescreening option                         ... SCHWARTZ
   Thresh                                   ... 2.500e-11
   Tcut                                     ... 2.500e-12
   Tpresel                                  ... 2.500e-12 
Coulomb Range Separation                    ... NOT USED
Exchange Range Separation                   ... NOT USED
Multipole approximations                    ... NOT USED
Finite Nucleus Model                        ... NOT USED
CABS basis                                  ... NOT available
Auxiliary Coulomb fitting basis             ... AVAILABLE
   # of basis functions in Aux-J            ...    355
   # of shells in Aux-J                     ...    125
   Maximum angular momentum in Aux-J        ...      4
Auxiliary J/K fitting basis                 ... NOT available
Auxiliary Correlation fitting basis         ... NOT available
Auxiliary 'external' fitting basis          ... NOT available

Checking pre-screening integrals            ... done (  0.0 sec) Dimension = 70
Check shell pair data                       ... done (  0.0 sec)
Shell pair information
Shell pair cut-off parameter TPreSel        ...   2.5e-12
Total number of shell pairs                 ...      2485
Shell pairs after pre-screening             ...      2470
Total number of primitive shell pairs       ...      7355
Primitive shell pairs kept                  ...      6107
          la=0 lb=0:    814 shell pairs
          la=1 lb=0:    991 shell pairs
          la=1 lb=1:    325 shell pairs
          la=2 lb=0:    200 shell pairs
          la=2 lb=1:    125 shell pairs
          la=2 lb=2:     15 shell pairs

Calculating one electron integrals          ... done (  0.0 sec)
Calculating RI/J V-Matrix + Cholesky decomp.... done (  0.0 sec)
Calculating Nuclear repulsion               ... done (  0.0 sec) ENN=    197.779114186013 Eh

Diagonalization of the overlap matrix:
Smallest eigenvalue                        ... 8.753e-05
Time for diagonalization                   ...    0.004 sec
Threshold for overlap eigenvalues          ... 1.000e-07
Number of eigenvalues below threshold      ... 0
Time for construction of square roots      ...    0.004 sec
Total time needed                          ...    0.010 sec

-------------------
DFT GRID GENERATION
-------------------

General Integration Accuracy     IntAcc      ... 4.388
Radial Grid Type                 RadialGrid  ... OptM3 with GC (2021)
Angular Grid (max. ang.)         AngularGrid ... 4 (Lebedev-302)
Angular grid pruning method      GridPruning ... 4 (adaptive)
Weight generation scheme         WeightScheme... mBecke (2022)
Basis function cutoff            BFCut       ... 1.0000e-11
Integration weight cutoff        WCut        ... 1.0000e-14
Partially contracted basis set               ... off
Rotationally invariant grid construction     ... off
Angular grids for H and He will be reduced by one unit
Diffuse basis detected: some atoms will have their outermost
                        angular grid increased by 1.

Total number of grid points                  ...    63643
Total number of batches                      ...     1004
Average number of points per batch           ...       63
Average number of grid points per atom       ...     4243
Initializing property integral containers    ... done (  0.0 sec)

SHARK setup successfully completed in   0.7 seconds

Maximum memory used throughout the entire STARTUP-calculation: 19.5 MB


           ************************************************************
           *        Program running with 4 parallel MPI-processes     *
           *              working on a common directory               *
           ************************************************************
Occupation numbers will be reassigned to an Aufbau configuration
             **** ENERGY FILE WAS UPDATED (job.en.tmp) ****
Finished Guess after   0.3 sec
Maximum memory used throughout the entire GUESS-calculation: 8.7 MB


           ************************************************************
           *        Program running with 4 parallel MPI-processes     *
           *              working on a common directory               *
           ************************************************************
--------------------
CPCM SOLVATION MODEL
--------------------
CPCM parameters:
  Epsilon                                         ...      35.6880
  Refrac                                          ...       1.3442
  Rsolv                                           ...       1.3000
  Surface type                                    ... GAUSSIAN VDW
  Discretization scheme                           ... Constant charge density
    Threshold for H atoms                         ...       5.0000 (charges/Ang^2)
    Threshold for non-H atoms                     ...       5.0000 (charges/Ang^2)
  Epsilon function type                           ...         CPCM
Solvent:                                          ... ACETONITRILE
SMD-CDS solvent descriptors:
  Soln                                            ...       1.3442
  Soln25                                          ...       1.3416
  Sola                                            ...       0.0700
  Solb                                            ...       0.3200
  Solg                                            ...      41.2500
  Solc                                            ...       0.0000
  Solh                                            ...       0.0000
Radii:
  Scheme                                          ... Element-dependent radii
  Radius for C  used is    3.4960 Bohr (=   1.8500 Ang.)
  Radius for O  used is    4.0969 Bohr (=   2.1680 Ang.)
  Radius for H  used is    2.2677 Bohr (=   1.2000 Ang.)
Calculating surface                               ...        done! (  0.0s)
Cavity surface points                             ...         1135
Cavity Volume                                     ...     723.8297
Cavity Surface-area                               ...     462.7316
Calculating surface distance matrix               ...        done! (  0.0s)
Performing Cholesky decomposition & store         ...        done! (  0.0s)
Overall time for CPCM initialization              ...                 0.1s

----------------------------------------D-I-I-S--------------------------------------------
Iteration    Energy (Eh)           Delta-E    RMSDP     MaxDP     DIISErr   Damp  Time(sec)
-------------------------------------------------------------------------------------------
               ***  Starting incremental Fock matrix formation  ***
                              *** Initializing SOSCF ***
---------------------------------------S-O-S-C-F--------------------------------------
Iteration    Energy (Eh)           Delta-E    RMSDP     MaxDP     MaxGrad    Time(sec)
--------------------------------------------------------------------------------------
    1    -233.2111354708607109     0.00e+00  2.82e-04  6.54e-03  2.12e-04     0.4
               *** Restarting incremental Fock matrix formation ***
    2    -233.2112076123516999    -7.21e-05  1.21e-04  2.74e-03  5.08e-04     0.4
    3    -233.2112053317803202     2.28e-06  6.46e-05  1.44e-03  8.71e-04     0.4
    4    -233.2112137651974422    -8.43e-06  3.13e-05  6.16e-04  7.73e-05     0.4
    5    -233.2112139674696323    -2.02e-07  7.52e-06  2.13e-04  6.22e-05     0.4
    6    -233.2112140711338384    -1.04e-07  7.67e-06  1.88e-04  2.69e-05     0.4
    7    -233.2112140964227365    -2.53e-08  2.60e-06  6.44e-05  6.10e-06     0.4
    8    -233.2112141006362549    -4.21e-09  1.60e-06  1.08e-04  2.31e-06     0.4
                 **** Energy Check signals convergence ****

               *****************************************************
               *                     SUCCESS                       *
               *           SCF CONVERGED AFTER   8 CYCLES          *
               *****************************************************


SMD CDS free energy correction energy :                -0.95343     Kcal/mol
Total Energy after SMD CDS correction =              -233.212733485 Eh
             **** ENERGY FILE WAS UPDATED (job.en.tmp) ****

----------------
TOTAL SCF ENERGY
----------------

Total Energy       :       -233.21273348530349 Eh           -6346.04110 eV

Components:
Nuclear Repulsion  :        197.77911418601292 Eh            5381.84330 eV
Electronic Energy  :       -430.98224385271038 Eh          -11727.62308 eV
One Electron Energy:       -706.95044134042882 Eh          -19237.09950 eV
Two Electron Energy:        275.96819748771844 Eh            7509.47643 eV
CPCM Dielectric    :         -0.00808443393880 Eh              -0.21999 eV
SMD CDS (Gcds)     :         -0.00151938466724 Eh              -0.04134 eV

Virial components:
Potential Energy   :       -463.70395376960482 Eh          -12618.02607 eV
Kinetic Energy     :        230.49122028430133 Eh            6271.98497 eV
Virial Ratio       :          2.01180744844704

DFT components:
N(Alpha)           :       21.000073471679 electrons
N(Beta)            :       21.000073471679 electrons
N(Total)           :       42.000146943358 electrons
E(X)               :      -32.223182917032 Eh       
E(C)               :       -1.370751445647 Eh       
E(XC)              :      -33.593934362679 Eh       

CPCM Solvation Model Properties:
Surface-charge          :         -0.04143497395421
Corrected charge        :         -0.00000000000000
Outlying charge corr.   :          0.00014421935669 Eh               0.00392 eV
Free-energy (cav+disp)  :         -0.00151938466724 Eh              -0.04134 eV

---------------
SCF CONVERGENCE
---------------

  Last Energy change         ...    4.2135e-09  Tolerance :   1.0000e-08
  Last MAX-Density change    ...    1.0832e-04  Tolerance :   1.0000e-07
  Last RMS-Density change    ...    1.6029e-06  Tolerance :   5.0000e-09
  Last DIIS Error            ...    2.7784e-03  Tolerance :   5.0000e-07
  Last Orbital Gradient      ...    2.3093e-06  Tolerance :   1.0000e-05
  Last Orbital Rotation      ...    2.8735e-06  Tolerance :   1.0000e-05


Total SCF time: 0 days 0 hours 0 min 3 sec 
Finished LeanSCF after   3.7 sec

Maximum memory used throughout the entire LEANSCF-calculation: 14.1 MB


           ************************************************************
           *        Program running with 4 parallel MPI-processes     *
           *              working on a common directory               *
           ************************************************************

------------------------------------------------------------------------------
                         ORCA PROPERTY INTEGRAL CALCULATIONS
------------------------------------------------------------------------------

GBWName                                   ... job.gbw
Number of atoms                           ...     15
Number of basis functions                 ...    140
Max core memory                           ...   3000 MB

Dipole integrals                          ... YES
Quadrupole integrals                      ...  NO
Linear momentum integrals                 ...  NO
Angular momentum integrals                ...  NO
Higher moments length integrals           ...  NO
Higher moments velocity integrals         ...  NO
Kinetic energy integrals                  ...  NO
GIAO right hand sides                     ...  NO
GIAO dipole derivative integrals          ...  NO
SOC integrals                             ...  NO
EPR diamagnetic integrals (GIAO)          ...  NO
EPR gauge integrals                       ...  NO
Field gradient integrals                  ...  NO (   0 nuclei)
Spin-dipole/Fermi contact integrals       ...  NO (   0 nuclei)
Contact density integrals                 ...  NO (   0 nuclei)
Nucleus-orbit integrals                   ...  NO (   0 nuclei)
Geometric perturbations                   ...  NO (  15 nuclei)

Choice of electric origin   ... Center of mass
Position of electric origin ... ( -2.9318, -8.5512,  0.6293) 
Choice of magnetic origin   ... GIAO
Position of magnetic origin ... (  0.0000,  0.0000,  0.0000) 

Calculating integrals                     ... Electric Dipole (Length)     done (  0.0 sec)

Property integrals calculated in   0.0 sec

Maximum memory used throughout the entire PROPINT-calculation: 8.8 MB

-------------------------   --------------------
FINAL SINGLE POINT ENERGY      -233.212733485303
-------------------------   --------------------



           ************************************************************
           *        Program running with 4 parallel MPI-processes     *
           *              working on a common directory               *
           ************************************************************
------------------------------------------------------------------------------
                         ORCA SCF GRADIENT CALCULATION
------------------------------------------------------------------------------

Nuc. rep. gradient        (SHARK) ... done (  0.0 sec)
HCore & Overlap gradient  (SHARK) ... done (  0.1 sec)
Split-RIJ-J gradient      (SHARK) ... done (  0.3 sec)
XC gradient                       ... done (  1.4 sec)
CPCM gradient                     ... done (  0.2 sec)
SMD gradient                      ... done (  0.0 sec)

------------------
CARTESIAN GRADIENT
------------------

   1   C   :   -0.000058776    0.000129223    0.000006356
   2   C   :   -0.000065370   -0.000104519   -0.000068390
   3   O   :    0.000056032   -0.000355522   -0.000033536
   4   C   :   -0.000019997   -0.000209163    0.000016475
   5   C   :   -0.000070781    0.000003852    0.000027459
   6   H   :   -0.000007466    0.000194061    0.000036212
   7   H   :    0.000031406    0.000057730    0.000007582
   8   H   :   -0.000019883    0.000068895   -0.000056378
   9   H   :    0.000039527    0.000056320   -0.000004209
  10   H   :   -0.000006483    0.000056303    0.000032854
  11   H   :   -0.000031023    0.000025655   -0.000038881
  12   H   :    0.000061097   -0.000022623   -0.000004895
  13   H   :    0.000043118    0.000045675   -0.000003478
  14   H   :    0.000012098    0.000057419    0.000050827
  15   H   :    0.000036502   -0.000003305    0.000032002

Difference to translation invariance:
           :   -0.0000000000    0.0000000000   -0.0000000000

Difference to rotation invariance:
           :    0.0000943643   -0.0001355114   -0.0000479235

Norm of the Cartesian gradient     ...    0.0005490424
RMS gradient                       ...    0.0000818464
MAX gradient                       ...    0.0003555225

-------
TIMINGS
-------

Total SCF gradient time     ....        2.095 sec

Densities                   ....       0.000 sec  (  0.0%)
One electron gradient       ....       0.054 sec  (  2.6%)
RI-J Coulomb gradient       ....       0.326 sec  ( 15.6%)
XC gradient                 ....       1.417 sec  ( 67.6%)
CPCM gradient               ....       0.164 sec  (  7.8%)
   A-Matrix (El+Nuc)        ....       0.056 sec  (  2.7%)
   Potential                ....       0.109 sec  (  5.2%)
SMD gradient                ....       0.002 sec  (  0.1%)

Maximum memory used throughout the entire SCFGRAD-calculation: 18.3 MB
------------------------------------------------------------------------------
                         ORCA GEOMETRY RELAXATION STEP
------------------------------------------------------------------------------

Reading the OPT-File                    .... done
Getting information on internals        .... done
Copying old internal coords+grads       .... done
Making the new internal coordinates     .... (2022 redundants) done
Validating the new internal coordinates .... (2022 redundants) done
Calculating the B-matrix                .... done
Calculating the G,G- and P matrices     .... done
Transforming gradient to internals      .... done
Projecting the internal gradient        .... done
Number of atoms                         ....  15
Number of internal coordinates          ....  60
Current Energy                          ....  -233.212733485 Eh
Current gradient norm                   ....     0.000549042 Eh/bohr
Maximum allowed component of the step   ....  0.300
Current trust radius                    ....  0.300
Updating the Hessian (BFGS)             .... done
Forming the augmented Hessian           .... done
Diagonalizing the augmented Hessian     .... done
Last element of RFO vector              ....  0.999982632
Lowest eigenvalues of augmented Hessian:
 -0.000001383  0.010131732  0.010228873  0.010727422  0.019037405
Length of the computed step             ....  0.005893775
The final length of the internal step   ....  0.005893775
Converting the step to Cartesian space:
 Initial RMS(Int)=    0.0007608831
Transforming coordinates:
 Iter   0:  RMS(Cart)=    0.0011345184 RMS(Int)=    0.0007607922
done
Storing new coordinates                 .... done
The predicted energy change is          ....    -0.000000691
Previously predicted energy change      ....    -0.000065054
Actually observed energy change         ....    -0.000067706
Ratio of predicted to observed change   ....     1.040752330
New trust radius                        ....     0.450000000

                                .--------------------.
          ----------------------|Geometry convergence|-------------------------
          Item                value                   Tolerance       Converged
          ---------------------------------------------------------------------
          Energy change      -0.0000677056            0.0000050000      NO
          RMS gradient        0.0000635210            0.0001000000      YES
          MAX gradient        0.0003570846            0.0003000000      NO
          RMS step            0.0007608831            0.0020000000      YES
          MAX step            0.0021918570            0.0040000000      YES
          ........................................................
          Max(Bonds)      0.0005      Max(Angles)    0.08
          Max(Dihed)        0.13      Max(Improp)    0.00
          ---------------------------------------------------------------------

The optimization has not yet converged - more geometry cycles are needed


    ---------------------------------------------------------------------------
                         Redundant Internal Coordinates
                            (Angstroem and degrees)

        Definition                    Value    dE/dq     Step     New-Value
    ----------------------------------------------------------------------------
     1. B(C   1,C   0)                1.5369  0.000001 -0.0001    1.5368   
     2. B(O   2,C   0)                1.4508 -0.000144  0.0005    1.4514   
     3. B(C   3,C   0)                1.5368 -0.000006 -0.0001    1.5367   
     4. B(C   4,C   0)                1.5315  0.000048 -0.0001    1.5313   
     5. B(H   5,O   2)                0.9787 -0.000002 -0.0000    0.9787   
     6. B(H   6,C   3)                1.1112  0.000036 -0.0001    1.1111   
     7. B(H   7,C   3)                1.1095 -0.000072  0.0001    1.1097   
     8. B(H   8,C   3)                1.1096  0.000014 -0.0000    1.1095   
     9. B(H   9,C   4)                1.1095 -0.000002 -0.0000    1.1095   
    10. B(H  10,C   4)                1.1095 -0.000009  0.0000    1.1095   
    11. B(H  11,C   4)                1.1085  0.000002  0.0000    1.1085   
    12. B(H  12,C   1)                1.1095  0.000002 -0.0000    1.1095   
    13. B(H  13,C   1)                1.1096 -0.000054  0.0001    1.1097   
    14. B(H  14,C   1)                1.1112  0.000030 -0.0000    1.1111   
    15. A(C   1,C   0,O   2)          109.45  0.000032   -0.02    109.43   
    16. A(C   3,C   0,C   4)          110.91  0.000035    0.00    110.91   
    17. A(O   2,C   0,C   3)          109.42  0.000021   -0.01    109.41   
    18. A(C   1,C   0,C   3)          110.61 -0.000076    0.03    110.64   
    19. A(O   2,C   0,C   4)          105.43 -0.000048   -0.00    105.43   
    20. A(C   1,C   0,C   4)          110.89  0.000038   -0.00    110.88   
    21. A(H  12,C   1,H  13)          108.23  0.000053   -0.02    108.21   
    22. A(C   0,C   1,H  13)          111.19 -0.000087    0.01    111.19   
    23. A(H  12,C   1,H  14)          108.18  0.000048   -0.00    108.18   
    24. A(C   0,C   1,H  12)          110.70  0.000035    0.00    110.70   
    25. A(H  13,C   1,H  14)          107.64 -0.000010   -0.01    107.63   
    26. A(C   0,C   1,H  14)          110.79 -0.000035    0.02    110.81   
    27. A(C   0,O   2,H   5)          107.38  0.000357   -0.08    107.29   
    28. A(H   7,C   3,H   8)          108.21  0.000106   -0.02    108.19   
    29. A(H   6,C   3,H   8)          108.13 -0.000070    0.02    108.15   
    30. A(C   0,C   3,H   8)          110.68 -0.000008    0.01    110.69   
    31. A(H   6,C   3,H   7)          107.68  0.000055   -0.03    107.65   
    32. A(C   0,C   3,H   7)          111.22 -0.000034   -0.00    111.21   
    33. A(C   0,C   3,H   6)          110.80 -0.000045    0.02    110.82   
    34. A(C   0,C   4,H  10)          110.80  0.000050   -0.00    110.80   
    35. A(C   0,C   4,H   9)          110.77  0.000023    0.00    110.78   
    36. A(H  10,C   4,H  11)          108.15  0.000033   -0.01    108.14   
    37. A(H   9,C   4,H  11)          108.18  0.000047   -0.01    108.17   
    38. A(C   0,C   4,H  11)          110.63 -0.000097    0.01    110.64   
    39. A(H   9,C   4,H  10)          108.20 -0.000055    0.02    108.22   
    40. D(H  13,C   1,C   0,O   2)   -178.20  0.000009   -0.09   -178.29   
    41. D(H  13,C   1,C   0,C   3)     61.16  0.000010   -0.08     61.08   
    42. D(H  12,C   1,C   0,O   2)    -57.87  0.000041   -0.11    -57.98   
    43. D(H  12,C   1,C   0,C   3)   -178.50  0.000043   -0.10   -178.61   
    44. D(H  12,C   1,C   0,C   4)     58.03  0.000024   -0.13     57.90   
    45. D(H  13,C   1,C   0,C   4)    -62.31 -0.000008   -0.10    -62.41   
    46. D(H   5,O   2,C   0,C   4)   -179.85 -0.000027    0.08   -179.77   
    47. D(H   5,O   2,C   0,C   3)     60.82 -0.000053    0.09     60.91   
    48. D(H   5,O   2,C   0,C   1)    -60.53  0.000008    0.07    -60.46   
    49. D(H   7,C   3,C   0,O   2)    178.46 -0.000023    0.03    178.49   
    50. D(H   7,C   3,C   0,C   1)    -60.89 -0.000018    0.02    -60.87   
    51. D(H   6,C   3,C   0,C   4)   -177.69  0.000019    0.01   -177.68   
    52. D(H   6,C   3,C   0,O   2)    -61.80 -0.000006    0.00    -61.80   
    53. D(H   7,C   3,C   0,C   4)     62.57  0.000002    0.04     62.61   
    54. D(H   6,C   3,C   0,C   1)     58.85 -0.000001   -0.01     58.84   
    55. D(H  10,C   4,C   0,C   3)     58.46  0.000026   -0.00     58.46   
    56. D(H  10,C   4,C   0,O   2)    -59.88  0.000010    0.01    -59.87   
    57. D(H  10,C   4,C   0,C   1)   -178.24 -0.000019    0.04   -178.20   
    58. D(H   9,C   4,C   0,C   3)    178.55  0.000006    0.02    178.58   
    59. D(H   9,C   4,C   0,O   2)     60.21 -0.000010    0.04     60.25   
    60. D(H   9,C   4,C   0,C   1)    -58.15 -0.000040    0.06    -58.08   
    ----------------------------------------------------------------------------

Geometry step timings:
Preparation and reading OPT file:      0.000 s ( 8.208 %)
Internal coordinates            :      0.000 s ( 0.281 %)
B/P matrices and projection     :      0.001 s ( 8.968 %)
Hessian update/contruction      :      0.003 s (56.317 %)
Making the step                 :      0.000 s ( 6.457 %)
Converting the step to Cartesian:      0.000 s ( 0.826 %)
Storing new data                :      0.000 s ( 0.661 %)
Checking convergence            :      0.000 s ( 0.132 %)
Final printing                  :      0.001 s (18.117 %)
Total time                      :      0.006 s

Time for energy+gradient        :      9.112 s
Time for complete geometry iter :      9.630 s

         *************************************************************
         *                GEOMETRY OPTIMIZATION CYCLE   5            *
         *************************************************************
---------------------------------
CARTESIAN COORDINATES (ANGSTROEM)
---------------------------------
  C     -1.559655   -4.555875    0.335975
  C     -1.151014   -5.297014   -0.946730
  O     -1.216653   -3.151066    0.212044
  C     -0.841766   -5.150966    1.557472
  C     -3.078896   -4.589107    0.525168
  H     -0.247615   -3.098260    0.085678
  H      0.260981   -5.088217    1.436768
  H     -1.104756   -6.220034    1.696382
  H     -1.120113   -4.602933    2.481189
  H     -3.594112   -4.135804   -0.346684
  H     -3.375099   -4.026253    1.434296
  H     -3.436357   -5.632767    0.633634
  H     -1.649576   -4.852046   -1.832447
  H     -1.428257   -6.370282   -0.895500
  H     -0.052320   -5.240304   -1.102458

----------------------------
CARTESIAN COORDINATES (A.U.)
----------------------------
  NO LB      ZA    FRAG     MASS         X           Y           Z
   0 C     6.0000    0    12.011   -2.947320   -8.609356    0.634900
   1 C     6.0000    0    12.011   -2.175102  -10.009906   -1.789060
   2 O     8.0000    0    15.999   -2.299141   -5.954652    0.400705
   3 C     6.0000    0    12.011   -1.590707   -9.733914    2.943195
   4 C     6.0000    0    12.011   -5.818271   -8.672155    0.992423
   5 H     1.0000    0     1.008   -0.467924   -5.854864    0.161907
   6 H     1.0000    0     1.008    0.493182   -9.615337    2.715098
   7 H     1.0000    0     1.008   -2.087687  -11.754160    3.205697
   8 H     1.0000    0     1.008   -2.116707   -8.698282    4.688767
   9 H     1.0000    0     1.008   -6.791887   -7.815537   -0.655137
  10 H     1.0000    0     1.008   -6.378013   -7.608515    2.710426
  11 H     1.0000    0     1.008   -6.493774  -10.644386    1.197395
  12 H     1.0000    0     1.008   -3.117246   -9.169038   -3.462823
  13 H     1.0000    0     1.008   -2.699014  -12.038088   -1.692249
  14 H     1.0000    0     1.008   -0.098870   -9.902740   -2.083344

--------------------------------
INTERNAL COORDINATES (ANGSTROEM)
--------------------------------
 C      0   0   0     0.000000000000     0.00000000     0.00000000
 C      1   0   0     1.536751765117     0.00000000     0.00000000
 O      1   2   0     1.451377698694   109.43197065     0.00000000
 C      1   2   3     1.536734234943   110.63926177   239.37575289
 C      1   2   3     1.531337040581   110.88349584   115.88183870
 H      3   1   2     0.978668505901   107.29272385   299.54078301
 H      4   1   2     1.111106355518   110.81912133    58.83805064
 H      4   1   2     1.109669261479   111.21465866   299.12967995
 H      4   1   2     1.109535915962   110.68811715   178.82839405
 H      5   1   2     1.109529430742   110.77747347   301.91613658
 H      5   1   2     1.109528898304   110.79821322   181.79672169
 H      5   1   2     1.108498647159   110.63706435    61.86663264
 H      2   1   3     1.109528994323   110.69632237   302.01826511
 H      2   1   3     1.109680354084   111.19118412   181.70521336
 H      2   1   3     1.111124201311   110.81224935    62.04283114

---------------------------
INTERNAL COORDINATES (A.U.)
---------------------------
 C      0   0   0     0.000000000000     0.00000000     0.00000000
 C      1   0   0     2.904039971892     0.00000000     0.00000000
 O      1   2   0     2.742706367412   109.43197065     0.00000000
 C      1   2   3     2.904006844664   110.63926177   239.37575289
 C      1   2   3     2.893807625427   110.88349584   115.88183870
 H      3   1   2     1.849415452047   107.29272385   299.54078301
 H      4   1   2     2.099686717587   110.81912133    58.83805064
 H      4   1   2     2.096971003425   111.21465866   299.12967995
 H      4   1   2     2.096719016918   110.68811715   178.82839405
 H      5   1   2     2.096706761628   110.77747347   301.91613658
 H      5   1   2     2.096705755467   110.79821322   181.79672169
 H      5   1   2     2.094758862953   110.63706435    61.86663264
 H      2   1   3     2.096705936916   110.69632237   302.01826511
 H      2   1   3     2.096991965412   111.19118412   181.70521336
 H      2   1   3     2.099720441250   110.81224935    62.04283114



           ************************************************************
           *        Program running with 4 parallel MPI-processes     *
           *              working on a common directory               *
           ************************************************************
------------------------------------------------------------------------------
                   ___                                                        
                  /   \      - P O W E R E D   B Y -                         
                 /     \                                                     
                 |  |  |   _    _      __       _____    __    __             
                 |  |  |  | |  | |    /  \     |  _  \  |  |  /  |          
                  \  \/   | |  | |   /    \    | | | |  |  | /  /          
                 / \  \   | |__| |  /  /\  \   | |_| |  |  |/  /          
                |  |  |   |  __  | /  /__\  \  |    /   |      \           
                |  |  |   | |  | | |   __   |  |    \   |  |\   \          
                \     /   | |  | | |  |  |  |  | |\  \  |  | \   \       
                 \___/    |_|  |_| |__|  |__|  |_| \__\ |__|  \__/        
                                                                              
                      - O R C A' S   B I G   F R I E N D -                    
                                      &                                       
                       - I N T E G R A L  F E E D E R -                       
                                                                              
 v1 FN, 2020, v2 2021, v3 2022-2024                                           
------------------------------------------------------------------------------


----------------------
SHARK INTEGRAL PACKAGE
----------------------

Number of atoms                             ...     15
Number of basis functions                   ...    140
Number of shells                            ...     70
Maximum angular momentum                    ...      2
Integral batch strategy                     ... SHARK/LIBINT Hybrid
RI-J (if used) integral strategy            ... SPLIT-RIJ (Revised 2003 algorithm where possible)
Printlevel                                  ...      1
Contraction scheme used                     ... SEGMENTED contraction
Prescreening option                         ... SCHWARTZ
   Thresh                                   ... 2.500e-11
   Tcut                                     ... 2.500e-12
   Tpresel                                  ... 2.500e-12 
Coulomb Range Separation                    ... NOT USED
Exchange Range Separation                   ... NOT USED
Multipole approximations                    ... NOT USED
Finite Nucleus Model                        ... NOT USED
CABS basis                                  ... NOT available
Auxiliary Coulomb fitting basis             ... AVAILABLE
   # of basis functions in Aux-J            ...    355
   # of shells in Aux-J                     ...    125
   Maximum angular momentum in Aux-J        ...      4
Auxiliary J/K fitting basis                 ... NOT available
Auxiliary Correlation fitting basis         ... NOT available
Auxiliary 'external' fitting basis          ... NOT available

Checking pre-screening integrals            ... done (  0.0 sec) Dimension = 70
Check shell pair data                       ... done (  0.0 sec)
Shell pair information
Shell pair cut-off parameter TPreSel        ...   2.5e-12
Total number of shell pairs                 ...      2485
Shell pairs after pre-screening             ...      2470
Total number of primitive shell pairs       ...      7355
Primitive shell pairs kept                  ...      6107
          la=0 lb=0:    814 shell pairs
          la=1 lb=0:    991 shell pairs
          la=1 lb=1:    325 shell pairs
          la=2 lb=0:    200 shell pairs
          la=2 lb=1:    125 shell pairs
          la=2 lb=2:     15 shell pairs

Calculating one electron integrals          ... done (  0.0 sec)
Calculating RI/J V-Matrix + Cholesky decomp.... done (  0.0 sec)
Calculating Nuclear repulsion               ... done (  0.0 sec) ENN=    197.773515691099 Eh

Diagonalization of the overlap matrix:
Smallest eigenvalue                        ... 8.752e-05
Time for diagonalization                   ...    0.003 sec
Threshold for overlap eigenvalues          ... 1.000e-07
Number of eigenvalues below threshold      ... 0
Time for construction of square roots      ...    0.004 sec
Total time needed                          ...    0.012 sec

-------------------
DFT GRID GENERATION
-------------------

General Integration Accuracy     IntAcc      ... 4.388
Radial Grid Type                 RadialGrid  ... OptM3 with GC (2021)
Angular Grid (max. ang.)         AngularGrid ... 4 (Lebedev-302)
Angular grid pruning method      GridPruning ... 4 (adaptive)
Weight generation scheme         WeightScheme... mBecke (2022)
Basis function cutoff            BFCut       ... 1.0000e-11
Integration weight cutoff        WCut        ... 1.0000e-14
Partially contracted basis set               ... off
Rotationally invariant grid construction     ... off
Angular grids for H and He will be reduced by one unit
Diffuse basis detected: some atoms will have their outermost
                        angular grid increased by 1.

Total number of grid points                  ...    63643
Total number of batches                      ...     1003
Average number of points per batch           ...       63
Average number of grid points per atom       ...     4243
Initializing property integral containers    ... done (  0.0 sec)

SHARK setup successfully completed in   0.7 seconds

Maximum memory used throughout the entire STARTUP-calculation: 19.5 MB


           ************************************************************
           *        Program running with 4 parallel MPI-processes     *
           *              working on a common directory               *
           ************************************************************
Occupation numbers will be reassigned to an Aufbau configuration
             **** ENERGY FILE WAS UPDATED (job.en.tmp) ****
Finished Guess after   0.4 sec
Maximum memory used throughout the entire GUESS-calculation: 8.7 MB


           ************************************************************
           *        Program running with 4 parallel MPI-processes     *
           *              working on a common directory               *
           ************************************************************
--------------------
CPCM SOLVATION MODEL
--------------------
CPCM parameters:
  Epsilon                                         ...      35.6880
  Refrac                                          ...       1.3442
  Rsolv                                           ...       1.3000
  Surface type                                    ... GAUSSIAN VDW
  Discretization scheme                           ... Constant charge density
    Threshold for H atoms                         ...       5.0000 (charges/Ang^2)
    Threshold for non-H atoms                     ...       5.0000 (charges/Ang^2)
  Epsilon function type                           ...         CPCM
Solvent:                                          ... ACETONITRILE
SMD-CDS solvent descriptors:
  Soln                                            ...       1.3442
  Soln25                                          ...       1.3416
  Sola                                            ...       0.0700
  Solb                                            ...       0.3200
  Solg                                            ...      41.2500
  Solc                                            ...       0.0000
  Solh                                            ...       0.0000
Radii:
  Scheme                                          ... Element-dependent radii
  Radius for C  used is    3.4960 Bohr (=   1.8500 Ang.)
  Radius for O  used is    4.0969 Bohr (=   2.1680 Ang.)
  Radius for H  used is    2.2677 Bohr (=   1.2000 Ang.)
Calculating surface                               ...        done! (  0.0s)
Cavity surface points                             ...         1136
Cavity Volume                                     ...     723.8299
Cavity Surface-area                               ...     462.7435
Calculating surface distance matrix               ...        done! (  0.0s)
Performing Cholesky decomposition & store         ...        done! (  0.0s)
Overall time for CPCM initialization              ...                 0.1s

----------------------------------------D-I-I-S--------------------------------------------
Iteration    Energy (Eh)           Delta-E    RMSDP     MaxDP     DIISErr   Damp  Time(sec)
-------------------------------------------------------------------------------------------
               ***  Starting incremental Fock matrix formation  ***
                              *** Initializing SOSCF ***
---------------------------------------S-O-S-C-F--------------------------------------
Iteration    Energy (Eh)           Delta-E    RMSDP     MaxDP     MaxGrad    Time(sec)
--------------------------------------------------------------------------------------
    1    -233.2112128183771347     0.00e+00  3.20e-05  9.01e-04  2.36e-05     0.5
               *** Restarting incremental Fock matrix formation ***
    2    -233.2112140695447806    -1.25e-06  1.16e-05  2.45e-04  2.36e-05     0.4
    3    -233.2112141392666445    -6.97e-08  2.40e-06  4.29e-05  8.34e-06     0.3
    4    -233.2112141369901792     2.28e-09  1.61e-06  3.03e-05  1.65e-05     0.3
                 **** Energy Check signals convergence ****

               *****************************************************
               *                     SUCCESS                       *
               *           SCF CONVERGED AFTER   4 CYCLES          *
               *****************************************************


SMD CDS free energy correction energy :                -0.95400     Kcal/mol
Total Energy after SMD CDS correction =              -233.212734435 Eh
             **** ENERGY FILE WAS UPDATED (job.en.tmp) ****

----------------
TOTAL SCF ENERGY
----------------

Total Energy       :       -233.21273443490512 Eh           -6346.04113 eV

Components:
Nuclear Repulsion  :        197.77351569109891 Eh            5381.69096 eV
Electronic Energy  :       -430.97663892039918 Eh          -11727.47056 eV
One Electron Energy:       -706.93888524788531 Eh          -19236.78505 eV
Two Electron Energy:        275.96224632748613 Eh            7509.31449 eV
CPCM Dielectric    :         -0.00809090768990 Eh              -0.22016 eV
SMD CDS (Gcds)     :         -0.00152029791494 Eh              -0.04137 eV

Virial components:
Potential Energy   :       -463.70388963355344 Eh          -12618.02432 eV
Kinetic Energy     :        230.49115519864833 Eh            6271.98319 eV
Virial Ratio       :          2.01180773827920

DFT components:
N(Alpha)           :       21.000073130856 electrons
N(Beta)            :       21.000073130856 electrons
N(Total)           :       42.000146261712 electrons
E(X)               :      -32.223053335648 Eh       
E(C)               :       -1.370743345978 Eh       
E(XC)              :      -33.593796681626 Eh       

CPCM Solvation Model Properties:
Surface-charge          :         -0.04142986582353
Corrected charge        :          0.00000000000000
Outlying charge corr.   :          0.00014418139960 Eh               0.00392 eV
Free-energy (cav+disp)  :         -0.00152029791494 Eh              -0.04137 eV

---------------
SCF CONVERGENCE
---------------

  Last Energy change         ...   -2.2765e-09  Tolerance :   1.0000e-08
  Last MAX-Density change    ...    3.0322e-05  Tolerance :   1.0000e-07
  Last RMS-Density change    ...    1.6055e-06  Tolerance :   5.0000e-09
  Last DIIS Error            ...    3.8671e-04  Tolerance :   5.0000e-07
  Last Orbital Gradient      ...    1.6532e-05  Tolerance :   1.0000e-05
  Last Orbital Rotation      ...    8.1148e-06  Tolerance :   1.0000e-05


Total SCF time: 0 days 0 hours 0 min 2 sec 
Finished LeanSCF after   2.1 sec

Maximum memory used throughout the entire LEANSCF-calculation: 14.3 MB


           ************************************************************
           *        Program running with 4 parallel MPI-processes     *
           *              working on a common directory               *
           ************************************************************

------------------------------------------------------------------------------
                         ORCA PROPERTY INTEGRAL CALCULATIONS
------------------------------------------------------------------------------

GBWName                                   ... job.gbw
Number of atoms                           ...     15
Number of basis functions                 ...    140
Max core memory                           ...   3000 MB

Dipole integrals                          ... YES
Quadrupole integrals                      ...  NO
Linear momentum integrals                 ...  NO
Angular momentum integrals                ...  NO
Higher moments length integrals           ...  NO
Higher moments velocity integrals         ...  NO
Kinetic energy integrals                  ...  NO
GIAO right hand sides                     ...  NO
GIAO dipole derivative integrals          ...  NO
SOC integrals                             ...  NO
EPR diamagnetic integrals (GIAO)          ...  NO
EPR gauge integrals                       ...  NO
Field gradient integrals                  ...  NO (   0 nuclei)
Spin-dipole/Fermi contact integrals       ...  NO (   0 nuclei)
Contact density integrals                 ...  NO (   0 nuclei)
Nucleus-orbit integrals                   ...  NO (   0 nuclei)
Geometric perturbations                   ...  NO (  15 nuclei)

Choice of electric origin   ... Center of mass
Position of electric origin ... ( -2.9315, -8.5510,  0.6295) 
Choice of magnetic origin   ... GIAO
Position of magnetic origin ... (  0.0000,  0.0000,  0.0000) 

Calculating integrals                     ... Electric Dipole (Length)     done (  0.0 sec)

Property integrals calculated in   0.0 sec

Maximum memory used throughout the entire PROPINT-calculation: 8.8 MB

-------------------------   --------------------
FINAL SINGLE POINT ENERGY      -233.212734434905
-------------------------   --------------------



           ************************************************************
           *        Program running with 4 parallel MPI-processes     *
           *              working on a common directory               *
           ************************************************************
------------------------------------------------------------------------------
                         ORCA SCF GRADIENT CALCULATION
------------------------------------------------------------------------------

Nuc. rep. gradient        (SHARK) ... done (  0.0 sec)
HCore & Overlap gradient  (SHARK) ... done (  0.1 sec)
Split-RIJ-J gradient      (SHARK) ... done (  0.3 sec)
XC gradient                       ... done (  1.3 sec)
CPCM gradient                     ... done (  0.2 sec)
SMD gradient                      ... done (  0.0 sec)

------------------
CARTESIAN GRADIENT
------------------

   1   C   :   -0.000053490   -0.000080713    0.000015310
   2   C   :   -0.000026777    0.000007873   -0.000034753
   3   O   :    0.000059876   -0.000081460   -0.000043729
   4   C   :    0.000001700   -0.000031005    0.000005573
   5   C   :   -0.000015590    0.000027537    0.000009525
   6   H   :   -0.000027134    0.000084732    0.000038904
   7   H   :   -0.000000038    0.000015690    0.000015231
   8   H   :   -0.000016800   -0.000001035   -0.000035857
   9   H   :    0.000024286    0.000018899   -0.000002539
  10   H   :   -0.000004085    0.000030062    0.000017599
  11   H   :   -0.000021135    0.000012585   -0.000022244
  12   H   :    0.000043842   -0.000018045   -0.000005148
  13   H   :    0.000033699    0.000022816    0.000000621
  14   H   :   -0.000000502   -0.000001620    0.000035086
  15   H   :    0.000002150   -0.000006317    0.000006422

Difference to translation invariance:
           :    0.0000000000    0.0000000000    0.0000000000

Difference to rotation invariance:
           :    0.0000943587   -0.0001342223   -0.0000439545

Norm of the Cartesian gradient     ...    0.0002140743
RMS gradient                       ...    0.0000319123
MAX gradient                       ...    0.0000847320

-------
TIMINGS
-------

Total SCF gradient time     ....        2.002 sec

Densities                   ....       0.000 sec  (  0.0%)
One electron gradient       ....       0.054 sec  (  2.7%)
RI-J Coulomb gradient       ....       0.327 sec  ( 16.3%)
XC gradient                 ....       1.309 sec  ( 65.4%)
CPCM gradient               ....       0.179 sec  (  9.0%)
   A-Matrix (El+Nuc)        ....       0.071 sec  (  3.6%)
   Potential                ....       0.108 sec  (  5.4%)
SMD gradient                ....       0.003 sec  (  0.1%)

Maximum memory used throughout the entire SCFGRAD-calculation: 18.4 MB
------------------------------------------------------------------------------
                         ORCA GEOMETRY RELAXATION STEP
------------------------------------------------------------------------------

Reading the OPT-File                    .... done
Getting information on internals        .... done
Copying old internal coords+grads       .... done
Making the new internal coordinates     .... (2022 redundants) done
Validating the new internal coordinates .... (2022 redundants) done
Calculating the B-matrix                .... done
Calculating the G,G- and P matrices     .... done
Transforming gradient to internals      .... done
Projecting the internal gradient        .... done
Number of atoms                         ....  15
Number of internal coordinates          ....  60
Current Energy                          ....  -233.212734435 Eh
Current gradient norm                   ....     0.000214074 Eh/bohr
Maximum allowed component of the step   ....  0.300
Current trust radius                    ....  0.450
Updating the Hessian (BFGS)             .... done
Forming the augmented Hessian           .... done
Diagonalizing the augmented Hessian     .... done
Last element of RFO vector              ....  0.999982847
Lowest eigenvalues of augmented Hessian:
 -0.000000550  0.008453734  0.010142235  0.010685555  0.016870762
Length of the computed step             ....  0.005857126
The final length of the internal step   ....  0.005857126
Converting the step to Cartesian space:
 Initial RMS(Int)=    0.0007561517
Transforming coordinates:
 Iter   0:  RMS(Cart)=    0.0011027207 RMS(Int)=    0.0007560443
done
Storing new coordinates                 .... done
The predicted energy change is          ....    -0.000000275
Previously predicted energy change      ....    -0.000000691
Actually observed energy change         ....    -0.000000950
Ratio of predicted to observed change   ....     1.373457470
New trust radius                        ....     0.450000000

                                .--------------------.
          ----------------------|Geometry convergence|-------------------------
          Item                value                   Tolerance       Converged
          ---------------------------------------------------------------------
          Energy change      -0.0000009496            0.0000050000      YES
          RMS gradient        0.0000295131            0.0001000000      YES
          MAX gradient        0.0001573369            0.0003000000      YES
          RMS step            0.0007561517            0.0020000000      YES
          MAX step            0.0020721709            0.0040000000      YES
          ........................................................
          Max(Bonds)      0.0001      Max(Angles)    0.06
          Max(Dihed)        0.12      Max(Improp)    0.00
          ---------------------------------------------------------------------

                    ***********************HURRAY********************
                    ***        THE OPTIMIZATION HAS CONVERGED     ***
                    *************************************************


    ---------------------------------------------------------------------------
                         Redundant Internal Coordinates

                          --- Optimized Parameters ---  
                            (Angstroem and degrees)

        Definition                    OldVal   dE/dq     Step     FinalVal
    ----------------------------------------------------------------------------
     1. B(C   1,C   0)                1.5368 -0.000014 -0.0000    1.5367   
     2. B(O   2,C   0)                1.4514  0.000012  0.0001    1.4515   
     3. B(C   3,C   0)                1.5367 -0.000012 -0.0000    1.5367   
     4. B(C   4,C   0)                1.5313 -0.000004 -0.0000    1.5313   
     5. B(H   5,O   2)                0.9787 -0.000028  0.0000    0.9787   
     6. B(H   6,C   3)                1.1111  0.000002 -0.0000    1.1111   
     7. B(H   7,C   3)                1.1097 -0.000002  0.0000    1.1097   
     8. B(H   8,C   3)                1.1095  0.000001 -0.0000    1.1095   
     9. B(H   9,C   4)                1.1095 -0.000002  0.0000    1.1095   
    10. B(H  10,C   4)                1.1095 -0.000005  0.0000    1.1095   
    11. B(H  11,C   4)                1.1085  0.000003 -0.0000    1.1085   
    12. B(H  12,C   1)                1.1095 -0.000006  0.0000    1.1095   
    13. B(H  13,C   1)                1.1097  0.000005  0.0000    1.1097   
    14. B(H  14,C   1)                1.1111 -0.000001 -0.0000    1.1111   
    15. A(C   1,C   0,O   2)          109.43  0.000014   -0.01    109.42   
    16. A(C   3,C   0,C   4)          110.91  0.000017   -0.00    110.90   
    17. A(O   2,C   0,C   3)          109.41  0.000009   -0.01    109.40   
    18. A(C   1,C   0,C   3)          110.64 -0.000026    0.02    110.65   
    19. A(O   2,C   0,C   4)          105.43 -0.000026    0.01    105.44   
    20. A(C   1,C   0,C   4)          110.88  0.000013   -0.00    110.88   
    21. A(H  12,C   1,H  13)          108.21  0.000032   -0.02    108.19   
    22. A(C   0,C   1,H  13)          111.19 -0.000060    0.01    111.21   
    23. A(H  12,C   1,H  14)          108.18  0.000012   -0.00    108.18   
    24. A(C   0,C   1,H  12)          110.70  0.000024   -0.01    110.69   
    25. A(H  13,C   1,H  14)          107.63 -0.000009    0.00    107.63   
    26. A(C   0,C   1,H  14)          110.81  0.000002    0.01    110.82   
    27. A(C   0,O   2,H   5)          107.29  0.000157   -0.06    107.23   
    28. A(H   7,C   3,H   8)          108.19  0.000050   -0.02    108.17   
    29. A(H   6,C   3,H   8)          108.15 -0.000039    0.02    108.17   
    30. A(C   0,C   3,H   8)          110.69  0.000009    0.00    110.69   
    31. A(H   6,C   3,H   7)          107.65  0.000021   -0.01    107.64   
    32. A(C   0,C   3,H   7)          111.21 -0.000038    0.01    111.22   
    33. A(C   0,C   3,H   6)          110.82 -0.000002    0.01    110.83   
    34. A(C   0,C   4,H  10)          110.80  0.000036   -0.01    110.79   
    35. A(C   0,C   4,H   9)          110.78  0.000018   -0.00    110.77   
    36. A(H  10,C   4,H  11)          108.14  0.000022   -0.01    108.13   
    37. A(H   9,C   4,H  11)          108.17  0.000031   -0.01    108.15   
    38. A(C   0,C   4,H  11)          110.64 -0.000074    0.02    110.66   
    39. A(H   9,C   4,H  10)          108.22 -0.000033    0.02    108.23   
    40. D(H  13,C   1,C   0,O   2)   -178.29  0.000008   -0.09   -178.39   
    41. D(H  13,C   1,C   0,C   3)     61.08  0.000004   -0.09     60.99   
    42. D(H  12,C   1,C   0,O   2)    -57.98  0.000024   -0.11    -58.09   
    43. D(H  12,C   1,C   0,C   3)   -178.61  0.000021   -0.11   -178.71   
    44. D(H  12,C   1,C   0,C   4)     57.90  0.000009   -0.11     57.79   
    45. D(H  13,C   1,C   0,C   4)    -62.41 -0.000008   -0.09    -62.50   
    46. D(H   5,O   2,C   0,C   4)   -179.77 -0.000020    0.11   -179.65   
    47. D(H   5,O   2,C   0,C   3)     60.91 -0.000030    0.12     61.03   
    48. D(H   5,O   2,C   0,C   1)    -60.46 -0.000012    0.11    -60.35   
    49. D(H   7,C   3,C   0,O   2)    178.49 -0.000009    0.02    178.51   
    50. D(H   7,C   3,C   0,C   1)    -60.87 -0.000002    0.01    -60.86   
    51. D(H   6,C   3,C   0,C   4)   -177.68  0.000007    0.01   -177.67   
    52. D(H   6,C   3,C   0,O   2)    -61.80 -0.000009    0.01    -61.79   
    53. D(H   7,C   3,C   0,C   4)     62.61  0.000007    0.02     62.63   
    54. D(H   6,C   3,C   0,C   1)     58.84 -0.000002    0.00     58.84   
    55. D(H  10,C   4,C   0,C   3)     58.46  0.000007    0.01     58.47   
    56. D(H  10,C   4,C   0,O   2)    -59.86  0.000002    0.02    -59.85   
    57. D(H  10,C   4,C   0,C   1)   -178.20 -0.000006    0.02   -178.18   
    58. D(H   9,C   4,C   0,C   3)    178.58  0.000001    0.02    178.60   
    59. D(H   9,C   4,C   0,O   2)     60.25 -0.000003    0.03     60.28   
    60. D(H   9,C   4,C   0,C   1)    -58.08 -0.000012    0.04    -58.05   
    ----------------------------------------------------------------------------

Geometry step timings:
Preparation and reading OPT file:      0.001 s (16.251 %)
Internal coordinates            :      0.000 s ( 0.443 %)
B/P matrices and projection     :      0.001 s (12.217 %)
Hessian update/contruction      :      0.004 s (49.121 %)
Making the step                 :      0.000 s ( 5.312 %)
Converting the step to Cartesian:      0.000 s ( 0.670 %)
Storing new data                :      0.000 s ( 0.620 %)
Checking convergence            :      0.000 s ( 0.114 %)
Final printing                  :      0.001 s (15.202 %)
Total time                      :      0.008 s
                 *******************************************************
                 *** FINAL ENERGY EVALUATION AT THE STATIONARY POINT ***
                 ***               (AFTER    5 CYCLES)               ***
                 *******************************************************
---------------------------------
CARTESIAN COORDINATES (ANGSTROEM)
---------------------------------
  C     -1.559560   -4.555862    0.336151
  C     -1.150926   -5.296709   -0.946712
  O     -1.216183   -3.150978    0.212400
  C     -0.841973   -5.151050    1.557766
  C     -3.078809   -4.588982    0.525145
  H     -0.247248   -3.099525    0.084358
  H      0.260806   -5.088331    1.437460
  H     -1.104783   -6.220206    1.696566
  H     -1.120898   -4.603422    2.481536
  H     -3.593846   -4.135982   -0.346971
  H     -3.374939   -4.025940    1.434193
  H     -3.436673   -5.632476    0.633861
  H     -1.650961   -4.852606   -1.832047
  H     -1.426746   -6.370342   -0.895387
  H     -0.052469   -5.238515   -1.103533

----------------------------
CARTESIAN COORDINATES (A.U.)
----------------------------
  NO LB      ZA    FRAG     MASS         X           Y           Z
   0 C     6.0000    0    12.011   -2.947142   -8.609332    0.635234
   1 C     6.0000    0    12.011   -2.174935  -10.009329   -1.789025
   2 O     8.0000    0    15.999   -2.298253   -5.954486    0.401378
   3 C     6.0000    0    12.011   -1.591099   -9.734073    2.943751
   4 C     6.0000    0    12.011   -5.818107   -8.671919    0.992380
   5 H     1.0000    0     1.008   -0.467230   -5.857254    0.159413
   6 H     1.0000    0     1.008    0.492852   -9.615552    2.716405
   7 H     1.0000    0     1.008   -2.087736  -11.754486    3.206045
   8 H     1.0000    0     1.008   -2.118191   -8.699207    4.689424
   9 H     1.0000    0     1.008   -6.791384   -7.815872   -0.655681
  10 H     1.0000    0     1.008   -6.377711   -7.607925    2.710232
  11 H     1.0000    0     1.008   -6.494371  -10.643836    1.197824
  12 H     1.0000    0     1.008   -3.119863   -9.170096   -3.462067
  13 H     1.0000    0     1.008   -2.696159  -12.038202   -1.692036
  14 H     1.0000    0     1.008   -0.099151   -9.899360   -2.085376

--------------------------------
INTERNAL COORDINATES (ANGSTROEM)
--------------------------------
 C      0   0   0     0.000000000000     0.00000000     0.00000000
 C      1   0   0     1.536740713453     0.00000000     0.00000000
 O      1   2   0     1.451524059163   109.42201995     0.00000000
 C      1   2   3     1.536724273826   110.65446102   239.38136885
 C      1   2   3     1.531317675815   110.88030562   115.88405354
 H      3   1   2     0.978712492647   107.23169924   299.65148558
 H      4   1   2     1.111093878867   110.82571784    58.84285572
 H      4   1   2     1.109697740427   111.22312045   299.14239248
 H      4   1   2     1.109525205180   110.68960958   178.85907585
 H      5   1   2     1.109530959026   110.77469487   301.95347450
 H      5   1   2     1.109539180304   110.78936534   181.82062941
 H      5   1   2     1.108496531072   110.65605039    61.89694996
 H      2   1   3     1.109540992009   110.68988913   301.90552167
 H      2   1   3     1.109684223430   111.20606774   181.61192238
 H      2   1   3     1.111120272622   110.82115521    61.93039089

---------------------------
INTERNAL COORDINATES (A.U.)
---------------------------
 C      0   0   0     0.000000000000     0.00000000     0.00000000
 C      1   0   0     2.904019087274     0.00000000     0.00000000
 O      1   2   0     2.742982948616   109.42201995     0.00000000
 C      1   2   3     2.903988020881   110.65446102   239.38136885
 C      1   2   3     2.893771031324   110.88030562   115.88405354
 H      3   1   2     1.849498574950   107.23169924   299.65148558
 H      4   1   2     2.099663140134   110.82571784    58.84285572
 H      4   1   2     2.097024820838   111.22312045   299.14239248
 H      4   1   2     2.096698776473   110.68960958   178.85907585
 H      5   1   2     2.096709649666   110.77469487   301.95347450
 H      5   1   2     2.096725185630   110.78936534   181.82062941
 H      5   1   2     2.094754864129   110.65605039    61.89694996
 H      2   1   3     2.096728609256   110.68988913   301.90552167
 H      2   1   3     2.096999277415   111.20606774   181.61192238
 H      2   1   3     2.099713017104   110.82115521    61.93039089

---------------------
BASIS SET INFORMATION
---------------------
There are 3 groups of distinct atoms

 Group   1 Type C   : 8s5p1d contracted to 4s3p1d pattern {5111/311/1}
 Group   2 Type O   : 8s5p1d contracted to 4s3p1d pattern {5111/311/1}
 Group   3 Type H   : 4s1p contracted to 2s1p pattern {31/1}

Atom   0C    basis set group =>   1
Atom   1C    basis set group =>   1
Atom   2O    basis set group =>   2
Atom   3C    basis set group =>   1
Atom   4C    basis set group =>   1
Atom   5H    basis set group =>   3
Atom   6H    basis set group =>   3
Atom   7H    basis set group =>   3
Atom   8H    basis set group =>   3
Atom   9H    basis set group =>   3
Atom  10H    basis set group =>   3
Atom  11H    basis set group =>   3
Atom  12H    basis set group =>   3
Atom  13H    basis set group =>   3
Atom  14H    basis set group =>   3
---------------------------------
AUXILIARY/J BASIS SET INFORMATION
---------------------------------
There are 3 groups of distinct atoms

 Group   1 Type C   : 12s5p4d2f1g contracted to 6s4p3d1f1g pattern {711111/2111/211/2/1}
 Group   2 Type O   : 12s5p4d2f1g contracted to 6s4p3d1f1g pattern {711111/2111/211/2/1}
 Group   3 Type H   : 5s2p1d contracted to 3s1p1d pattern {311/2/1}

Atom   0C    basis set group =>   1
Atom   1C    basis set group =>   1
Atom   2O    basis set group =>   2
Atom   3C    basis set group =>   1
Atom   4C    basis set group =>   1
Atom   5H    basis set group =>   3
Atom   6H    basis set group =>   3
Atom   7H    basis set group =>   3
Atom   8H    basis set group =>   3
Atom   9H    basis set group =>   3
Atom  10H    basis set group =>   3
Atom  11H    basis set group =>   3
Atom  12H    basis set group =>   3
Atom  13H    basis set group =>   3
Atom  14H    basis set group =>   3


           ************************************************************
           *        Program running with 4 parallel MPI-processes     *
           *              working on a common directory               *
           ************************************************************
------------------------------------------------------------------------------
                             ORCA STARTUP CALCULATIONS
                           -- RI-GTO INTEGRALS CHOSEN --
------------------------------------------------------------------------------
------------------------------------------------------------------------------
                   ___                                                        
                  /   \      - P O W E R E D   B Y -                         
                 /     \                                                     
                 |  |  |   _    _      __       _____    __    __             
                 |  |  |  | |  | |    /  \     |  _  \  |  |  /  |          
                  \  \/   | |  | |   /    \    | | | |  |  | /  /          
                 / \  \   | |__| |  /  /\  \   | |_| |  |  |/  /          
                |  |  |   |  __  | /  /__\  \  |    /   |      \           
                |  |  |   | |  | | |   __   |  |    \   |  |\   \          
                \     /   | |  | | |  |  |  |  | |\  \  |  | \   \       
                 \___/    |_|  |_| |__|  |__|  |_| \__\ |__|  \__/        
                                                                              
                      - O R C A' S   B I G   F R I E N D -                    
                                      &                                       
                       - I N T E G R A L  F E E D E R -                       
                                                                              
 v1 FN, 2020, v2 2021, v3 2022-2024                                           
------------------------------------------------------------------------------


----------------------
SHARK INTEGRAL PACKAGE
----------------------

Number of atoms                             ...     15
Number of basis functions                   ...    140
Number of shells                            ...     70
Maximum angular momentum                    ...      2
Integral batch strategy                     ... SHARK/LIBINT Hybrid
RI-J (if used) integral strategy            ... SPLIT-RIJ (Revised 2003 algorithm where possible)
Printlevel                                  ...      1
Contraction scheme used                     ... SEGMENTED contraction
Prescreening option                         ... SCHWARTZ
   Thresh                                   ... 2.500e-11
   Tcut                                     ... 2.500e-12
   Tpresel                                  ... 2.500e-12 
Coulomb Range Separation                    ... NOT USED
Exchange Range Separation                   ... NOT USED
Multipole approximations                    ... NOT USED
Finite Nucleus Model                        ... NOT USED
CABS basis                                  ... NOT available
Auxiliary Coulomb fitting basis             ... AVAILABLE
   # of basis functions in Aux-J            ...    355
   # of shells in Aux-J                     ...    125
   Maximum angular momentum in Aux-J        ...      4
Auxiliary J/K fitting basis                 ... NOT available
Auxiliary Correlation fitting basis         ... NOT available
Auxiliary 'external' fitting basis          ... NOT available

Checking pre-screening integrals            ... done (  0.0 sec) Dimension = 70
Check shell pair data                       ... done (  0.0 sec)
Shell pair information
Shell pair cut-off parameter TPreSel        ...   2.5e-12
Total number of shell pairs                 ...      2485
Shell pairs after pre-screening             ...      2470
Total number of primitive shell pairs       ...      7355
Primitive shell pairs kept                  ...      6107
          la=0 lb=0:    814 shell pairs
          la=1 lb=0:    991 shell pairs
          la=1 lb=1:    325 shell pairs
          la=2 lb=0:    200 shell pairs
          la=2 lb=1:    125 shell pairs
          la=2 lb=2:     15 shell pairs

Calculating one electron integrals          ... done (  0.0 sec)
Calculating RI/J V-Matrix + Cholesky decomp.... done (  0.0 sec)
Calculating Nuclear repulsion               ... done (  0.0 sec) ENN=    197.770952146703 Eh

Diagonalization of the overlap matrix:
Smallest eigenvalue                        ... 8.754e-05
Time for diagonalization                   ...    0.003 sec
Threshold for overlap eigenvalues          ... 1.000e-07
Number of eigenvalues below threshold      ... 0
Time for construction of square roots      ...    0.004 sec
Total time needed                          ...    0.008 sec

-------------------
DFT GRID GENERATION
-------------------

General Integration Accuracy     IntAcc      ... 4.388
Radial Grid Type                 RadialGrid  ... OptM3 with GC (2021)
Angular Grid (max. ang.)         AngularGrid ... 4 (Lebedev-302)
Angular grid pruning method      GridPruning ... 4 (adaptive)
Weight generation scheme         WeightScheme... mBecke (2022)
Basis function cutoff            BFCut       ... 1.0000e-11
Integration weight cutoff        WCut        ... 1.0000e-14
Partially contracted basis set               ... off
Rotationally invariant grid construction     ... off
Angular grids for H and He will be reduced by one unit
Diffuse basis detected: some atoms will have their outermost
                        angular grid increased by 1.

Total number of grid points                  ...    63642
Total number of batches                      ...     1002
Average number of points per batch           ...       63
Average number of grid points per atom       ...     4243
Initializing property integral containers    ... done (  0.0 sec)

SHARK setup successfully completed in   0.6 seconds

Maximum memory used throughout the entire STARTUP-calculation: 19.5 MB


           ************************************************************
           *        Program running with 4 parallel MPI-processes     *
           *              working on a common directory               *
           ************************************************************
-------------------------------------------------------------------------------
                                 ORCA GUESS
                   Start orbitals & Density for SCF / CASSCF
-------------------------------------------------------------------------------

------------
SCF SETTINGS
------------
Hamiltonian:
 Density Functional     Method          .... DFT(GTOs)
 Exchange Functional    Exchange        .... PBE
   PBE kappa parameter   XKappa         ....  0.804000
   PBE mue parameter    XMuePBE         ....  0.219520
 Correlation Functional Correlation     .... PBE
   PBE beta parameter  CBetaPBE         ....  0.066725
 LDA part of GGA corr.  LDAOpt          .... PW91-LDA
 Gradients option       PostSCFGGA      .... off
   NL short-range parameter             ....  6.400000
 RI-approximation to the Coulomb term is turned on
   Number of AuxJ basis functions       .... 355


General Settings:
 Integral files         IntName         .... job
 Hartree-Fock type      HFTyp           .... RHF
 Total Charge           Charge          ....    0
 Multiplicity           Mult            ....    1
 Number of Electrons    NEL             ....   42
 Basis Dimension        Dim             ....  140
 Nuclear Repulsion      ENuc            ....    197.7709521467 Eh

Convergence Acceleration:
 AO-DIIS                CNVDIIS         .... on
   Start iteration      DIISMaxIt       ....    12
   Startup error        DIISStart       ....  0.200000
   # of expansion vecs  DIISMaxEq       ....     5
   Bias factor          DIISBfac        ....   1.050
   Max. coefficient     DIISMaxC        ....  10.000
 MO-DIIS                CNVKDIIS        .... off
 Trust-Rad. Augm. Hess. CNVTRAH         .... auto
   Auto Start mean grad. ratio tolernc. ....  1.125000
   Auto Start start iteration           ....     1
   Auto Start num. interpolation iter.  ....    10
   Max. Number of Micro iterations      ....    24
   Max. Number of Macro iterations      .... Maxiter - #DIIS iter
   Number of Davidson start vectors     ....     2
   Converg. threshold    (grad. norm)   ....   1.000e-05
   Grad. Scal. Fac. for Micro threshold ....   0.100
   Minimum threshold for Micro iter.    ....   1.000e-02
   NR start threshold (gradient norm)   ....   1.000e-04
   Initial trust radius                 ....   0.400
   Minimum AH scaling param. (alpha)    ....   1.000
   Maximum AH scaling param. (alpha)    .... 1000.000
   Quad. conv. algorithm                .... NR
   White noise on init. David. guess    .... on
   Maximum white noise                  ....   0.010
   Pseudo random numbers                .... off
   Inactive MOs                         .... canonical
   Orbital update algorithm             .... Taylor
   Preconditioner                       .... Diag
   Full preconditioner red. dimension   ....   250
 SOSCF                  CNVSOSCF        .... on
   Start iteration      SOSCFMaxIt      ....   150
   Startup grad/error   SOSCFStart      ....  0.003300
   Hessian update       SOSCFHessUp     .... L-BFGS
 Level Shifting         CNVShift        .... on
   Level shift para.    LevelShift      ....    0.2500
   Turn off err/grad.   ShiftErr        ....    0.0010
 Zerner damping         CNVZerner       .... off
 Static damping         CNVDamp         .... on
   Fraction old density DampFac         ....    0.7000
   Max. Damping (<1)    DampMax         ....    0.9800
   Min. Damping (>=0)   DampMin         ....    0.0000
   Turn off err/grad.   DampErr         ....    0.1000

SCF Procedure:
 Maximum # iterations   MaxIter         ....   125
 SCF integral mode      SCFMode         .... Direct
   Integral package                     .... SHARK and LIBINT hybrid scheme
 Reset frequency        DirectResetFreq ....    20
 Integral Threshold     Thresh          ....  2.500e-11 Eh
 Primitive CutOff       TCut            ....  2.500e-12 Eh

Convergence Tolerance:
 Convergence Check Mode ConvCheckMode   .... Total+1el-Energy
 Convergence forced     ConvForced      .... 0
 Energy Change          TolE            ....  1.000e-08 Eh
 1-El. energy change                    ....  1.000e-05 Eh
 Orbital Gradient       TolG            ....  1.000e-05
 Orbital Rotation angle TolX            ....  1.000e-05
 DIIS Error             TolErr          ....  5.000e-07

---------------------
INITIAL GUESS: MOREAD
---------------------
Guess MOs are being read from file: job.gbw
Input Geometry matches current geometry (good)
Input basis set matches current basis set (good)
Occupation numbers will be reassigned to an Aufbau configuration
MOs were renormalized
MOs were reorthogonalized (Cholesky)
                      ------------------
                      INITIAL GUESS DONE (   0.0 sec)
                      ------------------
             **** ENERGY FILE WAS UPDATED (job.en.tmp) ****
Finished Guess after   0.4 sec
Maximum memory used throughout the entire GUESS-calculation: 8.7 MB


           ************************************************************
           *        Program running with 4 parallel MPI-processes     *
           *              working on a common directory               *
           ************************************************************

-------------------------------------------------------------------------------------------
                                      ORCA LEAN-SCF
                              memory conserving SCF solver
-------------------------------------------------------------------------------------------

--------------------
CPCM SOLVATION MODEL
--------------------
CPCM parameters:
  Epsilon                                         ...      35.6880
  Refrac                                          ...       1.3442
  Rsolv                                           ...       1.3000
  Surface type                                    ... GAUSSIAN VDW
  Discretization scheme                           ... Constant charge density
    Threshold for H atoms                         ...       5.0000 (charges/Ang^2)
    Threshold for non-H atoms                     ...       5.0000 (charges/Ang^2)
  Epsilon function type                           ...         CPCM
Solvent:                                          ... ACETONITRILE
SMD-CDS solvent descriptors:
  Soln                                            ...       1.3442
  Soln25                                          ...       1.3416
  Sola                                            ...       0.0700
  Solb                                            ...       0.3200
  Solg                                            ...      41.2500
  Solc                                            ...       0.0000
  Solh                                            ...       0.0000
Radii:
  Scheme                                          ... Element-dependent radii
  Radius for C  used is    3.4960 Bohr (=   1.8500 Ang.)
  Radius for O  used is    4.0969 Bohr (=   2.1680 Ang.)
  Radius for H  used is    2.2677 Bohr (=   1.2000 Ang.)
Calculating surface                               ...        done! (  0.0s)
Cavity surface points                             ...         1136
Cavity Volume                                     ...     723.8177
Cavity Surface-area                               ...     462.7484
Calculating surface distance matrix               ...        done! (  0.0s)
Performing Cholesky decomposition & store         ...        done! (  0.0s)
Overall time for CPCM initialization              ...                 0.1s

----------------------------------------D-I-I-S--------------------------------------------
Iteration    Energy (Eh)           Delta-E    RMSDP     MaxDP     DIISErr   Damp  Time(sec)
-------------------------------------------------------------------------------------------
               ***  Starting incremental Fock matrix formation  ***
                              *** Initializing SOSCF ***
---------------------------------------S-O-S-C-F--------------------------------------
Iteration    Energy (Eh)           Delta-E    RMSDP     MaxDP     MaxGrad    Time(sec)
--------------------------------------------------------------------------------------
    1    -233.2112127913579513     0.00e+00  3.05e-05  8.05e-04  3.00e-05     0.4
               *** Restarting incremental Fock matrix formation ***
    2    -233.2112139340942178    -1.14e-06  1.09e-05  2.22e-04  2.44e-05     0.4
    3    -233.2112139968104714    -6.27e-08  9.97e-07  2.86e-05  3.53e-06     0.4
    4    -233.2112139962571007     5.53e-10  5.88e-07  1.45e-05  7.67e-06     0.3
                 **** Energy Check signals convergence ****

               *****************************************************
               *                     SUCCESS                       *
               *           SCF CONVERGED AFTER   4 CYCLES          *
               *****************************************************


SMD CDS free energy correction energy :                -0.95430     Kcal/mol
Total Energy after SMD CDS correction =              -233.212734767 Eh
             **** ENERGY FILE WAS UPDATED (job.en.tmp) ****

----------------
TOTAL SCF ENERGY
----------------

Total Energy       :       -233.21273476680804 Eh           -6346.04114 eV

Components:
Nuclear Repulsion  :        197.77095214670263 Eh            5381.62120 eV
Electronic Energy  :       -430.97407004103940 Eh          -11727.40066 eV
One Electron Energy:       -706.93355265237051 Eh          -19236.63994 eV
Two Electron Energy:        275.95948261133111 Eh            7509.23928 eV
CPCM Dielectric    :         -0.00809610192032 Eh              -0.22031 eV
SMD CDS (Gcds)     :         -0.00152077055093 Eh              -0.04138 eV

Virial components:
Potential Energy   :       -463.70366433937636 Eh          -12618.01819 eV
Kinetic Energy     :        230.49092957256835 Eh            6271.97705 eV
Virial Ratio       :          2.01180873017124

DFT components:
N(Alpha)           :       21.000072749680 electrons
N(Beta)            :       21.000072749680 electrons
N(Total)           :       42.000145499360 electrons
E(X)               :      -32.223015525716 Eh       
E(C)               :       -1.370738673679 Eh       
E(XC)              :      -33.593754199395 Eh       

CPCM Solvation Model Properties:
Surface-charge          :         -0.04143048878489
Corrected charge        :          0.00000000000000
Outlying charge corr.   :          0.00014418442929 Eh               0.00392 eV
Free-energy (cav+disp)  :         -0.00152077055093 Eh              -0.04138 eV

---------------
SCF CONVERGENCE
---------------

  Last Energy change         ...   -5.5337e-10  Tolerance :   1.0000e-08
  Last MAX-Density change    ...    1.4488e-05  Tolerance :   1.0000e-07
  Last RMS-Density change    ...    5.8773e-07  Tolerance :   5.0000e-09
  Last DIIS Error            ...    4.5156e-04  Tolerance :   5.0000e-07
  Last Orbital Gradient      ...    7.6731e-06  Tolerance :   1.0000e-05
  Last Orbital Rotation      ...    3.0627e-06  Tolerance :   1.0000e-05


----------------
ORBITAL ENERGIES
----------------

  NO   OCC          E(Eh)            E(eV) 
   0   2.0000     -18.755531      -510.3640 
   1   2.0000      -9.949362      -270.7359 
   2   2.0000      -9.883437      -268.9420 
   3   2.0000      -9.883377      -268.9403 
   4   2.0000      -9.882997      -268.9300 
   5   2.0000      -0.913236       -24.8504 
   6   2.0000      -0.700610       -19.0646 
   7   2.0000      -0.607721       -16.5369 
   8   2.0000      -0.605884       -16.4869 
   9   2.0000      -0.502631       -13.6773 
  10   2.0000      -0.429729       -11.6935 
  11   2.0000      -0.394156       -10.7255 
  12   2.0000      -0.391268       -10.6469 
  13   2.0000      -0.354062        -9.6345 
  14   2.0000      -0.339339        -9.2339 
  15   2.0000      -0.327206        -8.9037 
  16   2.0000      -0.311050        -8.4641 
  17   2.0000      -0.303642        -8.2625 
  18   2.0000      -0.296949        -8.0804 
  19   2.0000      -0.274179        -7.4608 
  20   2.0000      -0.223963        -6.0943 
  21   0.0000      -0.006543        -0.1780 
  22   0.0000       0.026542         0.7222 
  23   0.0000       0.029254         0.7960 
  24   0.0000       0.031386         0.8540 
  25   0.0000       0.046156         1.2560 
  26   0.0000       0.062263         1.6943 
  27   0.0000       0.063581         1.7301 
  28   0.0000       0.075710         2.0602 
  29   0.0000       0.079745         2.1700 
  30   0.0000       0.081384         2.2146 
  31   0.0000       0.115666         3.1474 
*Only the first 10 virtual orbitals were printed.

                    ********************************
                    * MULLIKEN POPULATION ANALYSIS *
                    ********************************

-----------------------
MULLIKEN ATOMIC CHARGES
-----------------------
   0 C :   -1.295595
   1 C :    0.075692
   2 O :   -0.472934
   3 C :    0.079013
   4 C :    0.059390
   5 H :    0.344597
   6 H :    0.129340
   7 H :    0.145156
   8 H :    0.130570
   9 H :    0.126046
  10 H :    0.126172
  11 H :    0.146843
  12 H :    0.130880
  13 H :    0.145311
  14 H :    0.129520
Sum of atomic charges:    0.0000000

--------------------------------
MULLIKEN REDUCED ORBITAL CHARGES
--------------------------------
  0 C s       :     3.823509  s :     3.823509
      pz      :     1.197951  p :     3.397951
      px      :     1.289293
      py      :     0.910707
      dz2     :     0.013743  d :     0.074134
      dxz     :     0.010075
      dyz     :     0.017559
      dx2y2   :     0.019205
      dxy     :     0.013551

  1 C s       :     2.813163  s :     2.813163
      pz      :     0.977555  p :     3.088213
      px      :     1.055617
      py      :     1.055040
      dz2     :     0.006089  d :     0.022932
      dxz     :     0.004142
      dyz     :     0.004036
      dx2y2   :     0.006811
      dxy     :     0.001854

  2 O s       :     3.858411  s :     3.858411
      pz      :     1.869929  p :     4.603499
      px      :     1.347771
      py      :     1.385799
      dz2     :     0.001766  d :     0.011024
      dxz     :     0.000588
      dyz     :     0.001596
      dx2y2   :     0.005661
      dxy     :     0.001413

  3 C s       :     2.810298  s :     2.810298
      pz      :     0.988391  p :     3.087754
      px      :     1.037211
      py      :     1.062151
      dz2     :     0.006479  d :     0.022935
      dxz     :     0.003115
      dyz     :     0.004447
      dx2y2   :     0.007143
      dxy     :     0.001752

  4 C s       :     2.802985  s :     2.802985
      pz      :     1.067345  p :     3.114722
      px      :     0.982679
      py      :     1.064698
      dz2     :     0.004285  d :     0.022903
      dxz     :     0.005456
      dyz     :     0.003990
      dx2y2   :     0.005809
      dxy     :     0.003362

  5 H s       :     0.588497  s :     0.588497
      pz      :     0.019503  p :     0.066907
      px      :     0.033774
      py      :     0.013630

  6 H s       :     0.848418  s :     0.848418
      pz      :     0.004497  p :     0.022242
      px      :     0.012572
      py      :     0.005173

  7 H s       :     0.832568  s :     0.832568
      pz      :     0.004619  p :     0.022277
      px      :     0.005428
      py      :     0.012229

  8 H s       :     0.847382  s :     0.847382
      pz      :     0.009802  p :     0.022049
      px      :     0.005357
      py      :     0.006890

  9 H s       :     0.851775  s :     0.851775
      pz      :     0.009905  p :     0.022179
      px      :     0.005710
      py      :     0.006564

 10 H s       :     0.851649  s :     0.851649
      pz      :     0.010358  p :     0.022180
      px      :     0.004565
      py      :     0.007256

 11 H s       :     0.830859  s :     0.830859
      pz      :     0.005397  p :     0.022298
      px      :     0.004923
      py      :     0.011979

 12 H s       :     0.847074  s :     0.847074
      pz      :     0.009299  p :     0.022046
      px      :     0.006604
      py      :     0.006143

 13 H s       :     0.832411  s :     0.832411
      pz      :     0.004378  p :     0.022278
      px      :     0.005678
      py      :     0.012222

 14 H s       :     0.848241  s :     0.848241
      pz      :     0.004549  p :     0.022240
      px      :     0.012626
      py      :     0.005065



                     *******************************
                     * LOEWDIN POPULATION ANALYSIS *
                     *******************************

----------------------
LOEWDIN ATOMIC CHARGES
----------------------
   0 C :   -0.170251
   1 C :   -0.220217
   2 O :   -0.331366
   3 C :   -0.220116
   4 C :   -0.211891
   5 H :    0.184893
   6 H :    0.105788
   7 H :    0.109434
   8 H :    0.106766
   9 H :    0.107094
  10 H :    0.107152
  11 H :    0.110537
  12 H :    0.106806
  13 H :    0.109527
  14 H :    0.105846

-------------------------------
LOEWDIN REDUCED ORBITAL CHARGES
-------------------------------
  0 C s       :     2.851176  s :     2.851176
      pz      :     1.129380  p :     3.158895
      px      :     1.122306
      py      :     0.907209
      dz2     :     0.030607  d :     0.160180
      dxz     :     0.021524
      dyz     :     0.038703
      dx2y2   :     0.045807
      dxy     :     0.023538

  1 C s       :     2.875192  s :     2.875192
      pz      :     1.077345  p :     3.280918
      px      :     1.108141
      py      :     1.095432
      dz2     :     0.016833  d :     0.064107
      dxz     :     0.011104
      dyz     :     0.012510
      dx2y2   :     0.018584
      dxy     :     0.005076

  2 O s       :     3.495721  s :     3.495721
      pz      :     1.868878  p :     4.813729
      px      :     1.441020
      py      :     1.503830
      dz2     :     0.003582  d :     0.021915
      dxz     :     0.000620
      dyz     :     0.002566
      dx2y2   :     0.012557
      dxy     :     0.002591

  3 C s       :     2.875169  s :     2.875169
      pz      :     1.080204  p :     3.280835
      px      :     1.100341
      py      :     1.100289
      dz2     :     0.017297  d :     0.064113
      dxz     :     0.009620
      dyz     :     0.012987
      dx2y2   :     0.019292
      dxy     :     0.004916

  4 C s       :     2.870356  s :     2.870356
      pz      :     1.113588  p :     3.277849
      px      :     1.056025
      py      :     1.108236
      dz2     :     0.012394  d :     0.063687
      dxz     :     0.013531
      dyz     :     0.011156
      dx2y2   :     0.018061
      dxy     :     0.008545

  5 H s       :     0.641590  s :     0.641590
      pz      :     0.047609  p :     0.173517
      px      :     0.094513
      py      :     0.031395

  6 H s       :     0.828814  s :     0.828814
      pz      :     0.012323  p :     0.065397
      px      :     0.041108
      py      :     0.011967

  7 H s       :     0.824335  s :     0.824335
      pz      :     0.012754  p :     0.066231
      px      :     0.013610
      py      :     0.039867

  8 H s       :     0.827727  s :     0.827727
      pz      :     0.032730  p :     0.065507
      px      :     0.013693
      py      :     0.019084

  9 H s       :     0.827408  s :     0.827408
      pz      :     0.030101  p :     0.065498
      px      :     0.018496
      py      :     0.016901

 10 H s       :     0.827346  s :     0.827346
      pz      :     0.031668  p :     0.065502
      px      :     0.014202
      py      :     0.019632

 11 H s       :     0.823679  s :     0.823679
      pz      :     0.012391  p :     0.065784
      px      :     0.015218
      py      :     0.038176

 12 H s       :     0.827683  s :     0.827683
      pz      :     0.031154  p :     0.065512
      px      :     0.017780
      py      :     0.016578

 13 H s       :     0.824237  s :     0.824237
      pz      :     0.012272  p :     0.066236
      px      :     0.013757
      py      :     0.040208

 14 H s       :     0.828752  s :     0.828752
      pz      :     0.012701  p :     0.065402
      px      :     0.040720
      py      :     0.011981



                      *****************************
                      * MAYER POPULATION ANALYSIS *
                      *****************************

  NA   - Mulliken gross atomic population
  ZA   - Total nuclear charge
  QA   - Mulliken gross atomic charge
  VA   - Mayer's total valence
  BVA  - Mayer's bonded valence
  FA   - Mayer's free valence

  ATOM       NA         ZA         QA         VA         BVA        FA
  0 C      7.2956     6.0000    -1.2956     5.4165     5.4165    -0.0000
  1 C      5.9243     6.0000     0.0757     3.6482     3.6482     0.0000
  2 O      8.4729     8.0000    -0.4729     1.7284     1.7284    -0.0000
  3 C      5.9210     6.0000     0.0790     3.6459     3.6459     0.0000
  4 C      5.9406     6.0000     0.0594     3.7548     3.7548    -0.0000
  5 H      0.6554     1.0000     0.3446     0.8555     0.8555     0.0000
  6 H      0.8707     1.0000     0.1293     0.9632     0.9632     0.0000
  7 H      0.8548     1.0000     0.1452     0.9597     0.9597     0.0000
  8 H      0.8694     1.0000     0.1306     0.9639     0.9639     0.0000
  9 H      0.8740     1.0000     0.1260     0.9705     0.9705    -0.0000
 10 H      0.8738     1.0000     0.1262     0.9704     0.9704     0.0000
 11 H      0.8532     1.0000     0.1468     0.9594     0.9594     0.0000
 12 H      0.8691     1.0000     0.1309     0.9637     0.9637     0.0000
 13 H      0.8547     1.0000     0.1453     0.9597     0.9597     0.0000
 14 H      0.8705     1.0000     0.1295     0.9632     0.9632     0.0000

  Mayer bond orders larger than 0.100000
B(  0-C ,  1-C ) :   1.2026 B(  0-C ,  2-O ) :   0.8726 B(  0-C ,  3-C ) :   1.2014 
B(  0-C ,  4-C ) :   1.2588 B(  0-C ,  7-H ) :   0.1079 B(  0-C , 11-H ) :   0.1099 
B(  0-C , 13-H ) :   0.1077 B(  1-C , 12-H ) :   0.8926 B(  1-C , 13-H ) :   0.8866 
B(  1-C , 14-H ) :   0.8959 B(  2-O ,  5-H ) :   0.8260 B(  3-C ,  6-H ) :   0.8954 
B(  3-C ,  7-H ) :   0.8864 B(  3-C ,  8-H ) :   0.8920 B(  4-C ,  9-H ) :   0.8871 
B(  4-C , 10-H ) :   0.8870 B(  4-C , 11-H ) :   0.8893 

-------
TIMINGS
-------

Total SCF time: 0 days 0 hours 0 min 2 sec 

Total time                  ....       2.056 sec
Sum of individual times     ....       2.016 sec  ( 98.1%)

SCF preparation             ....       0.406 sec  ( 19.8%)
Fock matrix formation       ....       1.492 sec  ( 72.5%)
  Startup                   ....       0.012 sec  (  0.8% of F)
  Split-RI-J                ....       0.251 sec  ( 16.9% of F)
  XC integration            ....       0.773 sec  ( 51.8% of F)
    XC Preparation          ....       0.000 sec  (  0.0% of XC)
    Basis function eval.    ....       0.289 sec  ( 37.4% of XC)
    Density eval.           ....       0.170 sec  ( 21.9% of XC)
    XC-Functional eval.     ....       0.047 sec  (  6.1% of XC)
    XC-Potential eval.      ....       0.182 sec  ( 23.5% of XC)
  CPCM terms                ....       0.432 sec  ( 29.0% of F)
Diagonalization             ....       0.000 sec  (  0.0%)
Density matrix formation    ....       0.011 sec  (  0.6%)
Total Energy calculation    ....       0.008 sec  (  0.4%)
Population analysis         ....       0.032 sec  (  1.5%)
Orbital Transformation      ....       0.012 sec  (  0.6%)
Orbital Orthonormalization  ....       0.000 sec  (  0.0%)
DIIS solution               ....       0.019 sec  (  0.9%)
SOSCF solution              ....       0.037 sec  (  1.8%)
Finished LeanSCF after   2.1 sec

Maximum memory used throughout the entire LEANSCF-calculation: 14.4 MB


           ************************************************************
           *        Program running with 4 parallel MPI-processes     *
           *              working on a common directory               *
           ************************************************************

------------------------------------------------------------------------------
                         ORCA PROPERTY INTEGRAL CALCULATIONS
------------------------------------------------------------------------------

GBWName                                   ... job.gbw
Number of atoms                           ...     15
Number of basis functions                 ...    140
Max core memory                           ...   3000 MB

Dipole integrals                          ... YES
Quadrupole integrals                      ...  NO
Linear momentum integrals                 ...  NO
Angular momentum integrals                ...  NO
Higher moments length integrals           ...  NO
Higher moments velocity integrals         ...  NO
Kinetic energy integrals                  ...  NO
GIAO right hand sides                     ...  NO
GIAO dipole derivative integrals          ...  NO
SOC integrals                             ...  NO
EPR diamagnetic integrals (GIAO)          ...  NO
EPR gauge integrals                       ...  NO
Field gradient integrals                  ...  NO (   0 nuclei)
Spin-dipole/Fermi contact integrals       ...  NO (   0 nuclei)
Contact density integrals                 ...  NO (   0 nuclei)
Nucleus-orbit integrals                   ...  NO (   0 nuclei)
Geometric perturbations                   ... YES (  15 nuclei)

Choice of electric origin   ... Center of mass
Position of electric origin ... ( -2.9313, -8.5509,  0.6297) 
Choice of magnetic origin   ... GIAO
Position of magnetic origin ... (  0.0000,  0.0000,  0.0000) 

Calculating integrals                     ... Electric Dipole (Length)     done (  0.0 sec)
Calculating integrals                     ... Geometrical perturbation right hand sides

-----------------------
GEOMETRIC PERTURBATIONS (15 nuclei)
-----------------------

MaxCore                            ...   3000 MB
Number of batches                  ...      1

BATCH   0: Atoms    0 -   14 ( 45 perturbations)
   => H(core) and overlap derivative integrals     ... done (     0.1 sec)
   => Making and storing internal U-coefficients   ... done (     0.0 sec)
   => RI-J derivative integrals                    ... done (     0.8 sec)
   => RI-J response operators                      ... done (     0.2 sec)
   => XC derivative integrals                      ... done (    11.1 sec)
   => XC response operators                        ... done (     2.6 sec)
   => CPCM derivative integrals                    ... done (     1.6 sec)
   => CPCM response operators                      ... done (     2.8 sec)
   => Completing and storing right hand sides      ... done (     0.0 sec)
   => Total time for right hand sides =  18.4 sec

  geometrical perturbations done ( 18.4 sec)

Property integrals calculated in  18.4 sec

Maximum memory used throughout the entire PROPINT-calculation: 43.8 MB

-------------------------   --------------------
FINAL SINGLE POINT ENERGY      -233.212734766808
-------------------------   --------------------

                                *** OPTIMIZATION RUN DONE ***



           ************************************************************
           *        Program running with 4 parallel MPI-processes     *
           *              working on a common directory               *
           ************************************************************
------------------------------------------------------------------------------
                            ORCA SCF RESPONSE CALCULATION
------------------------------------------------------------------------------

GBWName                                 ... job.gbw
Number of atoms                         ...     15
Number of basis functions               ...    140
Max core memory                         ...   3000 MB

Electric field perturbation             ...  NO
Quadrupolar field perturbation          ...  NO
Magnetic field perturbation (no GIAO)   ...  NO
Magnetic field perturbation (with GIAO) ...  NO
Linear momentum (velocity) perturbation ...  NO
Spin-orbit coupling perturbation        ...  NO
Choice of electric origin               ... Center of mass
Position of electric origin             ...    -2.931344    -8.550862     0.629748
Choice of magnetic origin               ... GIAO
Position of magnetic origin             ...     0.000000     0.000000     0.000000
Nuclear geometric perturbations         ... YES (  45 perturbations)
Nucleus-orbit perturbations             ...  NO (   0 perturbations)
Spin-dipole/Fermi contact perturbations ...  NO (   0 perturbations)

Total number of real perturbations      ...     45
Total number of imaginary perturbations ...      0
Total number of triplet perturbations   ...      0
Total number of SOC perturbations       ...      0

Using XC Grid                  ... (job.grid_cpscf.tmp) 
Recalculating density on grid  ... (job.grho_cpscf0.tmp) done
Calculating the xc-kernel      ... (job.fxc_cpscf0.tmp) done

                                **********************
                                * REAL PERTURBATIONS *
                                **********************



-------------------
SHARK CP-SCF DRIVER
-------------------

Dimension of the orbital basis          ...    140
Dimension of the CPSCF-problem          ...   2499
Number of operators                     ...      1
Max. number of iterations               ...    128
Convergence Tolerance                   ... 1.0e-04
Number of perturbations                 ...     45
Perturbation type                       ... REAL

----------------------------
POPLE LINEAR EQUATION SOLVER
----------------------------

  ITERATION   0:   ||err||_max =   2.5156e-01 (   2.8 sec   0/ 45 done)
  ITERATION   1:   ||err||_max =   2.7489e-02 (   2.4 sec   0/ 45 done)
  ITERATION   2:   ||err||_max =   6.5346e-03 (   2.7 sec   0/ 45 done)
  ITERATION   3:   ||err||_max =   1.3439e-03 (   2.5 sec   0/ 45 done)
  ITERATION   4:   ||err||_max =   3.7884e-04 (   2.8 sec  15/ 45 done)
  ITERATION   5:   ||err||_max =   1.0624e-04 (   2.0 sec  41/ 45 done)
  ITERATION   6:   ||err||_max =   1.8590e-05 (   0.6 sec  45/ 45 done)

CP-SCF equations solved in  16.0 sec
Response densities calculated in   0.0 sec

Maximum memory used throughout the entire SCFRESP-calculation: 26.4 MB


           ************************************************************
           *        Program running with 4 parallel MPI-processes     *
           *              working on a common directory               *
           ************************************************************

------------------------------------------------------------------------------
                              ORCA PROPERTY CALCULATIONS
------------------------------------------------------------------------------

GBWName                                 ... job.gbw
Number of atoms                         ...     15
Number of basis functions               ...    140
Max core memory                         ...   3000 MB

Electric properties:
Dipole moment                           ... YES
Quadrupole moment                       ...  NO
Static polarizability (Dipole/Dipole)   ...  NO
Static polarizability (Dipole/Quad.)    ...  NO
Static polarizability (Quad./Quad.)     ...  NO
Static polarizability (Velocity)        ...  NO

Atomic electric properties:
Dipole moment                           ...  NO
Quadrupole moment                       ...  NO
Static polarizability                   ...  NO

Choice of electric origin               ... Center of mass
Position of electric origin             ...    -2.931344    -8.550862     0.629748

General magnetic properties:
Magnetizability                         ...  NO

EPR properties:
g-Tensor (aka g-matrix)                 ...  NO
Zero-Field splitting spin-orbit         ...  NO
Zero-field splitting spin-spin          ...  NO
Hyperfine couplings                     ...  NO (   0 nuclei)
Quadrupole couplings                    ...  NO (   0 nuclei)
Contact density                         ...  NO (   0 nuclei)

NMR properties:
Chemical shifts                         ...  NO (   0 nuclei)
Spin-rotation constants                 ...  NO (   0 nuclei)
Spin-spin couplings                     ...  NO (   0 nuclei,    0 pairs)

Choice of magnetic origin               ... GIAO
Position of magnetic origin             ...     0.000000     0.000000     0.000000

Properties with geometric perturbations:
SCF Hessian                             ... YES
IR spectrum                             ... YES
VCD spectrum                            ...  NO
X-ray spectroscopy properties:
SCF XES/XAS/RIXS spectra                ...  NO


-------------
DIPOLE MOMENT
-------------

Method             : SCF
Type of density    : Electron Density
Multiplicity       :   1
Irrep              :   0
Energy             :  -233.2127347668080404 Eh
Relativity type    : 
Basis              : AO
                                X                 Y                 Z
Electronic contribution:      0.713230769       2.977982985      -0.260576840
Nuclear contribution   :     -0.216223068      -3.749397083       0.239843101
                        -----------------------------------------
Total Dipole Moment    :      0.497007701      -0.771414098      -0.020733739
                        -----------------------------------------
Magnitude (a.u.)       :      0.917892289
Magnitude (Debye)      :      2.333096784



--------------------
Rotational spectrum 
--------------------
 
Rotational constants in cm-1:             0.154770             0.153672             0.148647 
Rotational constants in MHz :          4639.889323          4606.963298          4456.337986 

Dipole components along the rotational axes: 
x,y,z [a.u.] :     0.719956    -0.007243     0.569330 
x,y,z [Debye]:     1.829984    -0.018411     1.447122 

 

Dipole moment calculation done in   0.0 sec 

-----------
SCF HESSIAN
-----------

Occupied/Occupied contributions to the Hessian:
   => Occupied/Occupied contributions              ... done (  0.0 sec)
Perturbed density contributions to the Hessian:
   => Perturbed density contributions              ... done (  0.0 sec)
Explicit contributions to the Hessian:
   => Nuclear repulsion Hessian                    ... done (  0.0 sec)
   => HCore and overlap Hessian                    ... done (  1.5 sec)
   => RI-J Hessian                                 ... done (  1.9 sec)
   => XC-Hessian                                   ... done (  7.8 sec)
   => CPCM-Hessian                                 ... done (  1.1 sec)
   => SMD-Hessian                                  ... done (  0.0 sec)
   => Explicit contributions done
Dipole derivatives                                 ... done (  0.0 sec)
Mass weighting the Hessian           ... done
Calculating normal modes             ... done
Scaling frequencies                  ... done

-----------------------
VIBRATIONAL FREQUENCIES
-----------------------

Scaling factor for frequencies =  1.000000000  (already applied!)

     0:       0.00 cm**-1
     1:       0.00 cm**-1
     2:       0.00 cm**-1
     3:       0.00 cm**-1
     4:       0.00 cm**-1
     5:       0.00 cm**-1
     6:     208.58 cm**-1
     7:     257.30 cm**-1
     8:     274.32 cm**-1
     9:     292.98 cm**-1
    10:     333.83 cm**-1
    11:     338.35 cm**-1
    12:     412.08 cm**-1
    13:     450.96 cm**-1
    14:     458.68 cm**-1
    15:     740.12 cm**-1
    16:     882.80 cm**-1
    17:     883.94 cm**-1
    18:     899.43 cm**-1
    19:     914.81 cm**-1
    20:     980.34 cm**-1
    21:     995.90 cm**-1
    22:    1104.77 cm**-1
    23:    1157.74 cm**-1
    24:    1203.61 cm**-1
    25:    1285.37 cm**-1
    26:    1318.55 cm**-1
    27:    1329.45 cm**-1
    28:    1336.01 cm**-1
    29:    1379.64 cm**-1
    30:    1380.89 cm**-1
    31:    1384.65 cm**-1
    32:    1397.81 cm**-1
    33:    1406.68 cm**-1
    34:    1409.37 cm**-1
    35:    2958.85 cm**-1
    36:    2962.28 cm**-1
    37:    2972.46 cm**-1
    38:    3047.77 cm**-1
    39:    3050.79 cm**-1
    40:    3059.67 cm**-1
    41:    3061.92 cm**-1
    42:    3062.29 cm**-1
    43:    3072.77 cm**-1
    44:    3648.68 cm**-1


------------
NORMAL MODES
------------

These modes are the Cartesian displacements weighted by the diagonal matrix
M(i,i)=1/sqrt(m[i]) where m[i] is the mass of the displaced atom
Thus, these vectors are normalized but *not* orthogonal

                  0          1          2          3          4          5    
      0       0.000000   0.000000   0.000000   0.000000   0.000000   0.000000
      1       0.000000   0.000000   0.000000   0.000000   0.000000   0.000000
      2       0.000000   0.000000   0.000000   0.000000   0.000000   0.000000
      3       0.000000   0.000000   0.000000   0.000000   0.000000   0.000000
      4       0.000000   0.000000   0.000000   0.000000   0.000000   0.000000
      5       0.000000   0.000000   0.000000   0.000000   0.000000   0.000000
      6       0.000000   0.000000   0.000000   0.000000   0.000000   0.000000
      7       0.000000   0.000000   0.000000   0.000000   0.000000   0.000000
      8       0.000000   0.000000   0.000000   0.000000   0.000000   0.000000
      9       0.000000   0.000000   0.000000   0.000000   0.000000   0.000000
     10       0.000000   0.000000   0.000000   0.000000   0.000000   0.000000
     11       0.000000   0.000000   0.000000   0.000000   0.000000   0.000000
     12       0.000000   0.000000   0.000000   0.000000   0.000000   0.000000
     13       0.000000   0.000000   0.000000   0.000000   0.000000   0.000000
     14       0.000000   0.000000   0.000000   0.000000   0.000000   0.000000
     15       0.000000   0.000000   0.000000   0.000000   0.000000   0.000000
     16       0.000000   0.000000   0.000000   0.000000   0.000000   0.000000
     17       0.000000   0.000000   0.000000   0.000000   0.000000   0.000000
     18       0.000000   0.000000   0.000000   0.000000   0.000000   0.000000
     19       0.000000   0.000000   0.000000   0.000000   0.000000   0.000000
     20       0.000000   0.000000   0.000000   0.000000   0.000000   0.000000
     21       0.000000   0.000000   0.000000   0.000000   0.000000   0.000000
     22       0.000000   0.000000   0.000000   0.000000   0.000000   0.000000
     23       0.000000   0.000000   0.000000   0.000000   0.000000   0.000000
     24       0.000000   0.000000   0.000000   0.000000   0.000000   0.000000
     25       0.000000   0.000000   0.000000   0.000000   0.000000   0.000000
     26       0.000000   0.000000   0.000000   0.000000   0.000000   0.000000
     27       0.000000   0.000000   0.000000   0.000000   0.000000   0.000000
     28       0.000000   0.000000   0.000000   0.000000   0.000000   0.000000
     29       0.000000   0.000000   0.000000   0.000000   0.000000   0.000000
     30       0.000000   0.000000   0.000000   0.000000   0.000000   0.000000
     31       0.000000   0.000000   0.000000   0.000000   0.000000   0.000000
     32       0.000000   0.000000   0.000000   0.000000   0.000000   0.000000
     33       0.000000   0.000000   0.000000   0.000000   0.000000   0.000000
     34       0.000000   0.000000   0.000000   0.000000   0.000000   0.000000
     35       0.000000   0.000000   0.000000   0.000000   0.000000   0.000000
     36       0.000000   0.000000   0.000000   0.000000   0.000000   0.000000
     37       0.000000   0.000000   0.000000   0.000000   0.000000   0.000000
     38       0.000000   0.000000   0.000000   0.000000   0.000000   0.000000
     39       0.000000   0.000000   0.000000   0.000000   0.000000   0.000000
     40       0.000000   0.000000   0.000000   0.000000   0.000000   0.000000
     41       0.000000   0.000000   0.000000   0.000000   0.000000   0.000000
     42       0.000000   0.000000   0.000000   0.000000   0.000000   0.000000
     43       0.000000   0.000000   0.000000   0.000000   0.000000   0.000000
     44       0.000000   0.000000   0.000000   0.000000   0.000000   0.000000
                  6          7          8          9         10         11    
      0       0.000285   0.000134   0.003190   0.000559   0.029371   0.001440
      1       0.000115   0.000072  -0.001786   0.001037  -0.009949   0.003353
      2       0.000069  -0.000038  -0.000403   0.007976  -0.000584   0.042150
      3       0.004793  -0.031180   0.002902   0.027690  -0.125440  -0.115992
      4      -0.007747  -0.041965   0.015404   0.022234   0.085282  -0.057096
      5       0.005220   0.009693  -0.009582   0.010524  -0.103970   0.043710
      6      -0.001540  -0.002837  -0.015453   0.002749   0.148547   0.011879
      7      -0.000156  -0.001815   0.003580  -0.000636  -0.038708   0.011681
      8      -0.008333  -0.022389   0.000521  -0.014956  -0.004434   0.160961
      9      -0.003399   0.031305   0.010554  -0.027649  -0.076984   0.134368
     10       0.008805   0.038744   0.022043  -0.015069   0.108068   0.047550
     11       0.005537  -0.004210   0.005117   0.023072   0.118428  -0.010423
     12      -0.000721  -0.000892   0.003617   0.003341   0.032844  -0.027063
     13      -0.001375   0.003466  -0.042173  -0.003367  -0.140409  -0.002379
     14      -0.008928  -0.008871   0.001029   0.028557  -0.010374  -0.186901
     15       0.014565   0.057626  -0.010503  -0.099421   0.155995  -0.061755
     16       0.008697   0.028755   0.022494  -0.057155  -0.161364  -0.020517
     17       0.118599   0.452883   0.046679  -0.820032   0.006414  -0.416049
     18      -0.000462   0.026047   0.011815  -0.025518  -0.061093   0.110922
     19      -0.266264   0.318970  -0.310889   0.067479   0.189772   0.123782
     20      -0.113308   0.082155  -0.153458   0.103968   0.303470  -0.184953
     21      -0.240825   0.288595  -0.274626   0.029021  -0.023867   0.236114
     22       0.091489  -0.042797   0.123575  -0.040257   0.107952   0.034712
     23       0.192445  -0.146366   0.250869  -0.053921   0.218389   0.087720
     24       0.213438  -0.167945   0.283215  -0.129147  -0.276467   0.250483
     25       0.211889  -0.135587   0.282404  -0.085694   0.209105   0.090167
     26      -0.049588   0.039017  -0.066884   0.033639  -0.001600  -0.000842
     27       0.036515   0.036721  -0.013000   0.000131  -0.040867   0.185183
     28       0.345970   0.303819  -0.048965   0.229735  -0.231497  -0.016112
     29       0.149762   0.124515   0.006957   0.152183  -0.013966  -0.318929
     30       0.004906   0.002196  -0.015823   0.032431  -0.072509  -0.254025
     31      -0.328194  -0.276126  -0.062578  -0.226464  -0.211857   0.008498
     32       0.195503   0.164785   0.007574   0.176847  -0.000602  -0.267005
     33      -0.048163  -0.046615   0.038644  -0.020204   0.206767  -0.048882
     34      -0.026592  -0.017154  -0.054838  -0.021164  -0.202324  -0.003984
     35      -0.407481  -0.357181  -0.011727  -0.219508  -0.025029  -0.274388
     36      -0.203006   0.130091   0.312262   0.134896  -0.311653  -0.198824
     37      -0.199861   0.093832   0.305493   0.106358   0.190732  -0.112327
     38       0.026032  -0.013212  -0.038781  -0.008539   0.054068   0.062538
     39       0.263965  -0.265980  -0.378808  -0.059779  -0.104303  -0.191861
     40      -0.068477   0.015580   0.103762   0.042441   0.075680  -0.030854
     41       0.129132  -0.047203  -0.201563  -0.063416  -0.190117   0.173027
     42      -0.027901  -0.008159   0.050647   0.047003  -0.159051  -0.129532
     43       0.236223  -0.264257  -0.339682  -0.062789   0.135904  -0.156623
     44      -0.131439   0.096801   0.197816   0.100530  -0.322357  -0.087716
                 12         13         14         15         16         17    
      0       0.046891  -0.145466  -0.005551   0.009298   0.011644  -0.006103
      1       0.142689   0.047753  -0.014122   0.000650   0.006080  -0.192718
      2      -0.014182   0.000939  -0.160449  -0.001222   0.101494   0.012546
      3      -0.056693   0.050852   0.058741  -0.066723   0.032036  -0.008369
      4      -0.061137   0.042643  -0.146778   0.115403  -0.122801  -0.009301
      5       0.080735   0.090799  -0.120749   0.210378  -0.044139   0.094595
      6       0.041552   0.172739   0.010429  -0.056690   0.002216   0.056956
      7       0.160917  -0.026730   0.015747  -0.202296   0.001385   0.193545
      8      -0.014117  -0.002662   0.221985   0.018744   0.019536  -0.018417
      9      -0.072723   0.009531  -0.091870  -0.118271  -0.044395  -0.031976
     10      -0.068740   0.052829   0.124525   0.091296   0.116739  -0.018346
     11      -0.057513  -0.123399  -0.096175  -0.199429  -0.047074  -0.087706
     12       0.066768  -0.179692   0.026928   0.237185   0.009543  -0.006168
     13      -0.100829  -0.066872   0.010661  -0.001028   0.004671  -0.121793
     14      -0.002838   0.033904   0.070449  -0.028960   0.067158   0.007347
     15       0.042295   0.191749  -0.029407  -0.063928  -0.003991   0.070855
     16       0.172001  -0.346087   0.029437  -0.142662  -0.003129   0.056598
     17      -0.008963   0.013253  -0.077293   0.013314  -0.029988  -0.009571
     18      -0.052423  -0.023548  -0.084818  -0.127242  -0.045144  -0.034445
     19      -0.240417   0.156889   0.205924   0.128884  -0.107803   0.086806
     20       0.046185  -0.375264   0.013267  -0.236177  -0.145118  -0.018130
     21      -0.267532   0.150282  -0.031220  -0.118281  -0.227655   0.028246
     22      -0.052222   0.021867   0.135803   0.097263   0.109068  -0.005584
     23      -0.309493  -0.102382   0.102441  -0.205690  -0.455055   0.122367
     24      -0.071237   0.180496  -0.232586  -0.144703   0.068859  -0.170926
     25      -0.232259   0.012987   0.312040   0.138629  -0.182459   0.163111
     26       0.040221  -0.048493  -0.252288  -0.240600   0.160946  -0.241558
     27      -0.078403  -0.311858  -0.205239   0.304781   0.289445   0.285313
     28      -0.232740  -0.162570   0.052424   0.036844  -0.030162   0.179679
     29       0.014000   0.060418   0.228585  -0.044025  -0.116562  -0.007257
     30      -0.079163  -0.262867   0.311985   0.307088  -0.308653   0.284262
     31      -0.226059  -0.163297   0.003800   0.037738   0.018019   0.173083
     32       0.027526   0.068105   0.166578  -0.035163  -0.045133  -0.081475
     33       0.356918   0.014263   0.020602   0.227557  -0.009060  -0.592677
     34      -0.202408  -0.136464   0.023607   0.009988  -0.007082   0.087445
     35      -0.029470   0.025382   0.171897  -0.028322  -0.106821   0.068156
     36      -0.076258   0.212587   0.130360  -0.085217  -0.027075  -0.113544
     37      -0.235292  -0.041822  -0.339217   0.167804   0.199444   0.197265
     38       0.004119  -0.042984  -0.260284   0.252415   0.147162   0.262100
     39      -0.186005   0.181161   0.021198  -0.065613   0.115652  -0.004212
     40      -0.012781   0.009108  -0.127581   0.122133  -0.165526  -0.020852
     41       0.369603   0.073618   0.092142   0.216054  -0.484163  -0.130052
     42      -0.059949   0.080991   0.073618  -0.067331   0.007262  -0.029926
     43      -0.243113   0.163862  -0.239784   0.155770   0.091776   0.087542
     44      -0.003551   0.343866  -0.051190   0.239865  -0.158084   0.008617
                 18         19         20         21         22         23    
      0       0.105418  -0.002273  -0.068161  -0.007888  -0.129260   0.003532
      1       0.037534  -0.001781   0.021883  -0.003308  -0.012879  -0.311212
      2      -0.014470   0.003388   0.007390  -0.054419   0.017333   0.016409
      3       0.069140  -0.070136  -0.029474  -0.087940   0.072325   0.001297
      4       0.061361   0.014316   0.050476  -0.047356  -0.009177   0.103054
      5       0.024924  -0.031807  -0.073695   0.049524   0.008566  -0.029624
      6      -0.001390   0.000079   0.001799   0.002816  -0.037024   0.015582
      7      -0.078901   0.002432   0.008649   0.001434   0.054529   0.041934
      8       0.005152  -0.001547  -0.001093   0.023221   0.001159  -0.004203
      9       0.064148   0.057643  -0.011218   0.096233   0.067525   0.006797
     10       0.058698  -0.022041   0.058058   0.051764  -0.011149   0.105681
     11      -0.051587  -0.046017   0.071760   0.021284  -0.025360   0.017264
     12      -0.133399   0.012636   0.060900  -0.010518   0.046669  -0.007283
     13      -0.052118   0.005946  -0.095407  -0.005294   0.045338   0.111723
     14       0.022200   0.078310  -0.001211  -0.092766  -0.008610  -0.005251
     15      -0.009708   0.002013   0.022886  -0.000456   0.019246   0.005489
     16       0.001978   0.000729  -0.337536  -0.002106  -0.785954   0.199489
     17       0.000534   0.011632   0.020161  -0.003477   0.048430  -0.013234
     18       0.119762   0.100990  -0.022290   0.143944   0.099187  -0.001749
     19      -0.206224  -0.058715  -0.096388  -0.253603  -0.088472  -0.201417
     20       0.336430   0.354207  -0.128458   0.320618   0.255310  -0.139602
     21      -0.297431  -0.123236  -0.044150  -0.239543  -0.112567  -0.143646
     22       0.120444   0.041068   0.024180   0.095834   0.040686   0.087366
     23      -0.259602   0.095341  -0.223974  -0.230543   0.057241  -0.357096
     24      -0.199456  -0.277500   0.198004  -0.095141  -0.161503  -0.053421
     25      -0.035166   0.129289  -0.218457  -0.139664   0.006219  -0.165486
     26      -0.075719  -0.235153   0.297605   0.077975  -0.100040   0.143523
     27      -0.024353   0.360942   0.292592  -0.334225   0.016716  -0.177667
     28       0.091415  -0.052918   0.157555   0.041600  -0.051399  -0.228536
     29       0.027069  -0.160187  -0.006584   0.125568  -0.036031  -0.071635
     30      -0.057914  -0.386315   0.280079   0.356370   0.027581  -0.155620
     31       0.088845   0.035092   0.152623  -0.031625  -0.046672  -0.213295
     32      -0.035554  -0.072063  -0.083503   0.045592   0.037269   0.138249
     33      -0.424758  -0.010986  -0.331588   0.018512   0.240049   0.334592
     34       0.049111  -0.010434   0.051432   0.007566  -0.020527  -0.022639
     35       0.043255  -0.156998   0.036297   0.126313  -0.027519  -0.041075
     36      -0.160315   0.219557   0.125118   0.111603  -0.134355  -0.084891
     37      -0.028881  -0.153791  -0.257769   0.144529   0.020079  -0.179608
     38       0.109542  -0.278002  -0.314352   0.034100   0.135088  -0.105699
     39      -0.214619   0.153861   0.011722   0.180013  -0.125121  -0.056231
     40       0.147375  -0.039725   0.050572  -0.125802   0.036563   0.130307
     41       0.302568   0.047654   0.226416  -0.271080  -0.029956   0.369765
     42       0.036045  -0.015209   0.010461  -0.065280   0.036155   0.034096
     43      -0.233380   0.113225  -0.080664   0.290490  -0.120573  -0.181944
     44      -0.304671   0.371960   0.143167   0.316455  -0.262008   0.157839
                 24         25         26         27         28         29    
      0      -0.043306  -0.146060  -0.009901  -0.085161   0.097809  -0.003625
      1      -0.018456   0.008414  -0.002844   0.024648  -0.003596   0.000179
      2      -0.335689   0.019250  -0.062859   0.010758  -0.011211  -0.006086
      3       0.025388   0.038104  -0.019082   0.050742  -0.026572   0.030401
      4      -0.017307   0.016617   0.048142  -0.056599  -0.020850  -0.003390
      5       0.078174   0.017640   0.102035  -0.087379  -0.026895   0.009143
      6       0.003609   0.042351   0.000727   0.017131  -0.020172   0.000527
      7       0.001440  -0.032259  -0.000046  -0.011825   0.018237  -0.000497
      8       0.027223  -0.003452   0.002852  -0.001540   0.001378   0.000009
      9      -0.005149   0.031922   0.048099   0.069629  -0.019574  -0.027045
     10       0.025805   0.014014  -0.038954  -0.044781  -0.016876   0.003520
     11       0.079168  -0.029487   0.103275   0.072690   0.033428   0.016764
     12       0.014251  -0.052001   0.002413   0.033535  -0.148539  -0.003467
     13       0.006287  -0.019022   0.000702  -0.014741   0.001628  -0.001176
     14       0.116654   0.007132   0.021072  -0.003819   0.018251  -0.034388
     15       0.000323  -0.003387   0.000650  -0.000357   0.003222   0.000233
     16       0.001227   0.548058   0.004606   0.200510  -0.275065   0.006411
     17       0.002250  -0.033706   0.005082  -0.012624   0.016449   0.001798
     18       0.021217   0.049738  -0.019332   0.001807  -0.027393   0.008575
     19      -0.214492  -0.048070   0.127132   0.232160   0.023959  -0.212677
     20       0.069307   0.153498  -0.360317  -0.295242  -0.078004   0.144009
     21       0.198296  -0.069351  -0.191000  -0.340336   0.067608   0.283496
     22      -0.045741   0.058044  -0.035415   0.023051  -0.067324  -0.107492
     23       0.031577   0.175149  -0.383411  -0.232750  -0.234275  -0.258686
     24       0.223765  -0.041810  -0.220229  -0.256303   0.051380   0.111698
     25      -0.212153  -0.175523   0.286516   0.177668   0.227790   0.264907
     26       0.290247   0.071160  -0.184515  -0.161204  -0.097239  -0.103751
     27       0.268848   0.349723   0.004696  -0.017534   0.351068   0.184477
     28      -0.136100   0.118678  -0.057774   0.048576   0.112305   0.231040
     29      -0.124967  -0.144950  -0.014964   0.056295  -0.210275  -0.013734
     30      -0.285069   0.375164  -0.004049  -0.030991   0.393062  -0.167343
     31       0.129088   0.129906   0.061589   0.038163   0.134327  -0.247363
     32      -0.073586   0.040994  -0.022889  -0.054536   0.103647   0.074854
     33      -0.038254   0.345552  -0.011466  -0.033478   0.454554   0.046496
     34      -0.020346  -0.146934  -0.009046   0.011545  -0.206148   0.031034
     35      -0.315025  -0.033328  -0.119922   0.006911  -0.045731   0.443304
     36      -0.149652  -0.056377   0.158334  -0.214952   0.068039  -0.119654
     37       0.247713  -0.180389  -0.297935   0.221756   0.237551  -0.257250
     38       0.310754  -0.038677  -0.186007   0.207029   0.056663  -0.041192
     39      -0.185638  -0.108467   0.076563  -0.271560   0.120170  -0.334415
     40       0.051741   0.038609  -0.008094   0.053359  -0.041001   0.080698
     41       0.070110  -0.155408  -0.403768   0.330779   0.220501  -0.178354
     42      -0.006074   0.012659  -0.062247   0.072638  -0.007189   0.022583
     43       0.219958  -0.068960  -0.154821   0.270856   0.037124   0.228917
     44       0.042365  -0.153139  -0.323047   0.272132   0.084676   0.105180
                 30         31         32         33         34         35    
      0      -0.001286  -0.005160   0.004969   0.036931   0.098103  -0.000324
      1      -0.000447  -0.003512   0.002327  -0.054137   0.015796  -0.000104
      2       0.000162  -0.000658   0.063514  -0.002718  -0.011441  -0.002448
      3       0.016476  -0.003146   0.018783  -0.000481   0.018316  -0.014475
      4       0.028919  -0.021539  -0.021512  -0.008979   0.005651   0.014953
      5      -0.017060   0.014409  -0.007772   0.024834   0.002921   0.028449
      6       0.000376   0.002237   0.000022  -0.006337  -0.017198   0.000002
      7      -0.000094  -0.001477  -0.000565   0.010955   0.008835   0.000007
      8       0.000780  -0.000111  -0.004470   0.000191   0.001433   0.000046
      9      -0.019734  -0.002880  -0.021258  -0.006082   0.014226   0.022347
     10      -0.032174  -0.022530   0.018704  -0.011955   0.005915  -0.012350
     11      -0.009310  -0.010226  -0.006129  -0.022031  -0.008093   0.026704
     12       0.002540  -0.004110   0.004971  -0.006414  -0.044145   0.000411
     13       0.001702   0.039999   0.001764  -0.024440   0.011609  -0.000007
     14       0.014726  -0.002142   0.026705   0.001291   0.005218   0.000444
     15       0.000286   0.000700  -0.001382   0.001702   0.001411   0.000091
     16       0.003310   0.022842   0.005952  -0.082123  -0.201286   0.000043
     17       0.002018  -0.001348  -0.011113   0.005009   0.011908   0.001509
     18       0.006105  -0.001685   0.006750  -0.010762  -0.030944  -0.461751
     19       0.303245   0.296043  -0.299389   0.335832   0.096732  -0.030290
     20       0.331711   0.161235   0.043445   0.123934  -0.313384   0.058840
     21      -0.131855  -0.211344   0.302066  -0.268811  -0.169975   0.097777
     22      -0.019055   0.031474  -0.074590   0.065639   0.091385   0.372071
     23      -0.207453  -0.043735  -0.098093   0.034109   0.326790  -0.042773
     24       0.422526   0.249081  -0.058079   0.241461  -0.241378   0.105784
     25       0.190555   0.021303   0.139203  -0.085667  -0.306942  -0.198504
     26      -0.000595   0.048396  -0.095449   0.103367   0.102808  -0.321240
     27      -0.090323   0.125305  -0.246732  -0.113383   0.076070  -0.002410
     28      -0.121030  -0.367461  -0.274089   0.326392  -0.095453   0.002777
     29       0.000058  -0.281225   0.021968   0.241560  -0.119869  -0.005866
     30       0.089458   0.187553   0.232549  -0.188500   0.114674  -0.001130
     31       0.105241  -0.339279   0.270247   0.278003  -0.070242   0.000966
     32      -0.026936   0.286783  -0.075180  -0.239691   0.105754   0.001279
     33      -0.031828  -0.238187  -0.062680   0.256655  -0.013442  -0.001204
     34      -0.010150   0.112298  -0.029055  -0.108597  -0.004630  -0.003603
     35      -0.210805   0.029046  -0.494186  -0.007810  -0.008289  -0.000137
     36      -0.389409   0.254369   0.067334   0.209105  -0.266348  -0.175172
     37      -0.174812   0.037961  -0.134187  -0.100420  -0.332247   0.155975
     38       0.117278  -0.109943  -0.099286  -0.146691  -0.008822  -0.294120
     39       0.068528  -0.169917  -0.323653  -0.268073  -0.274867  -0.096564
     40      -0.004707   0.033289   0.069135   0.065373   0.063518  -0.357143
     41      -0.220231   0.108529  -0.008684   0.021875  -0.295684   0.023571
     42       0.074400  -0.049110  -0.005464  -0.044250   0.047071   0.439708
     43      -0.247258   0.265308   0.320449   0.317428   0.154580   0.027891
     44       0.339389  -0.212446  -0.021851  -0.155080   0.311813  -0.055104
                 36         37         38         39         40         41    
      0      -0.001209  -0.001874  -0.000061   0.002702  -0.000040   0.000334
      1       0.001584  -0.001121   0.000011   0.000309   0.000039   0.000453
      2       0.000118   0.000296   0.000298  -0.000337  -0.000471   0.002463
      3       0.014940  -0.005109   0.059027   0.063832   0.008454   0.009481
      4      -0.015036   0.005414   0.021418   0.015211  -0.030880  -0.032873
      5      -0.028200   0.010163   0.010370   0.016447   0.020531   0.021131
      6       0.000158  -0.000083   0.000026  -0.000416  -0.000026  -0.000089
      7      -0.000175  -0.000005  -0.000000  -0.000153  -0.000025  -0.000105
      8      -0.000019   0.000007   0.000006   0.000050  -0.000107  -0.000375
      9       0.020690  -0.007558  -0.058111   0.053872  -0.003599  -0.004147
     10      -0.011319   0.004265  -0.020532   0.011402   0.038571   0.054543
     11       0.023938  -0.009083   0.028758  -0.031079   0.020845   0.027845
     12       0.016284   0.047997   0.000013  -0.000537  -0.008951   0.006942
     13      -0.001826  -0.005315   0.000154  -0.001122  -0.006422   0.000800
     14      -0.001891  -0.005509   0.000020   0.000229  -0.072595   0.057033
     15      -0.004033   0.001761  -0.000327  -0.000401   0.000326   0.000474
     16      -0.001630   0.002133  -0.000038  -0.004604   0.000099   0.000007
     17       0.000617  -0.000330  -0.002776   0.000269   0.001548   0.000647
     18      -0.419163   0.151954   0.545351  -0.507924   0.028431   0.033734
     19      -0.026867   0.009044   0.030327  -0.028997   0.008403   0.010630
     20       0.052861  -0.017422  -0.061687   0.054987  -0.000170   0.000293
     21       0.086857  -0.031495   0.083285  -0.062032  -0.077415  -0.111008
     22       0.332098  -0.118772   0.365243  -0.280562  -0.299628  -0.428346
     23      -0.037499   0.013660  -0.040611   0.029365   0.040271   0.057338
     24       0.093019  -0.033503   0.065925  -0.080754   0.091241   0.124352
     25      -0.176067   0.063437  -0.151550   0.175261  -0.170186  -0.234004
     26      -0.287635   0.105371  -0.239574   0.282966  -0.287343  -0.398409
     27      -0.088145  -0.255835  -0.001394  -0.002880   0.250360  -0.205368
     28       0.082690   0.233968   0.000892   0.002071  -0.228702   0.185069
     29      -0.160237  -0.453853  -0.000950  -0.003477   0.425965  -0.348102
     30      -0.048061  -0.141868   0.001533  -0.001500  -0.147550   0.112869
     31       0.102834   0.290685  -0.001728   0.001734   0.289761  -0.219278
     32       0.165506   0.469633  -0.002369   0.002571   0.455910  -0.344871
     33      -0.053227  -0.147838  -0.000294   0.002416   0.004130   0.008925
     34      -0.165169  -0.459803  -0.001202   0.009136   0.015652   0.023855
     35       0.016758   0.046533   0.000505  -0.000865  -0.013257   0.006791
     36       0.170860  -0.059270  -0.113880  -0.157064  -0.139517  -0.147366
     37      -0.151925   0.052140   0.114918   0.151570   0.120539   0.127441
     38       0.290024  -0.101651  -0.214206  -0.288636  -0.239183  -0.256148
     39       0.094272  -0.032675  -0.080885  -0.068838   0.069219   0.073695
     40       0.350857  -0.119891  -0.342882  -0.301895   0.255993   0.270440
     41      -0.023735   0.007998   0.020916   0.019753  -0.011812  -0.012731
     42      -0.439061   0.151423  -0.510071  -0.542740  -0.029539  -0.039147
     43      -0.027130   0.008496  -0.026504  -0.028719  -0.007127  -0.007287
     44       0.055555  -0.020803   0.070622   0.077911   0.007376   0.008607
                 42         43         44    
      0       0.000164   0.000527   0.001743
      1       0.001733  -0.002256  -0.000659
      2      -0.000509   0.000094  -0.000184
      3      -0.006980   0.000551  -0.000402
      4       0.062947  -0.012832  -0.000148
      5      -0.037541   0.007369   0.000214
      6      -0.000254   0.000189   0.061682
      7      -0.000481   0.000549   0.004788
      8       0.000127  -0.000056  -0.008144
      9       0.002811  -0.001118  -0.000467
     10       0.048234  -0.013525  -0.000169
     11       0.021158  -0.005719  -0.000073
     12      -0.000983  -0.001547  -0.000304
     13      -0.021414  -0.090283   0.000245
     14      -0.004524   0.006993   0.000001
     15       0.002315  -0.001090  -0.987588
     16      -0.000242   0.000948  -0.062564
     17      -0.000507   0.000062   0.129668
     18      -0.029792   0.010648   0.001607
     19       0.006394  -0.000832   0.001263
     20       0.007288  -0.001963  -0.001661
     21      -0.102750   0.029432  -0.000040
     22      -0.402478   0.116837  -0.003304
     23       0.053467  -0.015734   0.001824
     24       0.099123  -0.026862   0.000037
     25      -0.184098   0.049658   0.000306
     26      -0.313650   0.085714   0.000118
     27      -0.016564  -0.167090  -0.000610
     28       0.011801   0.136311  -0.000320
     29      -0.031285  -0.288362  -0.000179
     30      -0.032711  -0.089809  -0.000600
     31       0.061938   0.163076  -0.000277
     32       0.105805   0.286582   0.000342
     33       0.060507   0.267340  -0.000225
     34       0.179476   0.784695  -0.000652
     35      -0.019527  -0.081143   0.000055
     36       0.249453  -0.047784   0.000050
     37      -0.214036   0.040494   0.000322
     38       0.429694  -0.082637  -0.000155
     39      -0.147539   0.031131  -0.000403
     40      -0.550923   0.117665  -0.003502
     41       0.025897  -0.005270  -0.001385
     42      -0.018571   0.009993   0.001971
     43       0.009504  -0.000850   0.001435
     44      -0.004018  -0.000460   0.001134


-----------
IR SPECTRUM
-----------

 Mode   freq       eps      Int      T**2         TX        TY        TZ
       cm**-1   L/(mol*cm) km/mol    a.u.
----------------------------------------------------------------------------
  6:    208.58   0.000534    2.70  0.000798  ( 0.003380  0.001821  0.027995)
  7:    257.30   0.007571   38.26  0.009182  ( 0.012302  0.005855  0.094848)
  8:    274.32   0.000091    0.46  0.000103  (-0.000398  0.004456  0.009126)
  9:    292.98   0.021122  106.74  0.022498  (-0.019610 -0.010257 -0.148352)
 10:    333.83   0.000519    2.62  0.000485  (-0.019345 -0.010265  0.002366)
 11:    338.35   0.007987   40.36  0.007367  (-0.009415 -0.004762 -0.085179)
 12:    412.08   0.000402    2.03  0.000305  (-0.002200 -0.017207  0.001901)
 13:    450.96   0.002426   12.26  0.001679  (-0.026902 -0.030743  0.003179)
 14:    458.68   0.003510   17.74  0.002388  (-0.003467  0.000195 -0.048747)
 15:    740.12   0.001414    7.14  0.000596  ( 0.006456  0.023422 -0.002387)
 16:    882.80   0.000198    1.00  0.000070  (-0.000847 -0.000663 -0.008300)
 17:    883.94   0.011183   56.51  0.003948  (-0.017432 -0.060074  0.005926)
 18:    899.43   0.002437   12.32  0.000846  (-0.003140  0.028876 -0.001395)
 19:    914.81   0.000009    0.04  0.000003  ( 0.000124 -0.001054  0.001357)
 20:    980.34   0.002355   11.90  0.000750  (-0.010292 -0.025179  0.003130)
 21:    995.90   0.000157    0.79  0.000049  (-0.000936 -0.000583 -0.006920)
 22:   1104.77   0.019755   99.84  0.005580  (-0.031070 -0.067412  0.008402)
 23:   1157.74   0.017996   90.94  0.004851  (-0.008430 -0.068969  0.004795)
 24:   1203.61   0.007961   40.23  0.002064  (-0.005695 -0.002381 -0.045010)
 25:   1285.37   0.004674   23.62  0.001135  (-0.010181  0.032108 -0.000568)
 26:   1318.55   0.007505   37.93  0.001776  (-0.005869 -0.001504 -0.041707)
 27:   1329.45   0.008751   44.22  0.002054  (-0.029224  0.034539  0.002661)
 28:   1336.01   0.006783   34.28  0.001584  ( 0.039219 -0.005197 -0.004376)
 29:   1379.64   0.000031    0.16  0.000007  ( 0.000246  0.000618  0.002562)
 30:   1380.89   0.000017    0.09  0.000004  (-0.000433  0.000266 -0.001915)
 31:   1384.65   0.000126    0.64  0.000028  (-0.003305  0.004147  0.000452)
 32:   1397.81   0.001730    8.74  0.000386  (-0.002379 -0.000074 -0.019509)
 33:   1406.68   0.001396    7.05  0.000310  (-0.002269  0.017447 -0.000268)
 34:   1409.37   0.002744   13.87  0.000608  (-0.013911 -0.020208  0.002400)
 35:   2958.85   0.007575   38.28  0.000799  ( 0.004103  0.001271  0.027937)
 36:   2962.28   0.007318   36.98  0.000771  ( 0.024986 -0.011707 -0.003094)
 37:   2972.46   0.002818   14.24  0.000296  ( 0.017077 -0.000488 -0.001990)
 38:   3047.77   0.001678    8.48  0.000172  ( 0.000511  0.000436  0.013089)
 39:   3050.79   0.011918   60.23  0.001219  ( 0.033805  0.007709 -0.004113)
 40:   3059.67   0.000782    3.95  0.000080  (-0.001176  0.000261 -0.008847)
 41:   3061.92   0.009790   49.47  0.000998  ( 0.003628  0.005973  0.030805)
 42:   3062.29   0.005672   28.66  0.000578  (-0.001295  0.023252 -0.005970)
 43:   3072.77   0.007457   37.69  0.000757  ( 0.002916 -0.027320  0.001561)
 44:   3648.68   0.011870   59.99  0.001015  (-0.028902 -0.012658  0.004440)

* The epsilon (eps) is given for a Dirac delta lineshape.
** The dipole moment derivative (T) already includes vibrational overlap.

The first frequency considered to be a vibration is 6
The total number of vibrations considered is 39


--------------------------
THERMOCHEMISTRY AT 298.15K
--------------------------

Temperature         ...   298.15 K
Pressure            ...     1.00 atm
Total Mass          ...    74.12 AMU
Quasi RRHO          ...     True
Cut-Off Frequency   ...     1.00 cm^-1

Throughout the following assumptions are being made:
  (1) The electronic state is orbitally nondegenerate
  (2) There are no thermally accessible electronically excited states
  (3) Hindered rotations indicated by low frequency modes are not
      treated as such but are treated as vibrations and this may
      cause some error
  (4) All equations used are the standard statistical mechanics
      equations for an ideal gas
  (5) All vibrations are strictly harmonic

freq.     208.58  E(vib)   ...       0.34 
freq.     257.30  E(vib)   ...       0.30 
freq.     274.32  E(vib)   ...       0.28 
freq.     292.98  E(vib)   ...       0.27 
freq.     333.83  E(vib)   ...       0.24 
freq.     338.35  E(vib)   ...       0.23 
freq.     412.08  E(vib)   ...       0.19 
freq.     450.96  E(vib)   ...       0.17 
freq.     458.68  E(vib)   ...       0.16 
freq.     740.12  E(vib)   ...       0.06 
freq.     882.80  E(vib)   ...       0.04 
freq.     883.94  E(vib)   ...       0.04 
freq.     899.43  E(vib)   ...       0.03 
freq.     914.81  E(vib)   ...       0.03 
freq.     980.34  E(vib)   ...       0.02 
freq.     995.90  E(vib)   ...       0.02 
freq.    1104.77  E(vib)   ...       0.02 
freq.    1157.74  E(vib)   ...       0.01 
freq.    1203.61  E(vib)   ...       0.01 
freq.    1285.37  E(vib)   ...       0.01 
freq.    1318.55  E(vib)   ...       0.01 
freq.    1329.45  E(vib)   ...       0.01 
freq.    1336.01  E(vib)   ...       0.01 
freq.    1379.64  E(vib)   ...       0.01 
freq.    1380.89  E(vib)   ...       0.01 
freq.    1384.65  E(vib)   ...       0.00 
freq.    1397.81  E(vib)   ...       0.00 
freq.    1406.68  E(vib)   ...       0.00 
freq.    1409.37  E(vib)   ...       0.00 
freq.    2958.85  E(vib)   ...       0.00 
freq.    2962.28  E(vib)   ...       0.00 
freq.    2972.46  E(vib)   ...       0.00 
freq.    3047.77  E(vib)   ...       0.00 
freq.    3050.79  E(vib)   ...       0.00 
freq.    3059.67  E(vib)   ...       0.00 
freq.    3061.92  E(vib)   ...       0.00 
freq.    3062.29  E(vib)   ...       0.00 
freq.    3072.77  E(vib)   ...       0.00 
freq.    3648.68  E(vib)   ...       0.00 

------------
INNER ENERGY
------------

The inner energy is: U= E(el) + E(ZPE) + E(vib) + E(rot) + E(trans)
    E(el)   - is the total energy from the electronic structure calculation
              = E(kin-el) + E(nuc-el) + E(el-el) + E(nuc-nuc)
    E(ZPE)  - the the zero temperature vibrational energy from the frequency calculation
    E(vib)  - the the finite temperature correction to E(ZPE) due to population
              of excited vibrational states
    E(rot)  - is the rotational thermal energy
    E(trans)- is the translational thermal energy

Summary of contributions to the inner energy U:
Electronic energy                ...   -233.21273477 Eh
Zero point energy                ...      0.13057648 Eh      81.94 kcal/mol
Thermal vibrational correction   ...      0.00402093 Eh       2.52 kcal/mol
Thermal rotational correction    ...      0.00141627 Eh       0.89 kcal/mol
Thermal translational correction ...      0.00141627 Eh       0.89 kcal/mol
-----------------------------------------------------------------------
Total thermal energy                   -233.07530481 Eh


Summary of corrections to the electronic energy:
(perhaps to be used in another calculation)
Total thermal correction                  0.00685348 Eh       4.30 kcal/mol
Non-thermal (ZPE) correction              0.13057648 Eh      81.94 kcal/mol
-----------------------------------------------------------------------
Total correction                          0.13742996 Eh      86.24 kcal/mol


--------
ENTHALPY
--------

The enthalpy is H = U + kB*T
                kB is Boltzmann's constant
Total thermal energy              ...   -233.07530481 Eh 
Thermal Enthalpy correction       ...      0.00094421 Eh       0.59 kcal/mol
-----------------------------------------------------------------------
Total Enthalpy                    ...   -233.07436060 Eh


Note: Only C1 symmetry has been detected, increase convergence thresholds 
      if your molecule has a higher symmetry. Symmetry factor of 1.0 is   
      used for the rotational entropy correction. 
 

Note: Rotational entropy computed according to Herzberg 
Infrared and Raman Spectra, Chapter V,1, Van Nostrand Reinhold, 1945 
Point Group:  C1, Symmetry Number:   1  
Rotational constants in cm-1:     0.154770     0.153672     0.148647 

Vibrational entropy computed according to the QRRHO of S. Grimme
Chem.Eur.J. 2012 18 9955 using a reference frequency of 100.0 cm-1


-------
ENTROPY
-------

The entropy contributions are T*S = T*(S(el)+S(vib)+S(rot)+S(trans))
     S(el)   - electronic entropy
     S(vib)  - vibrational entropy
     S(rot)  - rotational entropy
     S(trans)- translational entropy
The entropies will be listed as multiplied by the temperature to get
units of energy

Electronic entropy                ...      0.00000000 Eh      0.00 kcal/mol
Vibrational entropy               ...      0.00623746 Eh      3.91 kcal/mol
Rotational entropy                ...      0.01217573 Eh      7.64 kcal/mol
Translational entropy             ...      0.01844715 Eh     11.58 kcal/mol
-----------------------------------------------------------------------
Final entropy term                ...      0.03686033 Eh     23.13 kcal/mol

In case the symmetry of your molecule has not been determined correctly
or in case you have a reason to use a different symmetry number we print 
out the resulting rotational entropy values for sn=1,12:

 non-linear molecules -----------------------------------
|  sn= 1 | S(rot)=       0.01217573 Eh      7.64 kcal/mol|
|  sn= 2 | S(rot)=       0.01152127 Eh      7.23 kcal/mol|
|  sn= 3 | S(rot)=       0.01113844 Eh      6.99 kcal/mol|
|  sn= 4 | S(rot)=       0.01086681 Eh      6.82 kcal/mol|
|  sn= 5 | S(rot)=       0.01065613 Eh      6.69 kcal/mol|
|  sn= 6 | S(rot)=       0.01048398 Eh      6.58 kcal/mol|
|  sn= 7 | S(rot)=       0.01033844 Eh      6.49 kcal/mol|
|  sn= 8 | S(rot)=       0.01021236 Eh      6.41 kcal/mol|
|  sn= 9 | S(rot)=       0.01010115 Eh      6.34 kcal/mol|
|  sn=10 | S(rot)=       0.01000167 Eh      6.28 kcal/mol|
|  sn=11 | S(rot)=       0.00991168 Eh      6.22 kcal/mol|
|  sn=12 | S(rot)=       0.00982953 Eh      6.17 kcal/mol|
 linear molecules ---------------------------------------
|  Dinfh | S(rot)=       0.00712558 Eh      4.47 kcal/mol|
|  Cinfv | S(rot)=       0.00778004 Eh      4.88 kcal/mol|
 --------------------------------------------------------


-------------------
GIBBS FREE ENERGY
-------------------

The Gibbs free energy is G = H - T*S

Total enthalpy                    ...   -233.07436060 Eh 
Total entropy correction          ...     -0.03686033 Eh    -23.13 kcal/mol
-----------------------------------------------------------------------
Final Gibbs free energy         ...   -233.11122093 Eh

For completeness - the Gibbs free energy minus the electronic energy
G-E(el)                           ...      0.10151384 Eh     63.70 kcal/mol


Maximum memory used throughout the entire PROP-calculation: 29.8 MB

--------------------------------
SUGGESTED CITATIONS FOR THIS RUN
--------------------------------

Below you find a list of papers that are relevant to this ORCA run
We neither can nor want to force you to cite these papers, but we appreciate if you do
You receive ORCA, which is the product of decades of hard work by many enthusiastic individuals, for free
The only thing we kindly ask in return is that you cite our papers,
We deeply appreciate it, if you show your appreciation for ORCA by not just citing the generic ORCA reference.

Please note that relegating all ORCA citations to the supporting information does *not* help us.
SI sections are not indexed - citations you put there will not count into any citation statistics
But we need these citations in order to attract the funding resources that allow us to do what we are doing

Therefore, if you are a happy ORCA user, please consider citing a few of the papers listed below in the main body of your paper

In addition to the list printed below, the program has created the file job.bibtex that contains the list in bibtex format
You can import this file easily into all common literature databanks and citation aid programs


List of essential papers. We consider these as the minimum necessary citations

  1. Neese,F.
     Software update: the ORCA program system, version 5.0
     WIRES Comput. Molec. Sci., 2022 12(1)e1606
     doi.org/10.1002/wcms.1606

List of papers to cite with high priority. The work reported in these papers was absolutely
necessary for this run to complete.
Our perspective: the developers of density functionals and basis sets usually get cited in chemistry papers
Good! But without the algorithms to do something with them, the functionals or basis sets would not do anything.
Hence, in our opinion, the algorithm design and method developments papers are equally worthy of getting cited

  1. Neese,F.
     An improvement of the resolution of the identity approximation for the formation of the Coulomb matrix
     J. Comp. Chem., 2003 24(14)1740-1747
     doi.org/10.1002/jcc.10318
  2. Bykov,D.; Petrenko,T.; Izsak,R.; Kossmann,S.; Becker,U.; Valeev,E.; Neese,F.
     Efficient implementation of the analytic second derivatives of Hartree-Fock and hybrid DFT energies: a detailed analysis of different approximations
     Molec. Phys., 2015 113 1961-1977
     doi.org/10.1080/00268976.2015.1025114
  3. Garcia-Rates,M.; Neese,F.
     Efficient implementation of the analytical second derivatives of hartree-fock and hybrid DFT energies within the framework of the conductor-like polarizable continuum model
     J. Comput. Chem., 2019 40 1816-1828
     doi.org/10.1002/jcc.25833
  4. Garcia-Rates,M.; Neese,F.
     Effect of the Solute Cavity on the Solvation Energy and its Derivatives within the Framework of the Gaussian Charge Scheme
     J. Comput. Chem., 2020 41 922-939
     doi.org/10.1002/jcc.26139

List of suggested additional citations. These are papers that are important in the 'surrounding' of 
of this run, or papers that preceded the highly important papers. If you like your results we are grateful for a citation.

  1. Neese,F.
     The ORCA program system
     WIRES Comput. Molec. Sci., 2012 2(1)73-78
     doi.org/10.1002/wcms.81
  2. Neese,F.
     Software update: the ORCA program system, version 4.0
     WIRES Comput. Molec. Sci., 2018 8(1)1-6
     doi.org/10.1002/wcms.1327
  3. Neese,F.; Wennmohs,F.; Becker,U.; Riplinger,C.
     The ORCA quantum chemistry program package
     J. Chem. Phys., 2020 152 Art. No. L224108
     doi.org/10.1063/5.0004608

List of optional additional citations

  1. Neese,F.
     Approximate second-order SCF convergence for spin unrestricted wavefunctions
     Chem. Phys. Lett., 2000 325(1-3)93-98
     doi.org/10.1016/s0009-2614(00)00662-x

Timings for individual modules:

Sum of individual times          ...       99.449 sec (=   1.657 min)
Startup calculation              ...        7.426 sec (=   0.124 min)   7.5 %
SCF iterations                   ...       26.022 sec (=   0.434 min)  26.2 %
Property integrals               ...       22.119 sec (=   0.369 min)  22.2 %
SCF Response                     ...       16.875 sec (=   0.281 min)  17.0 %
Property calculations            ...       13.193 sec (=   0.220 min)  13.3 %
SCF Gradient evaluation          ...       13.751 sec (=   0.229 min)  13.8 %
Geometry relaxation              ...        0.063 sec (=   0.001 min)   0.1 %
                             ****ORCA TERMINATED NORMALLY****
TOTAL RUN TIME: 0 days 0 hours 1 minutes 42 seconds 864 msec
