15
Coordinates from ORCA-job job E -233.212734766808
  C          -1.55956015923922     -4.55586247758837      0.33615117570361
  C          -1.15092599094132     -5.29670891412674     -0.94671151934720
  O          -1.21618303311727     -3.15097815464563      0.21240028586947
  C          -0.84197348465828     -5.15104980424761      1.55776605135610
  C          -3.07880939248388     -4.58898209322921      0.52514504494218
  H          -0.24724759460695     -3.09952531137770      0.08435785469401
  H           0.26080585755393     -5.08833086861867      1.43745950474096
  H          -1.10478251832871     -6.22020608387158      1.69656567913110
  H          -1.12089831608242     -4.60342219206037      2.48153610808822
  H          -3.59384587223800     -4.13598152092705     -0.34697126327238
  H          -3.37493946733209     -4.02594025363034      1.43419293051321
  H          -3.43667334814810     -5.63247561701345      0.63386125558421
  H          -1.65096057293169     -4.85260561733133     -1.83204698770794
  H          -1.42674581870027     -6.37034213486966     -0.89538700609322
  H          -0.05246858874573     -5.23851544646227     -1.10353344420234
