       N       E                     dE             d eps       ncg     rms          rms(c)
DAV:   1    -0.817088832616E+03   -0.81709E+03   -0.22678E-06  1824   0.907E-03    0.176E-02
RMM:   2    -0.817089043842E+03   -0.21123E-03   -0.67011E-05  2945   0.149E-02    0.203E-01
RMM:   3    -0.817088833146E+03    0.21070E-03   -0.43262E-05  2931   0.129E-02    0.403E-02
RMM:   4    -0.817088830576E+03    0.25705E-05   -0.52251E-06  2621   0.399E-03    0.687E-03
RMM:   5    -0.817088831387E+03   -0.81102E-06   -0.85324E-07  1571   0.165E-03
   1 F= -.81708883E+03 E0= -.81702714E+03  d E =-.246754E+00  mag=   202.1172
       N       E                     dE             d eps       ncg     rms          rms(c)
DAV:   1    -0.817084515284E+03    0.43153E-02   -0.21980E+00  2944   0.119E+00    0.269E-01
RMM:   2    -0.817088467181E+03   -0.39519E-02   -0.31397E-02  2959   0.187E-01    0.568E-01
RMM:   3    -0.817087465842E+03    0.10013E-02   -0.22179E-03  2959   0.648E-02    0.187E-01
RMM:   4    -0.817089411597E+03   -0.19458E-02   -0.89641E-04  2973   0.476E-02    0.605E-01
RMM:   5    -0.817087608176E+03    0.18034E-02   -0.58129E-04  2972   0.448E-02    0.226E-01
RMM:   6    -0.817088192360E+03   -0.58418E-03   -0.10954E-03  2949   0.585E-02    0.448E-01
RMM:   7    -0.817087608631E+03    0.58373E-03   -0.58173E-04  2959   0.472E-02    0.238E-01
RMM:   8    -0.817087415099E+03    0.19353E-03   -0.17276E-04  2959   0.247E-02    0.683E-02
RMM:   9    -0.817087461149E+03   -0.46050E-04   -0.64332E-05  2955   0.143E-02    0.117E-01
RMM:  10    -0.817087410431E+03    0.50718E-04   -0.32195E-05  2939   0.114E-02    0.239E-02
RMM:  11    -0.817087411192E+03   -0.76013E-06   -0.54954E-06  2636   0.412E-03
   2 F= -.81708741E+03 E0= -.81702585E+03  d E =-.246241E+00  mag=   202.1159
       N       E                     dE             d eps       ncg     rms          rms(c)
DAV:   1    -0.817074479193E+03    0.12931E-01   -0.87678E+00  2944   0.238E+00    0.532E-01
RMM:   2    -0.817092014034E+03   -0.17535E-01   -0.13954E-01  2959   0.392E-01    0.117E+00
RMM:   3    -0.817087716316E+03    0.42977E-02   -0.95821E-03  2958   0.133E-01    0.376E-01
RMM:   4    -0.817095385839E+03   -0.76695E-02   -0.37522E-03  2978   0.962E-02    0.121E+00
RMM:   5    -0.817088264337E+03    0.71215E-02   -0.22265E-03  2978   0.877E-02    0.454E-01
RMM:   6    -0.817090667382E+03   -0.24030E-02   -0.44531E-03  2946   0.118E-01    0.895E-01
RMM:   7    -0.817088459383E+03    0.22080E-02   -0.24599E-03  2956   0.961E-02    0.511E-01
RMM:   8    -0.817087498560E+03    0.96082E-03   -0.81038E-04  2963   0.536E-02    0.140E-01
RMM:   9    -0.817087720446E+03   -0.22189E-03   -0.29087E-04  2962   0.303E-02    0.254E-01
RMM:  10    -0.817087473002E+03    0.24744E-03   -0.13812E-04  2960   0.236E-02    0.539E-02
RMM:  11    -0.817087480274E+03   -0.72724E-05   -0.29825E-05  2949   0.968E-03    0.517E-02
RMM:  12    -0.817087476541E+03    0.37335E-05   -0.13126E-05  2924   0.631E-03    0.366E-02
RMM:  13    -0.817087473656E+03    0.28846E-05   -0.77644E-06  2844   0.524E-03    0.234E-02
RMM:  14    -0.817087476640E+03   -0.29839E-05   -0.48356E-06  2470   0.391E-03    0.353E-02
RMM:  15    -0.817087472007E+03    0.46330E-05   -0.28914E-06  1869   0.358E-03    0.103E-02
RMM:  16    -0.817087472842E+03   -0.83432E-06   -0.11877E-06  1568   0.207E-03
   3 F= -.81708747E+03 E0= -.81702562E+03  d E =-.247420E+00  mag=   202.1169
       N       E                     dE             d eps       ncg     rms          rms(c)
DAV:   1    -0.817081009839E+03    0.64622E-02   -0.43928E+00  2944   0.169E+00    0.394E-01
RMM:   2    -0.817089980326E+03   -0.89705E-02   -0.69118E-02  2961   0.271E-01    0.882E-01
RMM:   3    -0.817087553149E+03    0.24272E-02   -0.50688E-03  2960   0.978E-02    0.273E-01
RMM:   4    -0.817094711467E+03   -0.71583E-02   -0.26319E-03  2972   0.825E-02    0.114E+00
RMM:   5    -0.817087637761E+03    0.70737E-02   -0.16311E-03  2968   0.756E-02    0.290E-01
RMM:   6    -0.817088975671E+03   -0.13379E-02   -0.19798E-03  2952   0.792E-02    0.623E-01
RMM:   7    -0.817087986982E+03    0.98869E-03   -0.10605E-03  2960   0.624E-02    0.396E-01
RMM:   8    -0.817087425787E+03    0.56120E-03   -0.47219E-04  2958   0.415E-02    0.978E-02
RMM:   9    -0.817087562329E+03   -0.13654E-03   -0.16447E-04  2957   0.228E-02    0.190E-01
RMM:  10    -0.817087430643E+03    0.13169E-03   -0.75303E-05  2948   0.175E-02    0.421E-02
RMM:  11    -0.817087432313E+03   -0.16696E-05   -0.13789E-05  2938   0.661E-03    0.276E-02
RMM:  12    -0.817087439903E+03   -0.75899E-05   -0.62268E-06  2688   0.426E-03    0.311E-02
RMM:  13    -0.817087438735E+03    0.11684E-05   -0.43830E-06  2432   0.413E-03    0.150E-02
RMM:  14    -0.817087444075E+03   -0.53401E-05   -0.23831E-06  1728   0.287E-03    0.269E-02
RMM:  15    -0.817087442958E+03    0.11167E-05   -0.16187E-06  1621   0.284E-03    0.811E-03
RMM:  16    -0.817087443985E+03   -0.10270E-05   -0.61026E-07  1549   0.151E-03    0.987E-03
RMM:  17    -0.817087444972E+03   -0.98741E-06   -0.31685E-07  1557   0.125E-03
   4 F= -.81708744E+03 E0= -.81702574E+03  d E =-.246832E+00  mag=   202.1288
       N       E                     dE             d eps       ncg     rms          rms(c)
DAV:   1    -0.817073809673E+03    0.13634E-01   -0.87895E+00  2944   0.239E+00    0.573E-01
RMM:   2    -0.817092705374E+03   -0.18896E-01   -0.14590E-01  2959   0.384E-01    0.128E+00
RMM:   3    -0.817087533751E+03    0.51716E-02   -0.10485E-02  2966   0.141E-01    0.368E-01
RMM:   4    -0.817097669383E+03   -0.10136E-01   -0.47459E-03  2973   0.111E-01    0.141E+00
RMM:   5    -0.817088125725E+03    0.95437E-02   -0.28841E-03  2973   0.101E-01    0.454E-01
RMM:   6    -0.817090462443E+03   -0.23367E-02   -0.34417E-03  2955   0.104E-01    0.869E-01
RMM:   7    -0.817088710683E+03    0.17518E-02   -0.19479E-03  2963   0.841E-02    0.632E-01
RMM:   8    -0.817087261328E+03    0.14494E-02   -0.10358E-03  2958   0.620E-02    0.120E-01
RMM:   9    -0.817087502855E+03   -0.24153E-03   -0.33355E-04  2960   0.322E-02    0.246E-01
RMM:  10    -0.817087285250E+03    0.21761E-03   -0.14899E-04  2957   0.244E-02    0.491E-02
RMM:  11    -0.817087298339E+03   -0.13089E-04   -0.27042E-05  2951   0.916E-03    0.516E-02
RMM:  12    -0.817087313719E+03   -0.15380E-04   -0.12836E-05  2930   0.625E-03    0.437E-02
RMM:  13    -0.817087315651E+03   -0.19321E-05   -0.84636E-06  2868   0.551E-03    0.230E-02
RMM:  14    -0.817087332533E+03   -0.16882E-04   -0.54994E-06  2668   0.411E-03    0.391E-02
RMM:  15    -0.817087334632E+03   -0.20985E-05   -0.34875E-06  2117   0.377E-03    0.105E-02
RMM:  16    -0.817087338834E+03   -0.42026E-05   -0.13142E-06  1595   0.216E-03    0.147E-02
RMM:  17    -0.817087343153E+03   -0.43186E-05   -0.74296E-07  1606   0.188E-03    0.569E-03
RMM:  18    -0.817087344695E+03   -0.15425E-05   -0.23560E-07  1551   0.938E-04    0.565E-03
RMM:  19    -0.817087349871E+03   -0.51760E-05   -0.21992E-07  1599   0.823E-04    0.381E-03
RMM:  20    -0.817087351282E+03   -0.14109E-05   -0.12043E-07  1550   0.669E-04    0.382E-03
RMM:  21    -0.817087355510E+03   -0.42280E-05   -0.15530E-07  1601   0.612E-04    0.370E-03
RMM:  22    -0.817087356687E+03   -0.11769E-05   -0.99800E-08  1555   0.603E-04    0.299E-03
RMM:  23    -0.817087359356E+03   -0.26690E-05   -0.16282E-07  1610   0.535E-04    0.262E-03
RMM:  24    -0.817087359631E+03   -0.27468E-06   -0.68947E-08  1536   0.499E-04
   5 F= -.81708736E+03 E0= -.81702568E+03  d E =-.246722E+00  mag=   202.0982
       N       E                     dE             d eps       ncg     rms          rms(c)
DAV:   1    -0.817078704376E+03    0.86550E-02   -0.43622E+00  2944   0.170E+00    0.462E-01
RMM:   2    -0.817089553293E+03   -0.10849E-01   -0.80219E-02  2964   0.290E-01    0.101E+00
RMM:   3    -0.817086239931E+03    0.33134E-02   -0.59343E-03  2963   0.108E-01    0.352E-01
RMM:   4    -0.817100247195E+03   -0.14007E-01   -0.52396E-03  2966   0.122E-01    0.162E+00
RMM:   5    -0.817085655383E+03    0.14592E-01   -0.31999E-03  2967   0.107E-01    0.320E-01
RMM:   6    -0.817086623105E+03   -0.96772E-03   -0.19140E-03  2964   0.780E-02    0.558E-01
RMM:   7    -0.817085924565E+03    0.69854E-03   -0.94856E-04  2967   0.582E-02    0.404E-01
RMM:   8    -0.817085329033E+03    0.59553E-03   -0.52080E-04  2960   0.442E-02    0.115E-01
RMM:   9    -0.817085532515E+03   -0.20348E-03   -0.20217E-04  2959   0.253E-02    0.221E-01
RMM:  10    -0.817085401115E+03    0.13140E-03   -0.91210E-05  2953   0.192E-02    0.505E-02
RMM:  11    -0.817085422738E+03   -0.21623E-04   -0.20582E-05  2955   0.811E-03    0.381E-02
RMM:  12    -0.817085527767E+03   -0.10503E-03   -0.12370E-05  2906   0.544E-03    0.404E-02
RMM:  13    -0.817085553314E+03   -0.25547E-04   -0.67407E-06  2732   0.479E-03    0.205E-02
RMM:  14    -0.817085607780E+03   -0.54466E-04   -0.50868E-06  2471   0.373E-03    0.353E-02
RMM:  15    -0.817085665611E+03   -0.57831E-04   -0.45699E-06  2146   0.366E-03    0.143E-02
RMM:  16    -0.817085688977E+03   -0.23366E-04   -0.15497E-06  1652   0.222E-03    0.160E-02
RMM:  17    -0.817085758133E+03   -0.69157E-04   -0.24352E-06  1781   0.218E-03    0.980E-03
RMM:  18    -0.817085784076E+03   -0.25943E-04   -0.11215E-06  1653   0.178E-03    0.107E-02
RMM:  19    -0.817085868641E+03   -0.84565E-04   -0.39593E-06  1911   0.191E-03    0.885E-03
RMM:  20    -0.817085895166E+03   -0.26525E-04   -0.14445E-06  1684   0.176E-03    0.113E-02
RMM:  21    -0.817085949031E+03   -0.53866E-04   -0.37866E-06  1895   0.192E-03    0.771E-03
RMM:  22    -0.817085960131E+03   -0.11100E-04   -0.85074E-07  1654   0.141E-03    0.631E-03
RMM:  23    -0.817085981415E+03   -0.21284E-04   -0.12125E-06  1700   0.117E-03    0.381E-03
RMM:  24    -0.817085984858E+03   -0.34427E-05   -0.24719E-07  1598   0.840E-04    0.255E-03
RMM:  25    -0.817085993418E+03   -0.85598E-05   -0.26458E-07  1615   0.584E-04    0.253E-03
RMM:  26    -0.817085995304E+03   -0.18862E-05   -0.78163E-08  1516   0.488E-04    0.125E-03
RMM:  27    -0.817085999402E+03   -0.40982E-05   -0.88245E-08  1213   0.325E-04    0.130E-03
RMM:  28    -0.817086000264E+03   -0.86131E-06   -0.21404E-08   961   0.285E-04
   6 F= -.81708600E+03 E0= -.81702423E+03  d E =-.247095E+00  mag=   202.1806
       N       E                     dE             d eps       ncg     rms          rms(c)
DAV:   1    -0.817072297741E+03    0.13702E-01   -0.87903E+00  2944   0.248E+00    0.669E-01
RMM:   2    -0.817089546457E+03   -0.17249E-01   -0.15134E-01  2965   0.382E-01    0.101E+00
RMM:   3    -0.817089212896E+03    0.33356E-03   -0.10425E-02  2965   0.142E-01    0.838E-01
RMM:   4    -0.817106353983E+03   -0.17141E-01   -0.10658E-02  2970   0.176E-01    0.201E+00
RMM:   5    -0.817085983150E+03    0.20371E-01   -0.82427E-03  2970   0.171E-01    0.531E-01
RMM:   6    -0.817088230559E+03   -0.22474E-02   -0.49648E-03  2962   0.125E-01    0.896E-01
RMM:   7    -0.817085353847E+03    0.28767E-02   -0.23225E-03  2962   0.938E-02    0.354E-01
RMM:   8    -0.817085093613E+03    0.26023E-03   -0.76194E-04  2968   0.511E-02    0.259E-01
RMM:   9    -0.817085095457E+03   -0.18442E-05   -0.33470E-04  2962   0.327E-02    0.263E-01
RMM:  10    -0.817084854773E+03    0.24068E-03   -0.16702E-04  2962   0.252E-02    0.750E-02
RMM:  11    -0.817084949039E+03   -0.94266E-04   -0.65232E-05  2958   0.142E-02    0.110E-01
RMM:  12    -0.817084967221E+03   -0.18182E-04   -0.33172E-05  2944   0.110E-02    0.358E-02
RMM:  13    -0.817085028949E+03   -0.61728E-04   -0.17405E-05  2944   0.730E-03    0.498E-02
RMM:  14    -0.817085152266E+03   -0.12332E-03   -0.12886E-05  2893   0.576E-03    0.263E-02
RMM:  15    -0.817085198889E+03   -0.46623E-04   -0.49537E-06  2504   0.396E-03    0.246E-02
RMM:  16    -0.817085361458E+03   -0.16257E-03   -0.53217E-06  2228   0.330E-03    0.241E-02
RMM:  17    -0.817085409110E+03   -0.47651E-04   -0.21937E-06  1774   0.282E-03    0.148E-02
RMM:  18    -0.817085555425E+03   -0.14632E-03   -0.47131E-06  2206   0.306E-03    0.276E-02
RMM:  19    -0.817085702962E+03   -0.14754E-03   -0.61498E-06  2341   0.339E-03    0.108E-02
RMM:  20    -0.817085797987E+03   -0.95025E-04   -0.41776E-06  2093   0.274E-03    0.205E-02
RMM:  21    -0.817085923025E+03   -0.12504E-03   -0.77906E-06  2310   0.307E-03    0.829E-03
RMM:  22    -0.817085951511E+03   -0.28486E-04   -0.15562E-06  1761   0.177E-03    0.103E-02
RMM:  23    -0.817086002724E+03   -0.51214E-04   -0.25792E-06  1902   0.177E-03    0.445E-03
RMM:  24    -0.817086013232E+03   -0.10508E-04   -0.53192E-07  1645   0.112E-03    0.508E-03
RMM:  25    -0.817086034312E+03   -0.21080E-04   -0.78700E-07  1715   0.990E-04    0.273E-03
RMM:  26    -0.817086038107E+03   -0.37955E-05   -0.17855E-07  1607   0.672E-04    0.264E-03
RMM:  27    -0.817086045917E+03   -0.78098E-05   -0.23655E-07  1623   0.531E-04    0.158E-03
RMM:  28    -0.817086047730E+03   -0.18131E-05   -0.64025E-08  1457   0.402E-04    0.152E-03
RMM:  29    -0.817086051957E+03   -0.42272E-05   -0.13106E-07  1362   0.354E-04    0.115E-03
RMM:  30    -0.817086052977E+03   -0.10193E-05   -0.31919E-08  1063   0.296E-04    0.107E-03
RMM:  31    -0.817086055417E+03   -0.24405E-05   -0.96973E-08  1070   0.299E-04    0.864E-04
RMM:  32    -0.817086055856E+03   -0.43870E-06   -0.15185E-08   637   0.243E-04
   7 F= -.81708606E+03 E0= -.81702445E+03  d E =-.246442E+00  mag=   202.0495
