 vasp.5.2.12 11Nov11 complex                                                    
  
 executed on          MareNostrum date 2019.02.25  22:20:38
 running on   32 nodes
 distr:  one band on    1 nodes,   32 groups


--------------------------------------------------------------------------------------------------------


 INCAR:
 POTCAR:    PAW_PBE Co 02Aug2007                  
 POTCAR:    PAW_PBE O 08Apr2002                   

 ----------------------------------------------------------------------------- 
|                                                                             |
|           W    W    AA    RRRRR   N    N  II  N    N   GGGG   !!!           |
|           W    W   A  A   R    R  NN   N  II  NN   N  G    G  !!!           |
|           W    W  A    A  R    R  N N  N  II  N N  N  G       !!!           |
|           W WW W  AAAAAA  RRRRR   N  N N  II  N  N N  G  GGG   !            |
|           WW  WW  A    A  R   R   N   NN  II  N   NN  G    G                |
|           W    W  A    A  R    R  N    N  II  N    N   GGGG   !!!           |
|                                                                             |
|      For optimal performance we recommend that you set                      |
|        NPAR = approx SQRT( number of cores)                                 |
|      This will greatly improve the performance of VASP for DFT.             |
|      The default NPAR=number of cores might be grossly inefficient          |
|      on modern multi-core architectures or massively parallel machines.     |
|      Unfortunately you need to use the default for hybrid, GW and RPA       |
|      calculations.                                                          |
|                                                                             |
 ----------------------------------------------------------------------------- 

 POTCAR:    PAW_PBE Co 02Aug2007                  
   VRHFIN =Co: d8 s1                                                            
   LEXCH  = PE                                                                  
   EATOM  =   813.3670 eV,   59.7808 Ry                                         
                                                                                
   TITEL  = PAW_PBE Co 02Aug2007                                                
   LULTRA =        F    use ultrasoft PP ?                                      
   IUNSCR =        1    unscreen: 0-lin 1-nonlin 2-no                           
   RPACOR =    2.000    partial core radius                                     
   POMASS =   58.933; ZVAL   =    9.000    mass and valenz                      
   RCORE  =    2.300    outmost cutoff radius                                   
   RWIGS  =    2.460; RWIGS  =    1.302    wigner-seitz radius (au A)           
   ENMAX  =  267.968; ENMIN  =  200.976 eV                                      
   RCLOC  =    1.203    cutoff for local pot                                    
   LCOR   =        T    correct aug charges                                     
   LPAW   =        T    paw PP                                                  
   EAUG   =  477.818                                                            
   DEXC   =    0.000                                                            
   RMAX   =    2.360    core radius for proj-oper                               
   RAUG   =    1.300    factor for augmentation sphere                          
   RDEP   =    2.393    radius for radial grids                                 
   RDEPT  =    1.864    core radius for aug-charge                              
                                                                                
   Atomic configuration                                                         
    9 entries                                                                   
     n  l   j            E        occ.                                          
     1  0  0.50     -7587.6674   2.0000                                         
     2  0  0.50      -893.6084   2.0000                                         
     2  1  1.50      -764.5805   6.0000                                         
     3  0  0.50       -97.5973   2.0000                                         
     3  1  1.50       -60.9648   6.0000                                         
     3  2  2.50        -4.2382   8.0000                                         
     4  0  0.50        -4.3746   1.0000                                         
     4  1  1.50        -4.0817   0.0000                                         
     4  3  2.50        -1.3606   0.0000                                         
   Description                                                                  
     l       E           TYP  RCUT    TYP  RCUT                                 
     2     -4.2382362     23  2.300                                             
     2     -5.5988188     23  2.300                                             
     0     -4.3745797     23  2.300                                             
     0      5.7660125     23  2.300                                             
     1     -2.7211652     23  2.300                                             
     1     16.9860234     23  2.300                                             
  local pseudopotential read in
  partial core-charges read in
  partial kinetic energy density read in
  atomic valenz-charges read in
  non local Contribution for L=           2  read in
    real space projection operators read in
  non local Contribution for L=           2  read in
    real space projection operators read in
  non local Contribution for L=           0  read in
    real space projection operators read in
  non local Contribution for L=           0  read in
    real space projection operators read in
  non local Contribution for L=           1  read in
    real space projection operators read in
  non local Contribution for L=           1  read in
    real space projection operators read in
    PAW grid and wavefunctions read in
 
   number of l-projection  operators is LMAX  =           6
   number of lm-projection operators is LMMAX =          18
 
 POTCAR:    PAW_PBE O 08Apr2002                   
   VRHFIN =O: s2p4                                                              
   LEXCH  = PE                                                                  
   EATOM  =   432.3788 eV,   31.7789 Ry                                         
                                                                                
   TITEL  = PAW_PBE O 08Apr2002                                                 
   LULTRA =        F    use ultrasoft PP ?                                      
   IUNSCR =        1    unscreen: 0-lin 1-nonlin 2-no                           
   RPACOR =    1.200    partial core radius                                     
   POMASS =   16.000; ZVAL   =    6.000    mass and valenz                      
   RCORE  =    1.520    outmost cutoff radius                                   
   RWIGS  =    1.550; RWIGS  =    0.820    wigner-seitz radius (au A)           
   ENMAX  =  400.000; ENMIN  =  300.000 eV                                      
   ICORE  =        2    local potential                                         
   LCOR   =        T    correct aug charges                                     
   LPAW   =        T    paw PP                                                  
   EAUG   =  605.392                                                            
   DEXC   =    0.000                                                            
   RMAX   =    1.553    core radius for proj-oper                               
   RAUG   =    1.300    factor for augmentation sphere                          
   RDEP   =    1.550    radius for radial grids                                 
   RDEPT  =    1.329    core radius for aug-charge                              
                                                                                
   Atomic configuration                                                         
    4 entries                                                                   
     n  l   j            E        occ.                                          
     1  0  0.50      -514.6923   2.0000                                         
     2  0  0.50       -23.9615   2.0000                                         
     2  1  0.50        -9.0305   4.0000                                         
     3  2  1.50        -9.5241   0.0000                                         
   Description                                                                  
     l       E           TYP  RCUT    TYP  RCUT                                 
     0    -23.9615318     23  1.200                                             
     0     -9.5240782     23  1.200                                             
     1     -9.0304911     23  1.520                                             
     1      8.1634956     23  1.520                                             
     2     -9.5240782      7  1.500                                             
  local pseudopotential read in
  partial core-charges read in
  partial kinetic energy density read in
  kinetic energy density of atom read in
  atomic valenz-charges read in
  non local Contribution for L=           0  read in
    real space projection operators read in
  non local Contribution for L=           0  read in
    real space projection operators read in
  non local Contribution for L=           1  read in
    real space projection operators read in
  non local Contribution for L=           1  read in
    real space projection operators read in
    PAW grid and wavefunctions read in
 
   number of l-projection  operators is LMAX  =           4
   number of lm-projection operators is LMMAX =           8
 
 Optimization of the real space projectors (new method)

 maximal supplied QI-value         = 16.25
 optimisation between [QCUT,QGAM] = [ 10.73, 21.61] = [ 32.22,130.83] Ry 
 Optimized for a Real-space Cutoff    1.34 Angstroem

   l    n(q)    QCUT    max X(q) W(low)/X(q) W(high)/X(q)  e(spline) 
   2      8    10.726    65.824    0.48E-03    0.41E-03    0.10E-06
   2      8    10.726    61.429    0.49E-03    0.41E-03    0.10E-06
   0      9    10.726    56.174    0.31E-03    0.30E-03    0.94E-07
   0      9    10.726    31.263    0.28E-03    0.27E-03    0.85E-07
   1      8    10.726    19.828    0.31E-03    0.38E-04    0.16E-06
   1      8    10.726    15.139    0.27E-03    0.26E-04    0.13E-06
 Optimization of the real space projectors (new method)

 maximal supplied QI-value         = 24.76
 optimisation between [QCUT,QGAM] = [ 10.64, 21.54] = [ 31.73,129.89] Ry 
 Optimized for a Real-space Cutoff    1.23 Angstroem

   l    n(q)    QCUT    max X(q) W(low)/X(q) W(high)/X(q)  e(spline) 
   0      8    10.645    20.381    0.38E-03    0.60E-03    0.15E-06
   0      8    10.645    15.268    0.40E-03    0.65E-03    0.17E-06
   1      7    10.645     5.964    0.30E-03    0.63E-03    0.18E-06
   1      7    10.645     5.382    0.24E-03    0.53E-03    0.16E-06
  PAW_PBE Co 02Aug2007                  :
 energy of atom  1       EATOM= -813.3670
 kinetic energy error for atom=    0.0036 (will be added to EATOM!!)
  PAW_PBE O 08Apr2002                   :
 energy of atom  2       EATOM= -432.3788
 kinetic energy error for atom=    0.0389 (will be added to EATOM!!)
 
 
 POSCAR:    Co     O                             
  positions in direct lattice
  No initial velocities read in
 exchange correlation table for  LEXCH =        8
   RHO(1)=    0.500       N(1)  =     2000
   RHO(2)=  100.500       N(2)  =     4000

 VTST: version 2.04b, (10/26/11)

 CHAIN: initializing optimizer
 
 OPT: Using VASP Dynamics algorithm
 CHAIN: Read ICHAIN            0
 
 POSCAR:    Co     O                             
  positions in direct lattice
  No initial velocities read in
 


--------------------------------------------------------------------------------------------------------


 ion  position               nearest neighbor table
   1  0.167  0.056  0.000-   5 2.49   6 2.49   4 2.49   2 2.49  24 2.49  21 2.49  30 2.49  25 2.49
                            26 2.49
   2  0.417  0.056  0.000-   6 2.49   7 2.49   3 2.49   1 2.49  21 2.49  22 2.49  31 2.49  26 2.49
                            27 2.49
   3  0.667  0.056  0.000-   7 2.49   8 2.49   2 2.49   4 2.49  22 2.49  23 2.49  32 2.49  27 2.49
                            28 2.49
   4  0.917  0.056  0.000-   8 2.49   5 2.49   1 2.49   3 2.49  23 2.49  24 2.49  29 2.49  28 2.49
                            25 2.49
   5  0.167  0.222  0.000-   1 2.49   4 2.49   6 2.49  30 2.49   8 2.49  10 2.49   9 2.49  34 2.49
                            29 2.49
   6  0.417  0.222  0.000-   2 2.49   1 2.49   5 2.49  31 2.49   7 2.49  11 2.49  10 2.49  35 2.49
                            30 2.49
   7  0.667  0.222  0.000-   3 2.49   2 2.49  32 2.49   8 2.49   6 2.49  12 2.49  11 2.49  36 2.49
                            31 2.49
   8  0.917  0.222  0.000-   4 2.49   3 2.49   7 2.49  29 2.49   5 2.49   9 2.49  12 2.49  33 2.49
                            32 2.49
   9  0.167  0.389  0.000-  12 2.49  10 2.49   8 2.49  14 2.49   5 2.49  38 2.49  13 2.49  34 2.49
                            33 2.49
  10  0.417  0.389  0.000-  11 2.49   9 2.49   5 2.49  15 2.49   6 2.49  39 2.49  14 2.49  35 2.49
                            34 2.49
  11  0.667  0.389  0.000-  10 2.49  12 2.49   6 2.49  16 2.49   7 2.49  40 2.49  15 2.49  35 2.49
                            36 2.49
  12  0.917  0.389  0.000-   9 2.49  11 2.49   7 2.49  13 2.49   8 2.49  37 2.49  16 2.49  33 2.49
                            36 2.49
  13  0.167  0.556  0.000-  17 2.49  18 2.49  14 2.49  16 2.49  12 2.49   9 2.49  42 2.49  37 2.49
                            38 2.49
  14  0.417  0.556  0.000-  18 2.49  19 2.49  13 2.49  15 2.49   9 2.49  43 2.49  10 2.49  39 2.49
                            38 2.49
  15  0.667  0.556  0.000-  19 2.49  20 2.49  16 2.49  14 2.49  10 2.49  44 2.49  11 2.49  40 2.49
                            39 2.49
  16  0.917  0.556  0.000-  20 2.49  17 2.49  15 2.49  13 2.49  11 2.49  41 2.49  12 2.49  40 2.49
                            37 2.49
  17  0.167  0.722  0.000-  13 2.49  16 2.49  18 2.49  42 2.49  20 2.49  22 2.49  46 2.49  21 2.49
                            41 2.49
  18  0.417  0.722  0.000-  14 2.49  13 2.49  17 2.49  43 2.49  19 2.49  23 2.49  47 2.49  22 2.49
                            42 2.49
  19  0.667  0.722  0.000-  15 2.49  14 2.49  44 2.49  18 2.49  20 2.49  24 2.49  48 2.49  23 2.49
                            43 2.49
  20  0.917  0.722  0.000-  16 2.49  15 2.49  41 2.49  17 2.49  19 2.49  21 2.49  45 2.49  24 2.49
                            44 2.49
  21  0.167  0.889  0.000-  22 2.49  24 2.49   2 2.49  20 2.49   1 2.49  26 2.49  17 2.49  46 2.49
                            45 2.49
  22  0.417  0.889  0.000-  21 2.49  23 2.49   3 2.49  17 2.49   2 2.49  27 2.49  18 2.49  46 2.49
                            47 2.49
  23  0.667  0.889  0.000-  24 2.49  22 2.49   4 2.49  18 2.49   3 2.49  28 2.49  19 2.49  48 2.49
                            47 2.49
  24  0.917  0.889  0.000-  21 2.49  23 2.49   1 2.49  19 2.49   4 2.49  20 2.49  25 2.49  48 2.49
                            45 2.49
  25  0.000  0.000  0.088-  49 2.49  69 2.49  72 2.49  28 2.49  26 2.49  30 2.49  48 2.49  29 2.49
                            24 2.49  45 2.49   4 2.49   1 2.49
  26  0.250  0.000  0.088-  50 2.49  70 2.49  69 2.49  27 2.49  25 2.49  31 2.49  45 2.49  46 2.49
                            30 2.49  21 2.49   2 2.49   1 2.49
  27  0.500  0.000  0.088-  51 2.49  71 2.49  70 2.49  26 2.49  28 2.49  32 2.49  46 2.49  31 2.49
                            47 2.49  22 2.49   3 2.49   2 2.49
  28  0.750  0.000  0.088-  52 2.49  72 2.49  71 2.49  25 2.49  27 2.49  29 2.49  47 2.49  32 2.49
                            48 2.49  23 2.49   4 2.49   3 2.49
  29  0.000  0.167  0.088-  53 2.49  52 2.49  33 2.49  49 2.49  34 2.49   8 2.49  30 2.49  32 2.49
                            28 2.49  25 2.49   4 2.49   5 2.49
  30  0.250  0.167  0.088-  54 2.49  49 2.49  50 2.49  34 2.49  35 2.49   5 2.49  29 2.49  31 2.49
                            25 2.49  26 2.49   1 2.49   6 2.49
  31  0.500  0.167  0.088-  55 2.49  51 2.49  35 2.49  50 2.49  36 2.49  32 2.49   6 2.49  30 2.49
                            26 2.49  27 2.49   2 2.49   7 2.49
  32  0.750  0.167  0.088-  56 2.49  51 2.49  52 2.49  36 2.49  33 2.49   7 2.49  31 2.49  29 2.49
                            27 2.49  28 2.49   3 2.49   8 2.49
  33  0.000  0.333  0.088-  53 2.49  57 2.49  56 2.49  29 2.49  32 2.49  34 2.49  36 2.49  38 2.49
                            37 2.49   8 2.49  12 2.49   9 2.49
  34  0.250  0.333  0.088-  54 2.49  58 2.49  53 2.49  30 2.49  29 2.49  33 2.49  35 2.49  39 2.49
                            38 2.49   5 2.49   9 2.49  10 2.49
  35  0.500  0.333  0.088-  55 2.49  59 2.49  31 2.49  54 2.49  30 2.49  36 2.49  34 2.49  40 2.49
                            39 2.49   6 2.49  11 2.49  10 2.49
  36  0.750  0.333  0.088-  56 2.49  60 2.49  32 2.49  55 2.49  31 2.49  35 2.49  33 2.49  37 2.49
                            40 2.49   7 2.49  11 2.49  12 2.49
  37  0.000  0.500  0.088-  61 2.49  57 2.49  60 2.49  38 2.49  40 2.49  36 2.49  42 2.49  33 2.49
                            12 2.49  41 2.49  13 2.49  16 2.49
  38  0.250  0.500  0.088-  62 2.49  57 2.49  58 2.49  37 2.49  39 2.49  33 2.49  43 2.49  34 2.49
                            42 2.49   9 2.49  13 2.49  14 2.49
  39  0.500  0.500  0.088-  63 2.49  58 2.49  59 2.49  38 2.49  40 2.49  34 2.49  44 2.49  35 2.49
                            43 2.49  10 2.49  14 2.49  15 2.49
  40  0.750  0.500  0.088-  64 2.49  60 2.49  59 2.49  37 2.49  39 2.49  35 2.49  41 2.49  36 2.49
                            44 2.49  11 2.49  16 2.49  15 2.49
  41  0.000  0.667  0.088-  65 2.49  45 2.49  61 2.49  64 2.49  46 2.49  20 2.49  44 2.49  42 2.49
                            40 2.49  37 2.49  16 2.49  17 2.49
  42  0.250  0.667  0.088-  66 2.49  46 2.49  62 2.49  61 2.49  47 2.49  43 2.49  17 2.49  41 2.49
                            37 2.49  38 2.49  13 2.49  18 2.49
  43  0.500  0.667  0.088-  67 2.49  47 2.49  62 2.49  63 2.49  48 2.49  42 2.49  18 2.49  44 2.49
                            38 2.49  14 2.49  39 2.49  19 2.49
  44  0.750  0.667  0.088-  68 2.49  48 2.49  64 2.49  63 2.49  45 2.49  41 2.49  19 2.49  43 2.49
                            39 2.49  40 2.49  15 2.49  20 2.49
  45  0.000  0.833  0.088-  65 2.49  69 2.49  41 2.49  68 2.49  44 2.49  46 2.49  48 2.49  26 2.49
                            20 2.49  25 2.49  21 2.49  24 2.49
  46  0.250  0.833  0.088-  66 2.49  70 2.49  42 2.49  65 2.49  41 2.49  45 2.49  47 2.49  27 2.49
                            26 2.49  17 2.49  22 2.49  21 2.49
  47  0.500  0.833  0.088-  67 2.49  71 2.49  43 2.49  66 2.49  42 2.49  46 2.49  48 2.49  28 2.49
                            27 2.49  18 2.49  22 2.49  23 2.49
  48  0.750  0.833  0.088-  68 2.49  72 2.49  44 2.49  67 2.49  43 2.49  45 2.49  47 2.49  25 2.49
                            28 2.49  19 2.49  23 2.49  24 2.49
  49  0.083  0.111  0.176-  25 2.49  30 2.49  29 2.49  50 2.49  52 2.49  54 2.49  72 2.49  69 2.49
                            53 2.49  77 2.49  73 2.50  76 2.51
  50  0.333  0.111  0.176-  26 2.49  30 2.49  31 2.49  49 2.49  51 2.49  55 2.49  69 2.49  70 2.49
                            54 2.49  78 2.50  74 2.50  73 2.51
  51  0.583  0.111  0.176-  27 2.49  32 2.49  31 2.49  52 2.49  50 2.49  56 2.49  70 2.49  71 2.49
                            55 2.49  79 2.49  75 2.50  74 2.50
  52  0.833  0.111  0.176-  28 2.49  32 2.49  29 2.49  51 2.49  49 2.49  53 2.49  71 2.49  72 2.49
                            56 2.49  80 2.50  76 2.51  75 2.51
  53  0.083  0.278  0.176-  33 2.49  29 2.49  57 2.49  34 2.49  58 2.49  56 2.49  54 2.49  52 2.49
                            49 2.49  81 2.49  77 2.50  80 2.51
  54  0.333  0.278  0.176-  34 2.49  30 2.49  58 2.49  35 2.49  59 2.49  55 2.49  53 2.49  49 2.49
                            50 2.49  78 2.50  77 2.50  82 2.53
  55  0.583  0.278  0.176-  35 2.49  31 2.49  59 2.49  36 2.49  60 2.49  54 2.49  56 2.49  50 2.49
                            51 2.49  79 2.49  78 2.50  83 2.53
  56  0.833  0.278  0.176-  36 2.49  32 2.49  33 2.49  60 2.49  57 2.49  53 2.49  55 2.49  51 2.49
                            52 2.49  84 2.50  79 2.50  80 2.50
  57  0.083  0.444  0.176-  33 2.49  38 2.49  37 2.49  53 2.49  56 2.49  58 2.49  60 2.49  62 2.49
                            61 2.49  81 2.50  85 2.50  84 2.51
  58  0.333  0.444  0.176-  34 2.49  39 2.49  38 2.49  54 2.49  53 2.49  57 2.49  59 2.49  63 2.49
                            62 2.49  86 2.50  81 2.50  82 2.53
  59  0.583  0.444  0.176-  35 2.49  55 2.49  40 2.49  39 2.49  54 2.49  60 2.49  58 2.49  64 2.49
                            63 2.49  87 2.52  83 2.53  82 2.54
  60  0.833  0.444  0.176-  36 2.49  40 2.49  56 2.49  37 2.49  55 2.49  59 2.49  57 2.49  61 2.49
                            64 2.49  88 2.49  84 2.50  83 2.54
  61  0.083  0.611  0.176-  37 2.49  41 2.49  42 2.49  64 2.49  62 2.49  60 2.49  66 2.49  57 2.49
                            65 2.49  88 2.50  85 2.50  89 2.50
  62  0.333  0.611  0.176-  38 2.49  43 2.49  42 2.49  63 2.49  61 2.49  57 2.49  67 2.49  58 2.49
                            66 2.49  86 2.50  90 2.50  85 2.51
  63  0.583  0.611  0.176-  39 2.49  43 2.49  44 2.49  62 2.49  64 2.49  58 2.49  68 2.49  59 2.49
                            67 2.49  91 2.49  86 2.51  87 2.53
  64  0.833  0.611  0.176-  40 2.49  44 2.49  41 2.49  61 2.49  63 2.49  59 2.49  65 2.49  60 2.49
                            68 2.49  92 2.49  88 2.50  87 2.53
  65  0.083  0.778  0.176-  45 2.49  41 2.49  46 2.49  69 2.49  70 2.49  66 2.49  68 2.49  64 2.49
                            61 2.49  93 2.50  92 2.50  89 2.50
  66  0.333  0.778  0.176-  46 2.49  42 2.49  47 2.49  70 2.49  71 2.49  65 2.49  67 2.49  61 2.49
                            62 2.49  94 2.50  89 2.50  90 2.51
  67  0.583  0.778  0.176-  47 2.49  43 2.49  48 2.49  71 2.49  72 2.49  68 2.49  66 2.49  62 2.49
                            63 2.49  95 2.49  91 2.49  90 2.51
  68  0.833  0.778  0.176-  48 2.49  44 2.49  72 2.49  45 2.49  69 2.49  67 2.49  65 2.49  63 2.49
                            64 2.49  96 2.50  92 2.50  91 2.50
  69  0.083  0.944  0.176-  45 2.49  25 2.49  65 2.49  26 2.49  68 2.49  70 2.49  72 2.49  50 2.49
                            49 2.49  73 2.50  93 2.51  96 2.51
  70  0.333  0.944  0.176-  46 2.49  26 2.49  66 2.49  27 2.49  65 2.49  69 2.49  71 2.49  51 2.49
                            50 2.49  74 2.49  93 2.50  94 2.51
  71  0.583  0.944  0.176-  47 2.49  27 2.49  67 2.49  28 2.49  66 2.49  72 2.49  70 2.49  52 2.49
                            51 2.49  75 2.50  95 2.50  94 2.51
  72  0.833  0.944  0.176-  48 2.49  28 2.49  25 2.49  68 2.49  67 2.49  71 2.49  69 2.49  49 2.49
                            52 2.49  76 2.50  95 2.51  96 2.51
  73  0.165  0.054  0.264- 102 2.43  98 2.43  97 2.44  96 2.49  76 2.49  93 2.49  77 2.49  74 2.49
                            69 2.50  78 2.50  49 2.50  50 2.51
  74  0.416  0.055  0.264- 103 2.43  98 2.44  99 2.44  93 2.49  75 2.49  94 2.49  79 2.49  78 2.49
                            73 2.49  70 2.49  50 2.50  51 2.50
  75  0.666  0.055  0.264- 104 2.43  99 2.43 100 2.44  94 2.48  76 2.49  74 2.49  80 2.49  95 2.49
                            79 2.49  71 2.50  51 2.50  52 2.51
  76  0.915  0.054  0.264- 101 2.43 100 2.44  97 2.44  95 2.49  96 2.49  73 2.49  75 2.49  77 2.49
                            80 2.49  72 2.50  52 2.51  49 2.51
  77  0.165  0.221  0.264- 106 2.42 102 2.44 101 2.45  80 2.49  73 2.49  49 2.49  78 2.49  76 2.49
                            81 2.49  82 2.50  53 2.50  54 2.50
  78  0.416  0.222  0.264- 103 2.43 102 2.44  82 2.49  79 2.49  83 2.49  77 2.49  74 2.49  50 2.50
                            73 2.50  54 2.50 107 2.50  55 2.50
  79  0.666  0.222  0.264- 108 2.42 103 2.44 104 2.45  78 2.49  74 2.49  84 2.49  80 2.49  75 2.49
                            51 2.49  83 2.49  55 2.49  56 2.50
  80  0.916  0.222  0.264- 104 2.43 105 2.43 101 2.44  77 2.49  75 2.49  81 2.49  79 2.49  84 2.49
                            76 2.49  52 2.50  56 2.50  53 2.51
  81  0.166  0.388  0.264- 106 2.43 110 2.43 105 2.43  82 2.49  86 2.49  80 2.49  53 2.49  77 2.49
                            84 2.49  85 2.49  57 2.50  58 2.50
  82  0.416  0.388  0.266- 106 2.43  78 2.49  83 2.49  81 2.49  86 2.49  87 2.49  77 2.50 111 2.50
                           107 2.50  54 2.53  58 2.53  59 2.54
  83  0.666  0.388  0.266- 108 2.43  84 2.49  82 2.49  87 2.49  78 2.49  79 2.49  88 2.49 112 2.50
                           107 2.51  55 2.53  59 2.53  60 2.54
  84  0.916  0.388  0.264- 108 2.42 109 2.43 105 2.43  88 2.49  83 2.49  79 2.49  85 2.49  80 2.49
                            81 2.49  56 2.50  60 2.50  57 2.51
  85  0.166  0.555  0.264- 109 2.43 114 2.43 110 2.44  88 2.48  90 2.48  89 2.49  86 2.49  84 2.49
                            81 2.49  57 2.50  61 2.50  62 2.51
  86  0.416  0.555  0.264- 110 2.43 115 2.43  91 2.48  81 2.49  90 2.49  85 2.49  87 2.49  82 2.49
                            58 2.50  62 2.50  63 2.51 111 2.51
  87  0.666  0.555  0.266- 116 2.44  91 2.49  92 2.49  83 2.49  86 2.49  82 2.49  88 2.49 112 2.50
                           111 2.51  59 2.52  63 2.53  64 2.53
  88  0.916  0.555  0.264- 109 2.43 113 2.44  85 2.48  92 2.48  84 2.49  89 2.49  87 2.49  83 2.49
                            60 2.49 112 2.49  61 2.50  64 2.50
  89  0.166  0.722  0.264- 113 2.43 118 2.44 114 2.44  90 2.48  93 2.48  94 2.49  92 2.49  85 2.49
                            88 2.49  61 2.50  65 2.50  66 2.50
  90  0.415  0.722  0.265- 115 2.43 119 2.44 114 2.44  89 2.48  85 2.48  95 2.49  94 2.49  91 2.49
                            86 2.49  62 2.50  66 2.51  67 2.51
  91  0.665  0.721  0.264- 116 2.42 115 2.44 120 2.45  86 2.48  87 2.49  95 2.49  90 2.49  63 2.49
                            96 2.49  67 2.49  92 2.50  68 2.50
  92  0.916  0.721  0.264- 116 2.42 113 2.43 117 2.45  88 2.48  89 2.49  87 2.49  96 2.49  93 2.49
                            64 2.49  91 2.50  65 2.50  68 2.50
  93  0.166  0.888  0.264- 117 2.43 118 2.44  98 2.44  89 2.48  74 2.49  94 2.49  73 2.49  92 2.49
                            96 2.50  65 2.50  70 2.50  69 2.51
  94  0.416  0.888  0.265-  99 2.43 119 2.43 118 2.44  95 2.48  75 2.48  89 2.49  93 2.49  90 2.49
                            74 2.49  66 2.50  70 2.51  71 2.51
  95  0.665  0.888  0.264- 120 2.43 119 2.44 100 2.44  94 2.48  76 2.49  90 2.49  91 2.49  96 2.49
                            75 2.49  67 2.49  71 2.50  72 2.51
  96  0.915  0.888  0.265- 120 2.43 117 2.43  97 2.44  73 2.49  76 2.49  91 2.49  95 2.49  92 2.49
                            93 2.50  68 2.50  72 2.51  69 2.51
  97  0.999  0.999  0.350-  96 2.44  73 2.44  76 2.44 117 2.48 120 2.48 101 2.48 102 2.49 100 2.49
                            98 2.49
  98  0.250  1.000  0.349-  73 2.43  74 2.44  93 2.44 103 2.48 102 2.48 117 2.48 118 2.49  99 2.49
                            97 2.49
  99  0.500  0.999  0.349-  94 2.43  75 2.43  74 2.44 100 2.48 104 2.48 119 2.48 118 2.49 103 2.49
                            98 2.49
 100  0.748  0.999  0.349-  75 2.44  76 2.44  95 2.44 120 2.47  99 2.48 119 2.48 101 2.48 104 2.48
                            97 2.49
 101  0.998  0.165  0.349-  76 2.43  80 2.44  77 2.45 106 2.46 104 2.48 100 2.48  97 2.48 102 2.49
                           105 2.51
 102  0.248  0.165  0.349-  73 2.43  78 2.44  77 2.44 107 2.46  98 2.48  97 2.49 106 2.49 103 2.49
                           101 2.49
 103  0.499  0.166  0.349-  74 2.43  78 2.43  79 2.44 107 2.47  98 2.48  99 2.49 102 2.49 108 2.49
                           104 2.50
 104  0.749  0.165  0.349-  75 2.43  80 2.43  79 2.45 108 2.46 101 2.48 100 2.48  99 2.48 103 2.50
                           105 2.50
 105  1.000  0.333  0.349-  80 2.43  81 2.43  84 2.43 106 2.45 108 2.45 110 2.48 109 2.48 104 2.50
                           101 2.51
 106  0.244  0.330  0.349-  77 2.42  81 2.43  82 2.43 105 2.45 101 2.46 102 2.49 110 2.49 107 2.52
                           111 2.54
 107  0.496  0.330  0.354- 121 1.86 102 2.46 103 2.47  82 2.50  78 2.50  83 2.51 106 2.52 108 2.54
                           111 2.54 112 2.58
 108  0.751  0.331  0.349-  79 2.42  84 2.42  83 2.43 105 2.45 104 2.46 103 2.49 109 2.49 107 2.54
                           112 2.54
 109  0.999  0.499  0.349-  84 2.43  85 2.43  88 2.43 112 2.45 105 2.48 114 2.48 110 2.49 108 2.49
                           113 2.50
 110  0.249  0.499  0.349-  81 2.43  86 2.43  85 2.44 111 2.47 105 2.48 114 2.49 106 2.49 109 2.49
                           115 2.49
 111  0.498  0.501  0.354- 121 1.88 110 2.47 115 2.47  82 2.50  87 2.51  86 2.51 116 2.54 106 2.54
                           107 2.54 112 2.55
 112  0.755  0.502  0.353- 121 1.87 109 2.45 113 2.45  88 2.49  87 2.50  83 2.50 116 2.53 108 2.54
                           111 2.55 107 2.58
 113  0.000  0.667  0.349-  89 2.43  92 2.43  88 2.44 112 2.45 118 2.48 114 2.48 117 2.49 116 2.49
                           109 2.50
 114  0.249  0.665  0.350-  85 2.43  90 2.44  89 2.44 109 2.48 113 2.48 115 2.49 110 2.49 119 2.50
                           118 2.50
 115  0.499  0.666  0.349-  90 2.43  86 2.43  91 2.44 111 2.47 114 2.49 119 2.49 116 2.49 120 2.49
                           110 2.49
 116  0.752  0.670  0.349-  92 2.42  91 2.42  87 2.44 120 2.45 117 2.46 115 2.49 113 2.49 112 2.53
                           111 2.54
 117  0.001  0.834  0.349-  93 2.43  96 2.43  92 2.45 116 2.46  97 2.48  98 2.48 118 2.48 113 2.49
                           120 2.51
 118  0.250  0.833  0.350-  94 2.44  93 2.44  89 2.44 117 2.48 113 2.48  99 2.49  98 2.49 119 2.49
                           114 2.50
 119  0.499  0.833  0.349-  94 2.43  90 2.44  95 2.44 100 2.48 120 2.48  99 2.48 118 2.49 115 2.49
                           114 2.50
 120  0.749  0.833  0.349-  95 2.43  96 2.43  91 2.45 116 2.45 100 2.47  97 2.48 119 2.48 115 2.49
                           117 2.51
 121  0.585  0.444  0.403- 107 1.86 112 1.87 111 1.88
 
  LATTYP: Found a simple monoclinic cell.
 ALAT       =    17.9486009422
 B/A-ratio  =     1.2886297308
 C/A-ratio  =     1.4411545266
 COS(beta)  =    -0.9607691321
  
  Lattice vectors:
  
 A1 = ( -12.4451508522, -12.9333095551,   0.0000000000)
 A2 = (   0.0000000000,   0.0000000000, -23.1291007996)
 A3 = (  22.4012513161,  12.9333095551,   0.0000000000)
 Subroutine PRICEL returns:
 Original cell was already a primitive cell.
 

Analysis of symmetry for initial positions (statically):

 Routine SETGRP: Setting up the symmetry group for a 
 simple monoclinic supercell.


 Subroutine GETGRP returns: Found  1 space group operations
 (whereof  1 operations were pure point group operations)
 out of a pool of  4 trial point group operations.


The static configuration has the point symmetry C_1 .

Analysis of symmetry for dynamics (positions and initial velocities):

 Subroutine DYNSYM returns: Found  1 space group operations
 (whereof  1 operations were pure point group operations)
 out of a pool of  1 trial space group operations
 (whereof  1 operations were pure point group operations)
 and found also     1 'primitive' translations


The dynamic configuration has the point symmetry C_1 .

Analysis of constrained symmetry for selective dynamics:

 Subroutine DYNSYM returns: Found  1 space group operations
 (whereof  1 operations were pure point group operations)
 out of a pool of  1 trial space group operations
 (whereof  1 operations were pure point group operations)
 and found also     1 'primitive' translations


The constrained configuration has the point symmetry C_1 .

Analysis of magnetic symmetry:

 Subroutine MAGSYM returns: Found  1 space group operations
 (whereof  1 operations were pure point group operations)
 out of a pool of  1 trial space group operations
 (whereof  1 operations were pure point group operations)
 and found also     1 'primitive' translations


The magnetic configuration has the point symmetry C_1 .
 
 
 KPOINTS: k-points                                

Automatic generation of k-mesh.
 
 Subroutine IBZKPT returns following result:
 ===========================================
 
 Found      1 irreducible k-points:
 
 Following reciprocal coordinates:
            Coordinates               Weight
  0.000000  0.000000  0.000000      1.000000
 
 Following cartesian coordinates:
            Coordinates               Weight
  0.000000  0.000000  0.000000      1.000000
 
 
 Subroutine IBZKPT_HF returns following result:
 ==============================================
 
 Found      1 k-points in 1st BZ
 the following      1 k-points will be used (e.g. in the exchange kernel)
 Following reciprocal coordinates:   # in IRBZ
  0.000000  0.000000  0.000000       1 t-inv F


--------------------------------------------------------------------------------------------------------




 Dimension of arrays:
   k-points           NKPTS =      1   k-points in BZ     NKDIM =      1   number of bands    NBANDS=    736
   number of dos      NEDOS =    301   number of ions     NIONS =    121
   non local maximal  LDIM  =      6   non local SUM 2l+1 LMDIM =     18
   total plane-waves  NPLWV = 518400
   max r-space proj   IRMAX =   1806   max aug-charges    IRDMAX=   7064
   dimension x,y,z NGX =    54 NGY =   80 NGZ =  120
   dimension x,y,z NGXF=   108 NGYF=  160 NGZF=  240
   support grid    NGXF=   108 NGYF=  160 NGZF=  240
   ions per type =             120   1
 NGX,Y,Z   is equivalent  to a cutoff of   9.02,  8.91,  8.63 a.u.
 NGXF,Y,Z  is equivalent  to a cutoff of  18.03, 17.81, 17.25 a.u.


 I would recommend the setting:
   dimension x,y,z NGX =    52 NGY =   77 NGZ =  120
 SYSTEM =  unknown system                          
 POSCAR =     Co     O                             

 Startparameter for this run:
   NWRITE =      2    write-flag & timer
   PREC   = normal    normal or accurate (medium, high low for compatibility)
   ISTART =      1    job   : 0-new  1-cont  2-samecut
   ICHARG =      0    charge: 1-file 2-atom 10-const
   ISPIN  =      2    spin polarized calculation?
   LNONCOLLINEAR =      F non collinear calculations
   LSORBIT =      F    spin-orbit coupling
   INIWAV =      1    electr: 0-lowe 1-rand  2-diag
   LASPH  =      F    aspherical Exc in radial PAW
   METAGGA=      F    non-selfconsistent MetaGGA calc.

 Electronic Relaxation 1
   ENCUT  =  450.0 eV  33.07 Ry    5.75 a.u.  17.22 25.83 40.01*2*pi/ulx,y,z
   ENINI  =  450.0     initial cutoff
   ENAUG  =  605.4 eV  augmentation charge cutoff
   NELM   =     60;   NELMIN=  2; NELMDL=  0     # of ELM steps 
   EDIFF  = 0.1E-05   stopping-criterion for ELM
   LREAL  =      T    real-space projection
   NLSPLINE    = F    spline interpolate recip. space projectors
   LCOMPAT=      F    compatible to vasp.4.4
   GGA_COMPAT  = T    GGA compatible to vasp.4.4-vasp.4.6
   LMAXPAW     = -100 max onsite density
   LMAXMIX     =    2 max onsite mixed and CHGCAR
   VOSKOWN=      0    Vosko Wilk Nusair interpolation
   ROPT   =   -0.00050  -0.00050
 Ionic relaxation
   EDIFFG = -.1E-01   stopping-criterion for IOM
   NSW    =   1000    number of steps for IOM
   NBLOCK =      1;   KBLOCK =    500    inner block; outer block 
   IBRION =      5    ionic relax: 0-MD 1-quasi-New 2-CG
   NFREE  =      2    steps in history (QN), initial steepest desc. (CG)
   ISIF   =      2    stress and relaxation
   IWAVPR =     11    prediction:  0-non 1-charg 2-wave 3-comb
   ISYM   =      2    0-nonsym 1-usesym 2-fastsym
   LCORR  =      T    Harris-Foulkes like correction to forces

   POTIM  = 0.0200    time-step for ionic-motion
   TEIN   =    0.0    initial temperature
   TEBEG  =    0.0;   TEEND  =   0.0 temperature during run
   SMASS  =  -3.00    Nose mass-parameter (am)
   estimated Nose-frequenzy (Omega)   =  0.10E-29 period in steps =****** mass=  -0.227E-26a.u.
   SCALEE = 1.0000    scale energy and forces
   NPACO  =    256;   APACO  = 16.0  distance and # of slots for P.C.
   PSTRESS=    0.0 pullay stress

  Mass of Ions in am
   POMASS =  58.93 16.00
  Ionic Valenz
   ZVAL   =   9.00  6.00
  Atomic Wigner-Seitz radii
   RWIGS  =  -1.00 -1.00
  virtual crystal weights 
   VCA    =   1.00  1.00
   NELECT =    1086.0000    total number of electrons
   NUPDOWN=      -1.0000    fix difference up-down

 DOS related values:
   EMIN   =  10.00;   EMAX   =-10.00  energy-range for DOS
   EFERMI =   0.00
   ISMEAR =     2;   SIGMA  =   0.20  broadening in eV -4-tet -1-fermi 0-gaus

 Electronic relaxation 2 (details)
   IALGO  =     68    algorithm
   LDIAG  =      T    sub-space diagonalisation (order eigenvalues)
   LSUBROT=      T    optimize rotation matrix (better conditioning)
   TURBO    =      0    0=normal 1=particle mesh
   IRESTART =      0    0=no restart 2=restart with 2 vectors
   NREBOOT  =      0    no. of reboots
   NMIN     =      0    reboot dimension
   EREF     =   0.00    reference energy to select bands
   IMIX   =      4    mixing-type and parameters
     AMIX     =   0.40;   BMIX     =  1.00
     AMIX_MAG =   1.60;   BMIX_MAG =  1.00
     AMIN     =   0.10
     WC   =   100.;   INIMIX=   1;  MIXPRE=   1

 Intra band minimization:
   WEIMIN = 0.0010     energy-eigenvalue tresh-hold
   EBREAK =  0.34E-09  absolut break condition
   DEPER  =   0.30     relativ break condition  

   TIME   =   0.40     timestep for ELM

  volume/ion in A,a.u.               =      24.61       166.10
  Fermi-wavevector in a.u.,A,eV,Ry     =   1.169586  2.210197 18.611841  1.367932
  Thomas-Fermi vector in A             =   2.306057
 
 Write flags
   LWAVE  =      T    write WAVECAR
   LCHARG =      T    write CHGCAR
   LVTOT  =      F    write LOCPOT, total local potential
   LVHAR  =      F    write LOCPOT, Hartree potential only
   LELF   =      F    write electronic localiz. function (ELF)
   LORBIT =      0    0 simple, 1 ext, 2 COOP (PROOUT)


 Dipole corrections
   LMONO  =      F    monopole corrections only (constant potential shift)
   LDIPOL =      F    correct potential (dipole corrections)
   IDIPOL =      0    1-x, 2-y, 3-z, 4-all directions 
   EPSILON=  1.0000000 bulk dielectric constant

 Exchange correlation treatment:
   GGA     =    PE    GGA type
   LEXCH   =     8    internal setting for exchange type
   VOSKOWN=      0    Vosko Wilk Nusair interpolation
   LHFCALC =     F    Hartree Fock is set to
   LHFONE  =     F    Hartree Fock one center treatment
   AEXX    =    0.0000 exact exchange contribution

 Linear response parameters
   LEPSILON=     F    determine dielectric tensor
   LRPA    =     F    only Hartree local field effects (RPA)
   LNABLA  =     F    use nabla operator in PAW spheres
   LVEL    =     F    velocity operator in full k-point grid
   LINTERFAST=   F  fast interpolation
   KINTER  =     0    interpolate to denser k-point grid
   CSHIFT  =0.1000    complex shift for real part using Kramers Kronig
   OMEGAMAX=  -1.0    maximum frequency
   RTIME   =    0.100 relaxation time in fs

 Orbital magnetization related:
   ORBITALMAG=     F  switch on orbital magnetization
   LCHIMAG   =     F  perturbation theory with respect to B field
   DQ        =  0.001000  dq finite difference perturbation B field



--------------------------------------------------------------------------------------------------------


 finite differences
   using selective dynamics as specified on POSCAR
 charge density and potential will be updated during run
 spin polarized calculation
 RMM-DIIS sequential band-by-band and
  variant of blocked Davidson during initial phase
 perform sub-space diagonalisation
    before iterative eigenvector-optimisation
 modified Broyden-mixing scheme, WC =      100.0
 initial mixing is a Kerker type mixing with AMIX =  0.4000 and BMIX =      1.0000
 Hartree-type preconditioning will be used
 using additional bands          193
 real space projection scheme for non local part
 use partial core corrections
 calculate Harris-corrections to forces 
   (improved forces if not selfconsistent)
 use gradient corrections 
 use of overlap-Matrix (Vanderbilt PP)
 Methfessel and Paxton  Order N= 2 SIGMA  =   0.20


--------------------------------------------------------------------------------------------------------


  energy-cutoff  :      450.00
  volume of cell :     2978.23
      direct lattice vectors                 reciprocal lattice vectors
     9.956100464  0.000000000  0.000000000     0.100440931  0.057989601  0.000000000
    -7.467050076 12.933309555  0.000000000     0.000000000  0.077319730  0.000000000
     0.000000000  0.000000000 23.129100800     0.000000000  0.000000000  0.043235576

  length of vectors
     9.956100464 14.934099667 23.129100800     0.115979198  0.077319730  0.043235576


 
 old parameters found on file WAVECAR:
  energy-cutoff  :      450.00
  volume of cell :     2978.23
      direct lattice vectors                 reciprocal lattice vectors
     9.956100464  0.000000000  0.000000000     0.100440931  0.057989601  0.000000000
    -7.467050076 12.933309555  0.000000000     0.000000000  0.077319730  0.000000000
     0.000000000  0.000000000 23.129100800     0.000000000  0.000000000  0.043235576

  length of vectors

 
 k-points in units of 2pi/SCALE and weight: k-points                                
   0.00000000  0.00000000  0.00000000       1.000
 
 k-points in reciprocal lattice and weights: k-points                                
   0.00000000  0.00000000  0.00000000       1.000
 
 position of ions in fractional coordinates (direct lattice) 
   0.16666958  0.05555966  0.00000000
   0.41667020  0.05555996  0.00000000
   0.66666973  0.05555955  0.00000000
   0.91667014  0.05555984  0.00000000
   0.16667075  0.22222018  0.00000000
   0.41667035  0.22222011  0.00000000
   0.66667092  0.22221993  0.00000000
   0.91667056  0.22222009  0.00000000
   0.16666973  0.38888979  0.00000000
   0.41666999  0.38888964  0.00000000
   0.66666967  0.38888952  0.00000000
   0.91667020  0.38888949  0.00000000
   0.16666993  0.55556011  0.00000000
   0.41666967  0.55556011  0.00000000
   0.66667020  0.55556011  0.00000000
   0.91666973  0.55555999  0.00000000
   0.16666973  0.72221941  0.00000000
   0.41666907  0.72221941  0.00000000
   0.66666973  0.72221959  0.00000000
   0.91667026  0.72221959  0.00000000
   0.16667014  0.88889027  0.00000000
   0.41666952  0.88889009  0.00000000
   0.66667026  0.88889009  0.00000000
   0.91666996  0.88888979  0.00000000
   0.00000000  0.00000000  0.08786996
   0.25000072  0.00000000  0.08786983
   0.50000036  0.00000000  0.08786988
   0.75000095  0.00000000  0.08786987
   0.00000000  0.16666991  0.08786986
   0.24999988  0.16666983  0.08786989
   0.50000036  0.16666983  0.08786989
   0.74999994  0.16666980  0.08786988
   0.00000000  0.33333004  0.08786989
   0.24999979  0.33333001  0.08786986
   0.50000036  0.33332998  0.08786979
   0.75000012  0.33332995  0.08786982
   0.00000000  0.49999967  0.08786978
   0.24999949  0.49999958  0.08786986
   0.49999917  0.49999958  0.08786988
   0.74999982  0.49999955  0.08786982
   0.00000000  0.66667002  0.08786988
   0.25000030  0.66667002  0.08786984
   0.49999964  0.66667002  0.08786981
   0.75000048  0.66667002  0.08786986
   0.00000000  0.83332938  0.08786986
   0.24999961  0.83332968  0.08786986
   0.49999931  0.83332968  0.08786981
   0.74999970  0.83332938  0.08786984
   0.08333039  0.11110999  0.17573020
   0.33332986  0.11110996  0.17573020
   0.58333051  0.11110996  0.17573020
   0.83333015  0.11110992  0.17573021
   0.08332948  0.27777976  0.17573015
   0.33332995  0.27777976  0.17573015
   0.58332920  0.27777967  0.17573015
   0.83332992  0.27777970  0.17573011
   0.08333051  0.44444019  0.17573017
   0.33332986  0.44444004  0.17573017
   0.58333039  0.44443992  0.17573015
   0.83332998  0.44443989  0.17573015
   0.08332950  0.61110973  0.17573015
   0.33332998  0.61110967  0.17573017
   0.58332944  0.61110961  0.17573015
   0.83332980  0.61110944  0.17573011
   0.08332968  0.77778006  0.17573015
   0.33332956  0.77778006  0.17573020
   0.58332986  0.77777988  0.17573015
   0.83332950  0.77777994  0.17573015
   0.08332998  0.94444042  0.17573011
   0.33332896  0.94444001  0.17573011
   0.58333015  0.94444036  0.17573020
   0.83332926  0.94444007  0.17573011
   0.16502188  0.05443807  0.26439878
   0.41579950  0.05489587  0.26416829
   0.66562688  0.05484311  0.26432186
   0.91514033  0.05437576  0.26443329
   0.16521320  0.22109817  0.26404455
   0.41584253  0.22184753  0.26421475
   0.66561437  0.22164191  0.26393726
   0.91568983  0.22152066  0.26439267
   0.16583963  0.38825417  0.26403055
   0.41569465  0.38821605  0.26598522
   0.66574311  0.38848224  0.26580322
   0.91550118  0.38840064  0.26416057
   0.16585270  0.55525613  0.26435453
   0.41567320  0.55497563  0.26424024
   0.66598868  0.55519736  0.26553777
   0.91643310  0.55524039  0.26399037
   0.16644013  0.72204721  0.26437902
   0.41544223  0.72156471  0.26453540
   0.66521424  0.72139019  0.26395127
   0.91621482  0.72147965  0.26405576
   0.16634655  0.88830763  0.26432410
   0.41614413  0.88837886  0.26450703
   0.66535693  0.88796186  0.26418981
   0.91546190  0.88796514  0.26450202
   0.99850893  0.99873662  0.34969869
   0.24976796  0.99978215  0.34934425
   0.49973249  0.99929720  0.34938300
   0.74818450  0.99885654  0.34948361
   0.99773961  0.16468917  0.34940729
   0.24837169  0.16524547  0.34912980
   0.49861056  0.16555673  0.34903818
   0.74932140  0.16536604  0.34927836
   0.99958789  0.33315030  0.34899336
   0.24377897  0.33032987  0.34896553
   0.49595851  0.32973000  0.35405600
   0.75115246  0.33054507  0.34902951
   0.99896669  0.49915028  0.34896919
   0.24892209  0.49870759  0.34902668
   0.49778917  0.50066525  0.35384384
   0.75498319  0.50198936  0.35346797
   0.00013447  0.66679019  0.34900156
   0.24857470  0.66527450  0.34954226
   0.49894127  0.66608107  0.34910113
   0.75239700  0.67032063  0.34885266
   0.00089777  0.83371097  0.34929237
   0.24963814  0.83315778  0.34957552
   0.49931264  0.83285242  0.34948781
   0.74890625  0.83341032  0.34920529
   0.58498412  0.44365683  0.40335977
 
 position of ions in cartesian coordinates  (Angst):
   1.24451231  0.71857025  0.00000000
   3.73354143  0.71857410  0.00000000
   6.22256483  0.71856885  0.00000000
   8.71159191  0.71857266  0.00000000
   0.00006155  2.87404241  0.00000000
   2.48908321  2.87404144  0.00000000
   4.97811530  2.87403913  0.00000000
   7.46713563  2.87404125  0.00000000
  -1.24447899  5.02963203  0.00000000
   1.24454991  5.02963010  0.00000000
   3.73357265  5.02962856  0.00000000
   6.22260333  5.02962818  0.00000000
  -2.48901256  7.18523090  0.00000000
   0.00000989  7.18523090  0.00000000
   2.48904034  7.18523090  0.00000000
   4.97806160  7.18522936  0.00000000
  -3.73346794  9.34068716  0.00000000
  -1.24444935  9.34068716  0.00000000
   1.24458096  9.34068948  0.00000000
   3.73361141  9.34068948  0.00000000
  -4.97800344 11.49629298  0.00000000
  -2.48898322 11.49629066  0.00000000
   0.00004932 11.49629066  0.00000000
   2.48907369 11.49628681  0.00000000
   0.00000000  0.00000000  2.03235327
   2.48903224  0.00000000  2.03235017
   4.97805379  0.00000000  2.03235137
   7.46708484  0.00000000  2.03235103
  -1.24453253  2.15559348  2.03235085
   1.24449196  2.15559251  2.03235154
   3.73352182  2.15559251  2.03235154
   6.22254301  2.15559213  2.03235137
  -2.48899206  4.31106053  2.03235154
   0.00003120  4.31106014  2.03235085
   2.48906217  4.31105976  2.03234913
   4.97808514  4.31105937  2.03234982
  -3.73352259  6.46665054  2.03234896
  -1.24450185  6.46664938  2.03235085
   1.24452000  6.46664938  2.03235137
   3.73355187  6.46664900  2.03234982
  -4.97805846  8.62224980  2.03235137
  -2.48903037  8.62224980  2.03235034
  -0.00001178  8.62224980  2.03234965
   2.48902164  8.62224980  2.03235085
  -6.22251221 10.77770683  2.03235085
  -3.73349317 10.77771068  2.03235085
  -1.24447102 10.77771068  2.03234965
   1.24456017 10.77770683  2.03235034
  -0.00001807  1.43701986  4.06448148
   2.48900192  1.43701947  4.06448148
   4.97803357  1.43701947  4.06448148
   7.46705540  1.43701899  4.06448182
  -1.24455865  3.59261160  4.06448044
   1.24447107  3.59261160  4.06448044
   3.73348943  3.59261044  4.06448044
   6.22252145  3.59261083  4.06447941
  -2.48901017  5.74808250  4.06448079
   0.00000953  5.74808058  4.06448079
   2.48904087  5.74807904  4.06448044
   4.97806206  5.74807865  4.06448044
  -3.73355012  7.90367136  4.06448044
  -1.24451981  7.90367059  4.06448079
   1.24450041  7.90366981  4.06448044
   3.73353042  7.90366750  4.06447941
  -4.97808398 10.05927023  4.06448044
  -2.48906006 10.05927023  4.06448148
  -0.00003064 10.05926792  4.06448044
   2.48899047 10.05926869  4.06448044
  -6.22254233 12.21474037  4.06447941
  -3.73352419 12.21473497  4.06447941
  -1.24448988 12.21473959  4.06448148
   1.24452856 12.21473574  4.06447941
   1.23648264  0.70406440  6.11530611
   3.72983137  0.70998529  6.10997506
   6.21753185  0.70930296  6.11352703
   8.70520255  0.70325854  6.11610432
  -0.00607191  2.85953107  6.10711308
   2.48362339  2.86922283  6.11104968
   4.97191224  2.86656347  6.10463160
   7.46259402  2.86499530  6.11516481
  -1.24799731  5.02141131  6.10678911
   1.23986906  5.02091833  6.15199898
   3.72738895  5.02436110  6.14778942
   6.21461464  5.02330576  6.10979653
  -2.49487921  7.18129939  6.11428250
  -0.00554671  7.17767160  6.11163903
   2.48496377  7.18053930  6.14164982
   4.97809216  7.18109588  6.10585993
  -3.73446802  9.33846008  6.11484911
  -1.25177526  9.33221976  6.11846587
   1.23628315  9.32996261  6.10495557
   3.73460212  9.33111971  6.10737226
  -4.97687460 11.48875757  6.11357873
  -2.49039663 11.48967878  6.11780965
  -0.00609523 11.48428567  6.11047274
   2.48395044 11.48432806  6.11769385
   2.48363887 12.91696987  8.08821631
  -4.97870845 12.93049197  8.08001845
  -2.48641533 12.92422005  8.08091455
  -0.00951177 12.91852089  8.08324162
   8.70385356  2.12997599  8.08147633
   1.23891728  2.13717086  8.07505824
   3.72799640  2.14119642  8.07293933
   6.22552266  2.13873017  8.07849441
   7.46434754  4.30873592  8.07190262
  -0.03950169  4.27225840  8.07125882
   2.47570227  4.26450021  8.18899693
   5.01035274  4.27504168  8.07273875
   6.21863266  6.45566504  8.07134360
  -1.24558118  6.44993967  8.07267326
   1.21754656  6.47525863  8.18408980
   3.76830873  6.49238385  8.17539633
  -4.97761694  8.62380390  8.07209218
  -2.49280329  8.60420106  8.08459817
  -0.00615128  8.61463268  8.07439514
   2.48562242  8.66946421  8.06864844
  -6.21642331 10.78264203  8.07881838
  -3.73580844 10.77548745  8.08536743
  -1.24774395 10.77153820  8.08333882
   1.23306930 10.77875369  8.07680424
   2.51135292  5.73795114  9.32934880
 


--------------------------------------------------------------------------------------------------------


 k-point  1 :  0.00000.00000.0000  plane waves:   64575

 maximum and minimum number of plane-waves per node :     64575    64575

 maximum number of plane-waves:     64575
 maximum index in each direction: 
   IXMAX=   17   IYMAX=   25   IZMAX=   40
   IXMIN=  -17   IYMIN=  -25   IZMIN=  -40

 WARNING: aliasing errors must be expected set NGX to  70 to avoid them
 WARNING: aliasing errors must be expected set NGY to 102 to avoid them
 WARNING: aliasing errors must be expected set NGZ to 162 to avoid them
 aliasing errors are usually negligible using standard VASP settings
 and one can safely disregard these warnings

 serial   3D FFT for wavefunctions
 parallel 3D FFT for charge:
    minimum data exchange during FFTs selected (reduces bandwidth)


 total amount of memory used by VASP on root node   180116. kBytes
========================================================================

   base      :      30000. kBytes
   nonlr-proj:      36135. kBytes
   fftplans  :       7109. kBytes
   grid      :      53980. kBytes
   one-center:       3763. kBytes
   wavefun   :      49129. kBytes
 
 Broyden mixing: mesh for mixing (old mesh)
   NGX = 35   NGY = 51   NGZ = 81
  (NGX  =108   NGY  =160   NGZ  =240)
  gives a total of 144585 points

 charge density for first step will be calculated from the start-wavefunctions


--------------------------------------------------------------------------------------------------------


 Maximum index for non-local projection operator         1719
 Maximum index for augmentation-charges          566 (set IRDMAX)


--------------------------------------------------------------------------------------------------------


 initial charge from wavefunction
 First call to EWALD:  gamma=   0.123
 Maximum number of real-space cells 4x 3x 2
 Maximum number of reciprocal cells 2x 3x 4

    FEWALD:  cpu time    0.07: real time    0.07


----------------------------------------- Iteration    1(   1)  ---------------------------------------


    POTLOK:  cpu time    0.38: real time    0.39
    SETDIJ:  cpu time    0.05: real time    0.05
     EDDAV:  cpu time   15.00: real time   15.22
       DOS:  cpu time    0.00: real time    0.00
    CHARGE:  cpu time    1.04: real time    1.05
    MIXING:  cpu time    0.01: real time    0.01
    --------------------------------------------
      LOOP:  cpu time   16.48: real time   16.74

 eigenvalue-minimisations  :  1824
 total energy-change (2. order) :-0.8170888E+03  (-0.2267776E-06)
 number of electron    1085.9999548 magnetization     202.1172738
 augmentation part      617.3004187 magnetization     179.6428455

 Broyden mixing:
  rms(total) = 0.17619E-02    rms(broyden)= 0.17618E-02
  rms(prec ) = 0.22964E-02
  weight for this iteration     100.00

 Free energy of the ion-electron system (eV)
  ---------------------------------------------------
  alpha Z        PSCENC =      2067.85644204
  Ewald energy   TEWEN  =    423773.20960882
  -1/2 Hartree   DENC   =   -519602.09593880
  -exchange  EXHF       =         0.00000000
  -V(xc)+E(xc)   XCENC  =      1982.15165267
  PAW double counting   =    106757.32912499  -113112.60506271
  entropy T*S    EENTRO =        -0.24679081
  eigenvalues    EBANDS =      -718.64051709
  atomic energy  EATOM  =     98035.95264826
  ---------------------------------------------------
  free energy    TOTEN  =      -817.08883262 eV

  energy without entropy =     -816.84204181  energy(sigma->0) =     -817.02713491


--------------------------------------------------------------------------------------------------------




----------------------------------------- Iteration    1(   2)  ---------------------------------------


    POTLOK:  cpu time    0.35: real time    0.35
    SETDIJ:  cpu time    0.05: real time    0.05
    EDDIAG:  cpu time    4.69: real time    5.03
  RMM-DIIS:  cpu time    7.17: real time    7.21
    ORTHCH:  cpu time    2.33: real time    2.33
       DOS:  cpu time    0.00: real time    0.00
    CHARGE:  cpu time    1.04: real time    1.06
    MIXING:  cpu time    0.01: real time    0.03
    --------------------------------------------
      LOOP:  cpu time   15.64: real time   16.07

 eigenvalue-minimisations  :  2945
 total energy-change (2. order) :-0.2112261E-03  (-0.6701074E-05)
 number of electron    1085.9999548 magnetization     202.1172193
 augmentation part      617.3011744 magnetization     179.6458253

 Broyden mixing:
  rms(total) = 0.20251E-01    rms(broyden)= 0.20251E-01
  rms(prec ) = 0.27371E-01
  weight for this iteration     100.00

 eigenvalues of (default mixing * dielectric matrix)
  average eigenvalue GAMMA=   0.0776
  0.0776

 Free energy of the ion-electron system (eV)
  ---------------------------------------------------
  alpha Z        PSCENC =      2067.85644204
  Ewald energy   TEWEN  =    423773.20960882
  -1/2 Hartree   DENC   =   -519602.02632406
  -exchange  EXHF       =         0.00000000
  -V(xc)+E(xc)   XCENC  =      1982.15202326
  PAW double counting   =    106757.32600980  -113112.60099559
  entropy T*S    EENTRO =        -0.24639301
  eigenvalues    EBANDS =      -718.71206338
  atomic energy  EATOM  =     98035.95264826
  ---------------------------------------------------
  free energy    TOTEN  =      -817.08904384 eV

  energy without entropy =     -816.84265084  energy(sigma->0) =     -817.02744559


--------------------------------------------------------------------------------------------------------




----------------------------------------- Iteration    1(   3)  ---------------------------------------


    POTLOK:  cpu time    0.35: real time    0.36
    SETDIJ:  cpu time    0.05: real time    0.05
    EDDIAG:  cpu time    4.38: real time    4.40
  RMM-DIIS:  cpu time    7.06: real time    7.13
    ORTHCH:  cpu time    1.69: real time    1.72
       DOS:  cpu time    0.00: real time    0.00
    CHARGE:  cpu time    1.05: real time    1.06
    MIXING:  cpu time    0.01: real time    0.01
    --------------------------------------------
      LOOP:  cpu time   14.60: real time   14.72

 eigenvalue-minimisations  :  2931
 total energy-change (2. order) : 0.2106956E-03  (-0.4326245E-05)
 number of electron    1085.9999548 magnetization     202.1172153
 augmentation part      617.3007048 magnetization     179.6431750

 Broyden mixing:
  rms(total) = 0.40326E-02    rms(broyden)= 0.40310E-02
  rms(prec ) = 0.49843E-02
  weight for this iteration     100.00

 eigenvalues of (default mixing * dielectric matrix)
  average eigenvalue GAMMA=   0.0844
  0.0926  0.0763

 Free energy of the ion-electron system (eV)
  ---------------------------------------------------
  alpha Z        PSCENC =      2067.85644204
  Ewald energy   TEWEN  =    423773.20960882
  -1/2 Hartree   DENC   =   -519602.06036824
  -exchange  EXHF       =         0.00000000
  -V(xc)+E(xc)   XCENC  =      1982.15160865
  PAW double counting   =    106757.32277620  -113112.59814675
  entropy T*S    EENTRO =        -0.24681869
  eigenvalues    EBANDS =      -718.67658344
  atomic energy  EATOM  =     98035.95264826
  ---------------------------------------------------
  free energy    TOTEN  =      -817.08883315 eV

  energy without entropy =     -816.84201445  energy(sigma->0) =     -817.02712847


--------------------------------------------------------------------------------------------------------




----------------------------------------- Iteration    1(   4)  ---------------------------------------


    POTLOK:  cpu time    0.35: real time    0.35
    SETDIJ:  cpu time    0.05: real time    0.05
    EDDIAG:  cpu time    4.51: real time    4.83
  RMM-DIIS:  cpu time    6.50: real time    6.52
    ORTHCH:  cpu time    1.64: real time    1.67
       DOS:  cpu time    0.00: real time    0.00
    CHARGE:  cpu time    1.06: real time    1.06
    MIXING:  cpu time    0.01: real time    0.01
    --------------------------------------------
      LOOP:  cpu time   14.12: real time   14.50

 eigenvalue-minimisations  :  2621
 total energy-change (2. order) : 0.2570465E-05  (-0.5225127E-06)
 number of electron    1085.9999548 magnetization     202.1172165
 augmentation part      617.3005606 magnetization     179.6430816

 Broyden mixing:
  rms(total) = 0.68673E-03    rms(broyden)= 0.68614E-03
  rms(prec ) = 0.87938E-03
  weight for this iteration     100.00

 eigenvalues of (default mixing * dielectric matrix)
  average eigenvalue GAMMA=   0.0974
  0.1145  0.1145  0.0632

 Free energy of the ion-electron system (eV)
  ---------------------------------------------------
  alpha Z        PSCENC =      2067.85644204
  Ewald energy   TEWEN  =    423773.20960882
  -1/2 Hartree   DENC   =   -519602.08426116
  -exchange  EXHF       =         0.00000000
  -V(xc)+E(xc)   XCENC  =      1982.15160740
  PAW double counting   =    106757.32505458  -113112.60063554
  entropy T*S    EENTRO =        -0.24676149
  eigenvalues    EBANDS =      -718.65253350
  atomic energy  EATOM  =     98035.95264826
  ---------------------------------------------------
  free energy    TOTEN  =      -817.08883058 eV

  energy without entropy =     -816.84206909  energy(sigma->0) =     -817.02714020


--------------------------------------------------------------------------------------------------------




----------------------------------------- Iteration    1(   5)  ---------------------------------------


    POTLOK:  cpu time    0.35: real time    0.35
    SETDIJ:  cpu time    0.05: real time    0.05
    EDDIAG:  cpu time    4.36: real time    4.40
  RMM-DIIS:  cpu time    4.09: real time    4.11
    ORTHCH:  cpu time    1.71: real time    1.71
       DOS:  cpu time    0.00: real time    0.00
    --------------------------------------------
      LOOP:  cpu time   10.56: real time   10.63

 eigenvalue-minimisations  :  1571
 total energy-change (2. order) :-0.8110219E-06  (-0.8532450E-07)
 number of electron    1085.9999548 magnetization     202.1172165
 augmentation part      617.3005606 magnetization     179.6430816

 Free energy of the ion-electron system (eV)
  ---------------------------------------------------
  alpha Z        PSCENC =      2067.85644204
  Ewald energy   TEWEN  =    423773.20960882
  -1/2 Hartree   DENC   =   -519602.07843690
  -exchange  EXHF       =         0.00000000
  -V(xc)+E(xc)   XCENC  =      1982.15162124
  PAW double counting   =    106757.32460579  -113112.60025157
  entropy T*S    EENTRO =        -0.24675422
  eigenvalues    EBANDS =      -718.65831485
  atomic energy  EATOM  =     98035.95264826
  ---------------------------------------------------
  free energy    TOTEN  =      -817.08883139 eV

  energy without entropy =     -816.84207717  energy(sigma->0) =     -817.02714283


--------------------------------------------------------------------------------------------------------




 average (electrostatic) potential at core
  the test charge radii are     1.0452  0.7215
  (the norm of the test charge is              1.0000)
       1 -86.7455       2 -86.7449       3 -86.7488       4 -86.7483       5 -86.7462
       6 -86.7463       7 -86.7460       8 -86.7476       9 -86.7449      10 -86.7497
      11 -86.7484      12 -86.7431      13 -86.7426      14 -86.7503      15 -86.7494
      16 -86.7507      17 -86.7463      18 -86.7484      19 -86.7504      20 -86.7468
      21 -86.7466      22 -86.7476      23 -86.7474      24 -86.7504      25 -86.8439
      26 -86.8437      27 -86.8453      28 -86.8492      29 -86.8480      30 -86.8499
      31 -86.8495      32 -86.8495      33 -86.8460      34 -86.8487      35 -86.8455
      36 -86.8481      37 -86.8462      38 -86.8453      39 -86.8459      40 -86.8453
      41 -86.8472      42 -86.8452      43 -86.8481      44 -86.8489      45 -86.8459
      46 -86.8432      47 -86.8454      48 -86.8489      49 -86.8189      50 -86.8219
      51 -86.8220      52 -86.8185      53 -86.8174      54 -86.8177      55 -86.8179
      56 -86.8180      57 -86.8276      58 -86.8130      59 -86.8149      60 -86.8114
      61 -86.8318      62 -86.8294      63 -86.8138      64 -86.8139      65 -86.8264
      66 -86.8215      67 -86.8260      68 -86.8231      69 -86.8168      70 -86.8213
      71 -86.8205      72 -86.8193      73 -86.8589      74 -86.8599      75 -86.8571
      76 -86.8576      77 -86.8548      78 -86.8424      79 -86.8536      80 -86.8476
      81 -86.8580      82 -86.8700      83 -86.8693      84 -86.8577      85 -86.8612
      86 -86.8374      87 -86.8663      88 -86.8396      89 -86.8625      90 -86.8613
      91 -86.8557      92 -86.8597      93 -86.8586      94 -86.8644      95 -86.8603
      96 -86.8562      97 -86.7535      98 -86.7540      99 -86.7503     100 -86.7584
     101 -86.7519     102 -86.7643     103 -86.7659     104 -86.7546     105 -86.7435
     106 -86.7591     107 -86.9022     108 -86.7568     109 -86.7539     110 -86.7561
     111 -86.8926     112 -86.8935     113 -86.7561     114 -86.7529     115 -86.7586
     116 -86.7546     117 -86.7504     118 -86.7468     119 -86.7483     120 -86.7524
     121 -74.3057
 
 
 
 E-fermi :   1.8129     XC(G=0):  -6.7367     alpha+bet : -7.7752


 spin component 1

 k-point   1 :       0.0000    0.0000    0.0000
  band No.  band energies     occupation 
      1     -17.1813      1.00000
      2      -6.8712      1.00000
      3      -5.9887      1.00000
      4      -5.9470      1.00000
      5      -5.9317      1.00000
      6      -5.3032      1.00000
      7      -5.2938      1.00000
      8      -5.1275      1.00000
      9      -5.1040      1.00000
     10      -4.9246      1.00000
     11      -4.9152      1.00000
     12      -4.6843      1.00000
     13      -4.5624      1.00000
     14      -4.5326      1.00000
     15      -4.2804      1.00000
     16      -4.2367      1.00000
     17      -4.2266      1.00000
     18      -4.2160      1.00000
     19      -4.0340      1.00000
     20      -3.9300      1.00000
     21      -3.8718      1.00000
     22      -3.8632      1.00000
     23      -3.8564      1.00000
     24      -3.7605      1.00000
     25      -3.7472      1.00000
     26      -3.6755      1.00000
     27      -3.6212      1.00000
     28      -3.5610      1.00000
     29      -3.4879      1.00000
     30      -3.4439      1.00000
     31      -3.4169      1.00000
     32      -3.4003      1.00000
     33      -3.3602      1.00000
     34      -3.3440      1.00000
     35      -3.3420      1.00000
     36      -3.3280      1.00000
     37      -3.3105      1.00000
     38      -3.2957      1.00000
     39      -3.2574      1.00000
     40      -3.2368      1.00000
     41      -3.2083      1.00000
     42      -3.2064      1.00000
     43      -3.1950      1.00000
     44      -3.0847      1.00000
     45      -3.0824      1.00000
     46      -3.0634      1.00000
     47      -3.0483      1.00000
     48      -3.0190      1.00000
     49      -3.0073      1.00000
     50      -2.9939      1.00000
     51      -2.9834      1.00000
     52      -2.9722      1.00000
     53      -2.9496      1.00000
     54      -2.9387      1.00000
     55      -2.9343      1.00000
     56      -2.9257      1.00000
     57      -2.9179      1.00000
     58      -2.9106      1.00000
     59      -2.8575      1.00000
     60      -2.8556      1.00000
     61      -2.8512      1.00000
     62      -2.8493      1.00000
     63      -2.8018      1.00000
     64      -2.7926      1.00000
     65      -2.7762      1.00000
     66      -2.7729      1.00000
     67      -2.7497      1.00000
     68      -2.7428      1.00000
     69      -2.7391      1.00000
     70      -2.7337      1.00000
     71      -2.7262      1.00000
     72      -2.7150      1.00000
     73      -2.7011      1.00000
     74      -2.6960      1.00000
     75      -2.6881      1.00000
     76      -2.6752      1.00000
     77      -2.6690      1.00000
     78      -2.6642      1.00000
     79      -2.6613      1.00000
     80      -2.6582      1.00000
     81      -2.6303      1.00000
     82      -2.6269      1.00000
     83      -2.6262      1.00000
     84      -2.6183      1.00000
     85      -2.6169      1.00000
     86      -2.5974      1.00000
     87      -2.5814      1.00000
     88      -2.5674      1.00000
     89      -2.5573      1.00000
     90      -2.5503      1.00000
     91      -2.5237      1.00000
     92      -2.5132      1.00000
     93      -2.5013      1.00000
     94      -2.5002      1.00000
     95      -2.4986      1.00000
     96      -2.4845      1.00000
     97      -2.4841      1.00000
     98      -2.4797      1.00000
     99      -2.4749      1.00000
    100      -2.4626      1.00000
    101      -2.4616      1.00000
    102      -2.4595      1.00000
    103      -2.4535      1.00000
    104      -2.4455      1.00000
    105      -2.4403      1.00000
    106      -2.4313      1.00000
    107      -2.4268      1.00000
    108      -2.4238      1.00000
    109      -2.4177      1.00000
    110      -2.4163      1.00000
    111      -2.4152      1.00000
    112      -2.4067      1.00000
    113      -2.4020      1.00000
    114      -2.4008      1.00000
    115      -2.4005      1.00000
    116      -2.3954      1.00000
    117      -2.3794      1.00000
    118      -2.3540      1.00000
    119      -2.3346      1.00000
    120      -2.2889      1.00000
    121      -2.2776      1.00000
    122      -2.2392      1.00000
    123      -2.2312      1.00000
    124      -2.2247      1.00000
    125      -2.2186      1.00000
    126      -2.2101      1.00000
    127      -2.2060      1.00000
    128      -2.1968      1.00000
    129      -2.1526      1.00000
    130      -2.1501      1.00000
    131      -2.1491      1.00000
    132      -2.1460      1.00000
    133      -2.1443      1.00000
    134      -2.1385      1.00000
    135      -2.1291      1.00000
    136      -2.1115      1.00000
    137      -2.0793      1.00000
    138      -2.0745      1.00000
    139      -2.0710      1.00000
    140      -2.0689      1.00000
    141      -2.0664      1.00000
    142      -2.0555      1.00000
    143      -2.0358      1.00000
    144      -2.0336      1.00000
    145      -2.0204      1.00000
    146      -2.0178      1.00000
    147      -2.0145      1.00000
    148      -2.0105      1.00000
    149      -2.0073      1.00000
    150      -1.9861      1.00000
    151      -1.9805      1.00000
    152      -1.9469      1.00000
    153      -1.9097      1.00000
    154      -1.9036      1.00000
    155      -1.8784      1.00000
    156      -1.8775      1.00000
    157      -1.8756      1.00000
    158      -1.8712      1.00000
    159      -1.8666      1.00000
    160      -1.8578      1.00000
    161      -1.8559      1.00000
    162      -1.8517      1.00000
    163      -1.8500      1.00000
    164      -1.8415      1.00000
    165      -1.8267      1.00000
    166      -1.8202      1.00000
    167      -1.8111      1.00000
    168      -1.7944      1.00000
    169      -1.7893      1.00000
    170      -1.7672      1.00000
    171      -1.7625      1.00000
    172      -1.7593      1.00000
    173      -1.7388      1.00000
    174      -1.7239      1.00000
    175      -1.7173      1.00000
    176      -1.7051      1.00000
    177      -1.6966      1.00000
    178      -1.6933      1.00000
    179      -1.6834      1.00000
    180      -1.6794      1.00000
    181      -1.6737      1.00000
    182      -1.6545      1.00000
    183      -1.6355      1.00000
    184      -1.6346      1.00000
    185      -1.6307      1.00000
    186      -1.6253      1.00000
    187      -1.6101      1.00000
    188      -1.6017      1.00000
    189      -1.5905      1.00000
    190      -1.5589      1.00000
    191      -1.5554      1.00000
    192      -1.5463      1.00000
    193      -1.5450      1.00000
    194      -1.5400      1.00000
    195      -1.5366      1.00000
    196      -1.5320      1.00000
    197      -1.5297      1.00000
    198      -1.5025      1.00000
    199      -1.4958      1.00000
    200      -1.4760      1.00000
    201      -1.4720      1.00000
    202      -1.4701      1.00000
    203      -1.4630      1.00000
    204      -1.4552      1.00000
    205      -1.4526      1.00000
    206      -1.4366      1.00000
    207      -1.4270      1.00000
    208      -1.4241      1.00000
    209      -1.4183      1.00000
    210      -1.4142      1.00000
    211      -1.4060      1.00000
    212      -1.3746      1.00000
    213      -1.3621      1.00000
    214      -1.3587      1.00000
    215      -1.3552      1.00000
    216      -1.3507      1.00000
    217      -1.3471      1.00000
    218      -1.3448      1.00000
    219      -1.3378      1.00000
    220      -1.3249      1.00000
    221      -1.3232      1.00000
    222      -1.3220      1.00000
    223      -1.3151      1.00000
    224      -1.3094      1.00000
    225      -1.2844      1.00000
    226      -1.2806      1.00000
    227      -1.2480      1.00000
    228      -1.2440      1.00000
    229      -1.2393      1.00000
    230      -1.2335      1.00000
    231      -1.2140      1.00000
    232      -1.2057      1.00000
    233      -1.1782      1.00000
    234      -1.1750      1.00000
    235      -1.1530      1.00000
    236      -1.1340      1.00000
    237      -1.1329      1.00000
    238      -1.1264      1.00000
    239      -1.1160      1.00000
    240      -1.1122      1.00000
    241      -1.1113      1.00000
    242      -1.1079      1.00000
    243      -1.1055      1.00000
    244      -1.0918      1.00000
    245      -1.0898      1.00000
    246      -1.0839      1.00000
    247      -1.0774      1.00000
    248      -1.0769      1.00000
    249      -1.0767      1.00000
    250      -1.0712      1.00000
    251      -1.0663      1.00000
    252      -1.0482      1.00000
    253      -1.0429      1.00000
    254      -1.0428      1.00000
    255      -1.0385      1.00000
    256      -1.0350      1.00000
    257      -1.0299      1.00000
    258      -1.0219      1.00000
    259      -1.0177      1.00000
    260      -1.0151      1.00000
    261      -1.0028      1.00000
    262      -0.9892      1.00000
    263      -0.9865      1.00000
    264      -0.9846      1.00000
    265      -0.9647      1.00000
    266      -0.9618      1.00000
    267      -0.9546      1.00000
    268      -0.9534      1.00000
    269      -0.9483      1.00000
    270      -0.9378      1.00000
    271      -0.9355      1.00000
    272      -0.9346      1.00000
    273      -0.9308      1.00000
    274      -0.9303      1.00000
    275      -0.9278      1.00000
    276      -0.9271      1.00000
    277      -0.9266      1.00000
    278      -0.9252      1.00000
    279      -0.9233      1.00000
    280      -0.9059      1.00000
    281      -0.8919      1.00000
    282      -0.8856      1.00000
    283      -0.8834      1.00000
    284      -0.8796      1.00000
    285      -0.8701      1.00000
    286      -0.8668      1.00000
    287      -0.8631      1.00000
    288      -0.8593      1.00000
    289      -0.8525      1.00000
    290      -0.8512      1.00000
    291      -0.8492      1.00000
    292      -0.8437      1.00000
    293      -0.8392      1.00000
    294      -0.8372      1.00000
    295      -0.8366      1.00000
    296      -0.8341      1.00000
    297      -0.8300      1.00000
    298      -0.8257      1.00000
    299      -0.8238      1.00000
    300      -0.8232      1.00000
    301      -0.8210      1.00000
    302      -0.8173      1.00000
    303      -0.8156      1.00000
    304      -0.8123      1.00000
    305      -0.8098      1.00000
    306      -0.8076      1.00000
    307      -0.8052      1.00000
    308      -0.8038      1.00000
    309      -0.7852      1.00000
    310      -0.7807      1.00000
    311      -0.7722      1.00000
    312      -0.7649      1.00000
    313      -0.7477      1.00000
    314      -0.7457      1.00000
    315      -0.7444      1.00000
    316      -0.7276      1.00000
    317      -0.7219      1.00000
    318      -0.7155      1.00000
    319      -0.7081      1.00000
    320      -0.7001      1.00000
    321      -0.6995      1.00000
    322      -0.6972      1.00000
    323      -0.6917      1.00000
    324      -0.6880      1.00000
    325      -0.6850      1.00000
    326      -0.6830      1.00000
    327      -0.6810      1.00000
    328      -0.6732      1.00000
    329      -0.6720      1.00000
    330      -0.6681      1.00000
    331      -0.6663      1.00000
    332      -0.6612      1.00000
    333      -0.6575      1.00000
    334      -0.6562      1.00000
    335      -0.6529      1.00000
    336      -0.6511      1.00000
    337      -0.6474      1.00000
    338      -0.6453      1.00000
    339      -0.6426      1.00000
    340      -0.6409      1.00000
    341      -0.6390      1.00000
    342      -0.6358      1.00000
    343      -0.6320      1.00000
    344      -0.6290      1.00000
    345      -0.6267      1.00000
    346      -0.6242      1.00000
    347      -0.6115      1.00000
    348      -0.6067      1.00000
    349      -0.5979      1.00000
    350      -0.5964      1.00000
    351      -0.5936      1.00000
    352      -0.5913      1.00000
    353      -0.5899      1.00000
    354      -0.5852      1.00000
    355      -0.5787      1.00000
    356      -0.5776      1.00000
    357      -0.5730      1.00000
    358      -0.5665      1.00000
    359      -0.5627      1.00000
    360      -0.5472      1.00000
    361      -0.5409      1.00000
    362      -0.5310      1.00000
    363      -0.5205      1.00000
    364      -0.5104      1.00000
    365      -0.4982      1.00000
    366      -0.4827      1.00000
    367      -0.4774      1.00000
    368      -0.4720      1.00000
    369      -0.4673      1.00000
    370      -0.4624      1.00000
    371      -0.4586      1.00000
    372      -0.4569      1.00000
    373      -0.4505      1.00000
    374      -0.4475      1.00000
    375      -0.4427      1.00000
    376      -0.4391      1.00000
    377      -0.4355      1.00000
    378      -0.4336      1.00000
    379      -0.4269      1.00000
    380      -0.4209      1.00000
    381      -0.4190      1.00000
    382      -0.4139      1.00000
    383      -0.3813      1.00000
    384      -0.3672      1.00000
    385      -0.3652      1.00000
    386      -0.3515      1.00000
    387      -0.3420      1.00000
    388      -0.3364      1.00000
    389      -0.3327      1.00000
    390      -0.3275      1.00000
    391      -0.3211      1.00000
    392      -0.3120      1.00000
    393      -0.3023      1.00000
    394      -0.2939      1.00000
    395      -0.2918      1.00000
    396      -0.2862      1.00000
    397      -0.2519      1.00000
    398      -0.2478      1.00000
    399      -0.2460      1.00000
    400      -0.2375      1.00000
    401      -0.2345      1.00000
    402      -0.2316      1.00000
    403      -0.2272      1.00000
    404      -0.2193      1.00000
    405      -0.2120      1.00000
    406      -0.2071      1.00000
    407      -0.2024      1.00000
    408      -0.1954      1.00000
    409      -0.1931      1.00000
    410      -0.1921      1.00000
    411      -0.1840      1.00000
    412      -0.1793      1.00000
    413      -0.1696      1.00000
    414      -0.1370      1.00000
    415      -0.1076      1.00000
    416      -0.0938      1.00000
    417      -0.0809      1.00000
    418      -0.0762      1.00000
    419      -0.0738      1.00000
    420      -0.0657      1.00000
    421      -0.0623      1.00000
    422      -0.0588      1.00000
    423      -0.0469      1.00000
    424      -0.0398      1.00000
    425      -0.0359      1.00000
    426      -0.0323      1.00000
    427      -0.0301      1.00000
    428      -0.0270      1.00000
    429      -0.0214      1.00000
    430      -0.0202      1.00000
    431      -0.0180      1.00000
    432      -0.0152      1.00000
    433      -0.0119      1.00000
    434      -0.0098      1.00000
    435      -0.0069      1.00000
    436      -0.0044      1.00000
    437       0.0066      1.00000
    438       0.0110      1.00000
    439       0.0133      1.00000
    440       0.0190      1.00000
    441       0.0208      1.00000
    442       0.0382      1.00000
    443       0.0450      1.00000
    444       0.0530      1.00000
    445       0.0606      1.00000
    446       0.0632      1.00000
    447       0.0643      1.00000
    448       0.0696      1.00000
    449       0.0810      1.00000
    450       0.0879      1.00000
    451       0.0996      1.00000
    452       0.1148      1.00000
    453       0.1151      1.00000
    454       0.1187      1.00000
    455       0.1193      1.00000
    456       0.1278      1.00000
    457       0.1291      1.00000
    458       0.1413      1.00000
    459       0.1420      1.00000
    460       0.1433      1.00000
    461       0.1477      1.00000
    462       0.1510      1.00000
    463       0.1565      1.00000
    464       0.1587      1.00000
    465       0.1648      1.00000
    466       0.1680      1.00000
    467       0.1712      1.00000
    468       0.1745      1.00000
    469       0.1794      1.00000
    470       0.1807      1.00000
    471       0.1860      1.00000
    472       0.1881      1.00000
    473       0.1923      1.00000
    474       0.2024      1.00000
    475       0.2089      1.00000
    476       0.2178      1.00000
    477       0.2254      1.00000
    478       0.2264      1.00000
    479       0.2289      1.00000
    480       0.2442      1.00000
    481       0.2491      1.00000
    482       0.2596      1.00000
    483       0.2658      1.00000
    484       0.2819      1.00000
    485       0.2990      1.00000
    486       0.3062      1.00000
    487       0.3145      1.00000
    488       0.3178      1.00000
    489       0.3198      1.00000
    490       0.3225      1.00000
    491       0.3290      1.00000
    492       0.3318      1.00000
    493       0.3388      1.00000
    494       0.3474      1.00000
    495       0.3526      1.00000
    496       0.3618      1.00000
    497       0.3672      1.00000
    498       0.3849      1.00000
    499       0.3891      1.00000
    500       0.3958      1.00000
    501       0.4028      1.00000
    502       0.4094      1.00000
    503       0.4219      1.00000
    504       0.4232      1.00000
    505       0.4271      1.00000
    506       0.4297      1.00000
    507       0.4353      1.00000
    508       0.4386      1.00000
    509       0.4435      1.00000
    510       0.4499      1.00000
    511       0.4672      1.00000
    512       0.4697      1.00000
    513       0.4744      1.00000
    514       0.4791      1.00000
    515       0.4897      1.00000
    516       0.4946      1.00000
    517       0.4970      1.00000
    518       0.5077      1.00000
    519       0.5107      1.00000
    520       0.5140      1.00000
    521       0.5198      1.00000
    522       0.5207      1.00000
    523       0.5241      1.00000
    524       0.5253      1.00000
    525       0.5270      1.00000
    526       0.5328      1.00000
    527       0.5344      1.00000
    528       0.5378      1.00000
    529       0.5430      1.00000
    530       0.5514      1.00000
    531       0.5618      1.00000
    532       0.5642      1.00000
    533       0.5750      1.00000
    534       0.5848      1.00000
    535       0.5864      1.00000
    536       0.5891      1.00000
    537       0.5939      1.00000
    538       0.6051      1.00000
    539       0.6108      1.00000
    540       0.6150      1.00000
    541       0.6174      1.00000
    542       0.6212      1.00000
    543       0.6261      1.00000
    544       0.6288      1.00000
    545       0.6326      1.00000
    546       0.6489      1.00000
    547       0.6548      1.00000
    548       0.6619      1.00000
    549       0.6661      1.00000
    550       0.6770      1.00000
    551       0.6892      1.00000
    552       0.6973      1.00000
    553       0.7012      1.00000
    554       0.7044      1.00000
    555       0.7064      1.00000
    556       0.7066      1.00000
    557       0.7113      1.00000
    558       0.7245      1.00000
    559       0.7386      1.00000
    560       0.7447      1.00000
    561       0.7689      1.00000
    562       0.7930      1.00000
    563       0.8088      1.00000
    564       0.8093      1.00000
    565       0.8138      1.00000
    566       0.8172      1.00000
    567       0.8294      1.00000
    568       0.8394      1.00000
    569       0.8516      1.00000
    570       0.8566      1.00000
    571       0.8621      1.00000
    572       0.8672      1.00000
    573       0.8717      1.00000
    574       0.8729      1.00000
    575       0.8761      1.00000
    576       0.8803      1.00000
    577       0.8960      1.00000
    578       0.9010      1.00000
    579       0.9019      1.00000
    580       0.9072      1.00000
    581       0.9088      1.00000
    582       0.9107      1.00000
    583       0.9152      1.00000
    584       0.9208      1.00000
    585       0.9242      1.00000
    586       0.9278      1.00000
    587       0.9289      1.00000
    588       0.9375      1.00000
    589       0.9430      1.00000
    590       0.9485      1.00000
    591       0.9498      1.00000
    592       0.9529      1.00000
    593       0.9540      1.00000
    594       0.9639      1.00000
    595       0.9695      1.00000
    596       0.9767      1.00000
    597       0.9802      1.00000
    598       0.9839      1.00000
    599       1.0057      1.00000
    600       1.0220      1.00000
    601       1.0241      1.00000
    602       1.0254      1.00000
    603       1.0289      1.00000
    604       1.0363      1.00000
    605       1.0402      1.00000
    606       1.0496      1.00000
    607       1.0518      1.00000
    608       1.0521      1.00000
    609       1.0597      1.00000
    610       1.0644      1.00000
    611       1.0658      1.00000
    612       1.0708      0.99999
    613       1.0737      0.99999
    614       1.0748      0.99999
    615       1.0855      0.99999
    616       1.0970      0.99999
    617       1.1198      0.99997
    618       1.1455      0.99995
    619       1.1558      0.99993
    620       1.1611      0.99992
    621       1.1624      0.99992
    622       1.1657      0.99991
    623       1.1944      0.99981
    624       1.2027      0.99977
    625       1.2068      0.99974
    626       1.2087      0.99973
    627       1.2096      0.99972
    628       1.2125      0.99970
    629       1.2143      0.99969
    630       1.2245      0.99961
    631       1.2355      0.99951
    632       1.2465      0.99938
    633       1.2560      0.99924
    634       1.2751      0.99890
    635       1.3136      0.99790
    636       1.3787      0.99559
    637       1.4394      0.99597
    638       1.4517      0.99700
    639       1.4649      0.99868
    640       1.6092      1.05049
    641       1.6251      1.05149
    642       1.6417      1.04752
    643       1.6998      0.97234
    644       1.7773      0.68359
    645       1.8540      0.28971
    646       1.9181      0.04722
    647       2.0262     -0.04820
    648       2.0650     -0.03203
    649       2.2080      0.00487
    650       2.2324      0.00478
    651       2.2409      0.00458
    652       2.3137      0.00205
    653       2.3750      0.00068
    654       2.5374      0.00001
    655       2.5943      0.00000
    656       2.8454      0.00000
    657       2.8502      0.00000
    658       2.8546      0.00000
    659       2.8611      0.00000
    660       2.8788      0.00000
    661       2.8800      0.00000
    662       2.8964      0.00000
    663       2.9063      0.00000
    664       2.9645      0.00000
    665       3.0144      0.00000
    666       3.2110      0.00000
    667       3.2166      0.00000
    668       3.2206      0.00000
    669       3.2254      0.00000
    670       3.2302      0.00000
    671       3.2511      0.00000
    672       3.2822      0.00000
    673       3.2987      0.00000
    674       3.3668      0.00000
    675       3.3946      0.00000
    676       3.5366      0.00000
    677       3.6801      0.00000
    678       3.7236      0.00000
    679       4.0302      0.00000
    680       4.0315      0.00000
    681       4.0363      0.00000
    682       4.0474      0.00000
    683       4.0494      0.00000
    684       4.0524      0.00000
    685       4.0632      0.00000
    686       4.0812      0.00000
    687       4.1207      0.00000
    688       4.1292      0.00000
    689       4.1361      0.00000
    690       4.1431      0.00000
    691       4.2359      0.00000
    692       4.2645      0.00000
    693       4.3502      0.00000
    694       4.4172      0.00000
    695       4.4301      0.00000
    696       4.4348      0.00000
    697       4.4812      0.00000
    698       4.4919      0.00000
    699       4.6299      0.00000
    700       4.6444      0.00000
    701       4.7862      0.00000
    702       4.9259      0.00000
    703       4.9618      0.00000
    704       5.0581      0.00000
    705       5.0981      0.00000
    706       5.1446      0.00000
    707       5.2167      0.00000
    708       5.3876      0.00000
    709       5.4045      0.00000
    710       5.4970      0.00000
    711       5.4987      0.00000
    712       5.5568      0.00000
    713       5.5905      0.00000
    714       5.6549      0.00000
    715       5.6695      0.00000
    716       5.8005      0.00000
    717       5.9057      0.00000
    718       6.0262      0.00000
    719       6.0641      0.00000
    720       6.1981      0.00000
    721       6.4081      0.00000
    722       6.4831      0.00000
    723       6.6891      0.00000
    724       6.7569      0.00000
    725       6.8006      0.00000
    726       6.9818      0.00000
    727       7.0208      0.00000
    728       7.1063      0.00000
    729       7.1080      0.00000
    730       7.1875      0.00000
    731       7.2108      0.00000
    732       7.2660      0.00000
    733       7.3051      0.00000
    734       7.3678      0.00000
    735       7.4519      0.00000
    736       7.5936      0.00000

 spin component 2

 k-point   1 :       0.0000    0.0000    0.0000
  band No.  band energies     occupation 
      1     -16.8473      1.00000
      2      -6.8703      1.00000
      3      -5.9716      1.00000
      4      -5.9353      1.00000
      5      -5.9191      1.00000
      6      -5.2681      1.00000
      7      -5.2604      1.00000
      8      -5.0863      1.00000
      9      -5.0631      1.00000
     10      -4.8569      1.00000
     11      -4.8512      1.00000
     12      -4.5696      1.00000
     13      -4.4708      1.00000
     14      -4.4481      1.00000
     15      -4.1164      1.00000
     16      -4.0869      1.00000
     17      -4.0841      1.00000
     18      -4.0745      1.00000
     19      -3.7925      1.00000
     20      -3.7456      1.00000
     21      -3.6261      1.00000
     22      -3.6044      1.00000
     23      -3.5050      1.00000
     24      -3.4223      1.00000
     25      -3.3503      1.00000
     26      -3.2712      1.00000
     27      -3.2596      1.00000
     28      -3.2109      1.00000
     29      -3.1036      1.00000
     30      -3.0625      1.00000
     31      -3.0501      1.00000
     32      -3.0219      1.00000
     33      -2.9659      1.00000
     34      -2.9255      1.00000
     35      -2.8172      1.00000
     36      -2.7592      1.00000
     37      -2.5795      1.00000
     38      -2.5420      1.00000
     39      -2.5175      1.00000
     40      -2.4392      1.00000
     41      -2.4355      1.00000
     42      -2.3918      1.00000
     43      -2.3485      1.00000
     44      -2.2968      1.00000
     45      -2.2909      1.00000
     46      -2.2799      1.00000
     47      -2.2733      1.00000
     48      -2.2298      1.00000
     49      -2.1470      1.00000
     50      -2.1431      1.00000
     51      -2.1415      1.00000
     52      -2.0949      1.00000
     53      -2.0913      1.00000
     54      -2.0757      1.00000
     55      -2.0749      1.00000
     56      -2.0125      1.00000
     57      -2.0094      1.00000
     58      -1.9662      1.00000
     59      -1.9511      1.00000
     60      -1.9303      1.00000
     61      -1.9088      1.00000
     62      -1.9075      1.00000
     63      -1.8942      1.00000
     64      -1.8938      1.00000
     65      -1.8923      1.00000
     66      -1.8851      1.00000
     67      -1.8838      1.00000
     68      -1.8822      1.00000
     69      -1.8702      1.00000
     70      -1.8643      1.00000
     71      -1.7946      1.00000
     72      -1.7788      1.00000
     73      -1.7747      1.00000
     74      -1.7614      1.00000
     75      -1.6872      1.00000
     76      -1.6845      1.00000
     77      -1.6774      1.00000
     78      -1.6762      1.00000
     79      -1.6454      1.00000
     80      -1.6082      1.00000
     81      -1.5989      1.00000
     82      -1.5785      1.00000
     83      -1.5505      1.00000
     84      -1.5173      1.00000
     85      -1.5038      1.00000
     86      -1.4628      1.00000
     87      -1.4597      1.00000
     88      -1.4548      1.00000
     89      -1.4475      1.00000
     90      -1.4363      1.00000
     91      -1.4296      1.00000
     92      -1.4288      1.00000
     93      -1.4098      1.00000
     94      -1.4092      1.00000
     95      -1.3847      1.00000
     96      -1.3777      1.00000
     97      -1.3673      1.00000
     98      -1.3633      1.00000
     99      -1.3536      1.00000
    100      -1.3373      1.00000
    101      -1.3340      1.00000
    102      -1.3180      1.00000
    103      -1.3122      1.00000
    104      -1.3035      1.00000
    105      -1.2959      1.00000
    106      -1.2769      1.00000
    107      -1.2715      1.00000
    108      -1.2589      1.00000
    109      -1.2524      1.00000
    110      -1.2382      1.00000
    111      -1.2107      1.00000
    112      -1.1715      1.00000
    113      -1.1688      1.00000
    114      -1.1205      1.00000
    115      -1.1033      1.00000
    116      -1.0992      1.00000
    117      -1.0963      1.00000
    118      -1.0932      1.00000
    119      -1.0852      1.00000
    120      -1.0751      1.00000
    121      -1.0662      1.00000
    122      -1.0639      1.00000
    123      -1.0597      1.00000
    124      -1.0219      1.00000
    125      -1.0095      1.00000
    126      -1.0005      1.00000
    127      -0.9850      1.00000
    128      -0.9685      1.00000
    129      -0.8845      1.00000
    130      -0.8793      1.00000
    131      -0.8691      1.00000
    132      -0.8671      1.00000
    133      -0.8651      1.00000
    134      -0.8614      1.00000
    135      -0.8525      1.00000
    136      -0.8400      1.00000
    137      -0.8329      1.00000
    138      -0.8214      1.00000
    139      -0.8151      1.00000
    140      -0.8132      1.00000
    141      -0.7973      1.00000
    142      -0.7913      1.00000
    143      -0.7569      1.00000
    144      -0.7553      1.00000
    145      -0.7499      1.00000
    146      -0.7390      1.00000
    147      -0.7277      1.00000
    148      -0.7208      1.00000
    149      -0.7201      1.00000
    150      -0.6820      1.00000
    151      -0.6454      1.00000
    152      -0.6422      1.00000
    153      -0.6379      1.00000
    154      -0.6345      1.00000
    155      -0.6135      1.00000
    156      -0.6065      1.00000
    157      -0.6002      1.00000
    158      -0.5922      1.00000
    159      -0.5762      1.00000
    160      -0.5609      1.00000
    161      -0.5556      1.00000
    162      -0.5230      1.00000
    163      -0.5155      1.00000
    164      -0.5071      1.00000
    165      -0.5027      1.00000
    166      -0.4885      1.00000
    167      -0.4854      1.00000
    168      -0.4688      1.00000
    169      -0.4633      1.00000
    170      -0.4554      1.00000
    171      -0.4535      1.00000
    172      -0.4513      1.00000
    173      -0.4234      1.00000
    174      -0.3989      1.00000
    175      -0.3982      1.00000
    176      -0.3915      1.00000
    177      -0.3768      1.00000
    178      -0.3643      1.00000
    179      -0.3533      1.00000
    180      -0.3487      1.00000
    181      -0.3412      1.00000
    182      -0.2968      1.00000
    183      -0.2928      1.00000
    184      -0.2840      1.00000
    185      -0.2827      1.00000
    186      -0.2783      1.00000
    187      -0.2721      1.00000
    188      -0.2578      1.00000
    189      -0.2517      1.00000
    190      -0.2259      1.00000
    191      -0.2220      1.00000
    192      -0.2193      1.00000
    193      -0.2157      1.00000
    194      -0.1615      1.00000
    195      -0.1568      1.00000
    196      -0.1478      1.00000
    197      -0.1419      1.00000
    198      -0.1373      1.00000
    199      -0.1346      1.00000
    200      -0.1332      1.00000
    201      -0.1264      1.00000
    202      -0.0792      1.00000
    203      -0.0741      1.00000
    204      -0.0518      1.00000
    205      -0.0462      1.00000
    206      -0.0390      1.00000
    207      -0.0324      1.00000
    208      -0.0210      1.00000
    209      -0.0157      1.00000
    210      -0.0086      1.00000
    211      -0.0039      1.00000
    212       0.0090      1.00000
    213       0.0217      1.00000
    214       0.0448      1.00000
    215       0.0500      1.00000
    216       0.0804      1.00000
    217       0.0858      1.00000
    218       0.1276      1.00000
    219       0.1297      1.00000
    220       0.1334      1.00000
    221       0.1364      1.00000
    222       0.1395      1.00000
    223       0.1459      1.00000
    224       0.1502      1.00000
    225       0.1509      1.00000
    226       0.1543      1.00000
    227       0.2021      1.00000
    228       0.2103      1.00000
    229       0.2199      1.00000
    230       0.2242      1.00000
    231       0.2251      1.00000
    232       0.2263      1.00000
    233       0.2326      1.00000
    234       0.2346      1.00000
    235       0.2358      1.00000
    236       0.2402      1.00000
    237       0.2432      1.00000
    238       0.2483      1.00000
    239       0.2622      1.00000
    240       0.2667      1.00000
    241       0.2679      1.00000
    242       0.2779      1.00000
    243       0.2798      1.00000
    244       0.2909      1.00000
    245       0.3220      1.00000
    246       0.3309      1.00000
    247       0.3366      1.00000
    248       0.3397      1.00000
    249       0.3441      1.00000
    250       0.3502      1.00000
    251       0.3596      1.00000
    252       0.3684      1.00000
    253       0.3793      1.00000
    254       0.3876      1.00000
    255       0.4088      1.00000
    256       0.4275      1.00000
    257       0.4337      1.00000
    258       0.4424      1.00000
    259       0.4462      1.00000
    260       0.4522      1.00000
    261       0.4723      1.00000
    262       0.4762      1.00000
    263       0.4902      1.00000
    264       0.4913      1.00000
    265       0.4959      1.00000
    266       0.5074      1.00000
    267       0.5133      1.00000
    268       0.5293      1.00000
    269       0.5350      1.00000
    270       0.5379      1.00000
    271       0.5395      1.00000
    272       0.5406      1.00000
    273       0.5451      1.00000
    274       0.5522      1.00000
    275       0.5575      1.00000
    276       0.5613      1.00000
    277       0.5642      1.00000
    278       0.5684      1.00000
    279       0.5711      1.00000
    280       0.5765      1.00000
    281       0.5801      1.00000
    282       0.5862      1.00000
    283       0.6024      1.00000
    284       0.6048      1.00000
    285       0.6139      1.00000
    286       0.6398      1.00000
    287       0.6503      1.00000
    288       0.6567      1.00000
    289       0.6666      1.00000
    290       0.6789      1.00000
    291       0.6869      1.00000
    292       0.6930      1.00000
    293       0.6981      1.00000
    294       0.7091      1.00000
    295       0.7184      1.00000
    296       0.7251      1.00000
    297       0.7257      1.00000
    298       0.7318      1.00000
    299       0.7375      1.00000
    300       0.7395      1.00000
    301       0.7446      1.00000
    302       0.7473      1.00000
    303       0.7572      1.00000
    304       0.7676      1.00000
    305       0.7729      1.00000
    306       0.7805      1.00000
    307       0.7869      1.00000
    308       0.7909      1.00000
    309       0.7916      1.00000
    310       0.7963      1.00000
    311       0.8028      1.00000
    312       0.8063      1.00000
    313       0.8072      1.00000
    314       0.8082      1.00000
    315       0.8171      1.00000
    316       0.8189      1.00000
    317       0.8230      1.00000
    318       0.8278      1.00000
    319       0.8301      1.00000
    320       0.8434      1.00000
    321       0.8477      1.00000
    322       0.8530      1.00000
    323       0.8553      1.00000
    324       0.8570      1.00000
    325       0.8600      1.00000
    326       0.8635      1.00000
    327       0.8670      1.00000
    328       0.8693      1.00000
    329       0.8726      1.00000
    330       0.8797      1.00000
    331       0.8843      1.00000
    332       0.8902      1.00000
    333       0.8958      1.00000
    334       0.9284      1.00000
    335       0.9478      1.00000
    336       0.9640      1.00000
    337       0.9676      1.00000
    338       0.9715      1.00000
    339       0.9736      1.00000
    340       0.9761      1.00000
    341       0.9790      1.00000
    342       0.9802      1.00000
    343       0.9847      1.00000
    344       0.9882      1.00000
    345       0.9967      1.00000
    346       0.9972      1.00000
    347       1.0001      1.00000
    348       1.0085      1.00000
    349       1.0115      1.00000
    350       1.0126      1.00000
    351       1.0165      1.00000
    352       1.0206      1.00000
    353       1.0338      1.00000
    354       1.0361      1.00000
    355       1.0387      1.00000
    356       1.0406      1.00000
    357       1.0446      1.00000
    358       1.0532      1.00000
    359       1.0570      1.00000
    360       1.0586      1.00000
    361       1.0622      1.00000
    362       1.0662      1.00000
    363       1.0676      0.99999
    364       1.0700      0.99999
    365       1.0765      0.99999
    366       1.0859      0.99999
    367       1.0888      0.99999
    368       1.1112      0.99998
    369       1.1170      0.99998
    370       1.1320      0.99996
    371       1.1558      0.99993
    372       1.1622      0.99992
    373       1.1674      0.99990
    374       1.1748      0.99988
    375       1.1828      0.99986
    376       1.1919      0.99982
    377       1.1932      0.99981
    378       1.1982      0.99979
    379       1.2098      0.99972
    380       1.2195      0.99965
    381       1.2315      0.99955
    382       1.2414      0.99944
    383       1.2484      0.99935
    384       1.2624      0.99914
    385       1.2803      0.99879
    386       1.2977      0.99837
    387       1.3035      0.99821
    388       1.3110      0.99798
    389       1.3260      0.99749
    390       1.3356      0.99715
    391       1.3365      0.99711
    392       1.3403      0.99697
    393       1.3561      0.99638
    394       1.3626      0.99614
    395       1.3727      0.99579
    396       1.3733      0.99577
    397       1.3801      0.99555
    398       1.3856      0.99540
    399       1.3891      0.99531
    400       1.3918      0.99526
    401       1.3953      0.99519
    402       1.4014      0.99510
    403       1.4215      0.99520
    404       1.4352      0.99571
    405       1.4567      0.99756
    406       1.4638      0.99852
    407       1.4886      1.00345
    408       1.4936      1.00477
    409       1.4986      1.00621
    410       1.5105      1.01006
    411       1.5148      1.01161
    412       1.5168      1.01239
    413       1.5379      1.02122
    414       1.5418      1.02298
    415       1.5446      1.02432
    416       1.5571      1.03026
    417       1.5614      1.03234
    418       1.5685      1.03574
    419       1.5700      1.03643
    420       1.5894      1.04479
    421       1.5940      1.04642
    422       1.6049      1.04960
    423       1.6402      1.04815
    424       1.6435      1.04674
    425       1.6482      1.04426
    426       1.6649      1.03051
    427       1.6952      0.98240
    428       1.7001      0.97158
    429       1.7363      0.86248
    430       1.7470      0.82095
    431       1.7484      0.81481
    432       1.7503      0.80733
    433       1.7657      0.73930
    434       1.7716      0.71126
    435       1.7845      0.64805
    436       1.7924      0.60768
    437       1.7960      0.58887
    438       1.7977      0.58004
    439       1.8040      0.54713
    440       1.8108      0.51094
    441       1.8136      0.49602
    442       1.8189      0.46814
    443       1.8269      0.42616
    444       1.8287      0.41664
    445       1.8306      0.40704
    446       1.8354      0.38235
    447       1.8385      0.36605
    448       1.8402      0.35756
    449       1.8412      0.35258
    450       1.8425      0.34593
    451       1.8450      0.33360
    452       1.8545      0.28734
    453       1.8554      0.28292
    454       1.8589      0.26615
    455       1.8629      0.24813
    456       1.8865      0.14868
    457       1.8928      0.12553
    458       1.9147      0.05631
    459       1.9235      0.03348
    460       1.9326      0.01327
    461       1.9369      0.00485
    462       1.9420     -0.00446
    463       1.9506     -0.01781
    464       1.9575     -0.02675
    465       1.9808     -0.04602
    466       1.9845     -0.04772
    467       1.9955     -0.05087
    468       2.0099     -0.05140
    469       2.0358     -0.04499
    470       2.0379     -0.04418
    471       2.0429     -0.04219
    472       2.0484     -0.03980
    473       2.0575     -0.03562
    474       2.0618     -0.03359
    475       2.0694     -0.02994
    476       2.0762     -0.02664
    477       2.0940     -0.01847
    478       2.0946     -0.01825
    479       2.1005     -0.01572
    480       2.1039     -0.01436
    481       2.1051     -0.01386
    482       2.1106     -0.01176
    483       2.1117     -0.01138
    484       2.1155     -0.00999
    485       2.1221     -0.00777
    486       2.1332     -0.00449
    487       2.1355     -0.00387
    488       2.1712      0.00268
    489       2.1730      0.00289
    490       2.1840      0.00387
    491       2.1872      0.00408
    492       2.2076      0.00486
    493       2.2122      0.00492
    494       2.2140      0.00493
    495       2.2192      0.00493
    496       2.2212      0.00492
    497       2.2257      0.00488
    498       2.2283      0.00485
    499       2.2339      0.00475
    500       2.2373      0.00467
    501       2.2425      0.00454
    502       2.2462      0.00443
    503       2.2513      0.00427
    504       2.2530      0.00422
    505       2.2622      0.00390
    506       2.2786      0.00328
    507       2.2833      0.00311
    508       2.2865      0.00299
    509       2.2947      0.00269
    510       2.2953      0.00267
    511       2.2980      0.00257
    512       2.3028      0.00241
    513       2.3047      0.00234
    514       2.3100      0.00217
    515       2.3145      0.00203
    516       2.3234      0.00176
    517       2.3325      0.00152
    518       2.3407      0.00131
    519       2.3431      0.00126
    520       2.3570      0.00097
    521       2.3600      0.00092
    522       2.3693      0.00077
    523       2.3700      0.00076
    524       2.3777      0.00065
    525       2.3805      0.00061
    526       2.3875      0.00053
    527       2.3926      0.00047
    528       2.4013      0.00039
    529       2.4086      0.00033
    530       2.4177      0.00027
    531       2.4201      0.00025
    532       2.4262      0.00022
    533       2.4329      0.00019
    534       2.4393      0.00016
    535       2.4422      0.00015
    536       2.4460      0.00013
    537       2.4528      0.00011
    538       2.4715      0.00007
    539       2.4728      0.00007
    540       2.4822      0.00005
    541       2.4864      0.00005
    542       2.5001      0.00003
    543       2.5038      0.00003
    544       2.5125      0.00002
    545       2.5148      0.00002
    546       2.5194      0.00002
    547       2.5198      0.00002
    548       2.5231      0.00002
    549       2.5293      0.00001
    550       2.5304      0.00001
    551       2.5388      0.00001
    552       2.5579      0.00001
    553       2.5595      0.00000
    554       2.5780      0.00000
    555       2.5868      0.00000
    556       2.6155      0.00000
    557       2.6239      0.00000
    558       2.6338      0.00000
    559       2.6444      0.00000
    560       2.6554      0.00000
    561       2.6597      0.00000
    562       2.6628      0.00000
    563       2.6707      0.00000
    564       2.6792      0.00000
    565       2.6839      0.00000
    566       2.6867      0.00000
    567       2.6920      0.00000
    568       2.6944      0.00000
    569       2.6952      0.00000
    570       2.7101      0.00000
    571       2.7170      0.00000
    572       2.7515      0.00000
    573       2.7601      0.00000
    574       2.7659      0.00000
    575       2.7719      0.00000
    576       2.7755      0.00000
    577       2.7847      0.00000
    578       2.7961      0.00000
    579       2.8016      0.00000
    580       2.8057      0.00000
    581       2.8074      0.00000
    582       2.8211      0.00000
    583       2.8259      0.00000
    584       2.8306      0.00000
    585       2.8339      0.00000
    586       2.8380      0.00000
    587       2.8396      0.00000
    588       2.8413      0.00000
    589       2.8460      0.00000
    590       2.8478      0.00000
    591       2.8494      0.00000
    592       2.8502      0.00000
    593       2.8505      0.00000
    594       2.8525      0.00000
    595       2.8589      0.00000
    596       2.8626      0.00000
    597       2.8661      0.00000
    598       2.8693      0.00000
    599       2.8760      0.00000
    600       2.8787      0.00000
    601       2.8801      0.00000
    602       2.8830      0.00000
    603       2.8872      0.00000
    604       2.8894      0.00000
    605       2.8904      0.00000
    606       2.9042      0.00000
    607       2.9168      0.00000
    608       2.9239      0.00000
    609       2.9301      0.00000
    610       2.9333      0.00000
    611       2.9361      0.00000
    612       2.9380      0.00000
    613       2.9416      0.00000
    614       2.9442      0.00000
    615       2.9446      0.00000
    616       2.9478      0.00000
    617       2.9487      0.00000
    618       2.9535      0.00000
    619       2.9546      0.00000
    620       2.9571      0.00000
    621       2.9736      0.00000
    622       2.9773      0.00000
    623       2.9792      0.00000
    624       2.9819      0.00000
    625       2.9837      0.00000
    626       2.9855      0.00000
    627       3.0204      0.00000
    628       3.0225      0.00000
    629       3.0262      0.00000
    630       3.0349      0.00000
    631       3.0356      0.00000
    632       3.0508      0.00000
    633       3.0524      0.00000
    634       3.0537      0.00000
    635       3.0596      0.00000
    636       3.0797      0.00000
    637       3.1031      0.00000
    638       3.1175      0.00000
    639       3.1324      0.00000
    640       3.1562      0.00000
    641       3.1584      0.00000
    642       3.1610      0.00000
    643       3.1773      0.00000
    644       3.2139      0.00000
    645       3.3086      0.00000
    646       3.3235      0.00000
    647       3.3679      0.00000
    648       3.3861      0.00000
    649       3.4029      0.00000
    650       3.4531      0.00000
    651       3.4975      0.00000
    652       3.5925      0.00000
    653       3.6291      0.00000
    654       3.7550      0.00000
    655       3.8010      0.00000
    656       3.9729      0.00000
    657       3.9854      0.00000
    658       4.0627      0.00000
    659       4.0725      0.00000
    660       4.1372      0.00000
    661       4.1402      0.00000
    662       4.1489      0.00000
    663       4.1546      0.00000
    664       4.1576      0.00000
    665       4.1799      0.00000
    666       4.1892      0.00000
    667       4.2933      0.00000
    668       4.3129      0.00000
    669       4.3312      0.00000
    670       4.3483      0.00000
    671       4.4122      0.00000
    672       4.4179      0.00000
    673       4.4278      0.00000
    674       4.4775      0.00000
    675       4.5214      0.00000
    676       4.5463      0.00000
    677       4.6405      0.00000
    678       4.6583      0.00000
    679       4.7168      0.00000
    680       4.7209      0.00000
    681       4.7994      0.00000
    682       4.8394      0.00000
    683       4.8545      0.00000
    684       4.9457      0.00000
    685       4.9502      0.00000
    686       4.9539      0.00000
    687       4.9564      0.00000
    688       4.9683      0.00000
    689       4.9822      0.00000
    690       5.0053      0.00000
    691       5.0133      0.00000
    692       5.0191      0.00000
    693       5.0871      0.00000
    694       5.1383      0.00000
    695       5.1671      0.00000
    696       5.1777      0.00000
    697       5.1891      0.00000
    698       5.2001      0.00000
    699       5.5664      0.00000
    700       5.6873      0.00000
    701       5.6966      0.00000
    702       5.7071      0.00000
    703       5.7265      0.00000
    704       5.7745      0.00000
    705       5.8662      0.00000
    706       6.0579      0.00000
    707       6.0673      0.00000
    708       6.0844      0.00000
    709       6.1219      0.00000
    710       6.1457      0.00000
    711       6.1499      0.00000
    712       6.2154      0.00000
    713       6.2619      0.00000
    714       6.3290      0.00000
    715       6.3643      0.00000
    716       6.4766      0.00000
    717       6.5111      0.00000
    718       6.6105      0.00000
    719       6.7554      0.00000
    720       6.7725      0.00000
    721       6.7895      0.00000
    722       6.8716      0.00000
    723       7.0990      0.00000
    724       7.2656      0.00000
    725       7.3348      0.00000
    726       7.3411      0.00000
    727       7.3822      0.00000
    728       7.6387      0.00000
    729       7.6495      0.00000
    730       7.6573      0.00000
    731       7.6634      0.00000
    732       7.7083      0.00000
    733       7.7127      0.00000
    734       7.7454      0.00000
    735       7.8029      0.00000
    736       7.8563      0.00000


--------------------------------------------------------------------------------------------------------


 soft charge-density along one line, spin component           1
         0         1         2         3         4         5         6         7         8         9
 total charge-density along one line
 
 soft charge-density along one line, spin component           2
         0         1         2         3         4         5         6         7         8         9
 total charge-density along one line
 
 pseudopotential strength for first ion, spin component:           1
 -6.358  -0.003  -0.000  -0.024   0.002  -6.785  -0.003  -0.000
 -0.003  -6.415  -0.004  -0.002  -0.026  -0.003  -6.840  -0.004
 -0.000  -0.004  -6.417  -0.002  -0.007  -0.000  -0.004  -6.842
 -0.024  -0.002  -0.002  -6.426  -0.006  -0.023  -0.002  -0.002
  0.002  -0.026  -0.007  -0.006  -6.372   0.002  -0.025  -0.007
 -6.785  -0.003  -0.000  -0.023   0.002  -7.160  -0.003  -0.000
 -0.003  -6.840  -0.004  -0.002  -0.025  -0.003  -7.213  -0.004
 -0.000  -0.004  -6.842  -0.002  -0.007  -0.000  -0.004  -7.215
 -0.023  -0.002  -0.002  -6.850  -0.006  -0.022  -0.002  -0.002
  0.002  -0.025  -0.007  -0.006  -6.798   0.001  -0.024  -0.006
  0.000   0.000   0.005   0.001  -0.000   0.000   0.000   0.005
  0.001   0.000   0.009   0.002  -0.001   0.001   0.000   0.009
 -0.000  -0.001  -0.000  -0.000  -0.001  -0.000  -0.001  -0.000
 -0.000   0.000   0.007  -0.000   0.000  -0.000   0.000   0.007
 -0.000  -0.000   0.000  -0.001  -0.000  -0.000  -0.000   0.000
 -0.000   0.001  -0.000  -0.000  -0.002  -0.000   0.001  -0.000
 -0.000   0.000   0.011  -0.000   0.000  -0.000   0.000   0.011
 -0.000  -0.000   0.000   0.001  -0.000  -0.000  -0.000   0.000
 pseudopotential strength for first ion, spin component:           2
 -4.994  -0.004  -0.003   0.020  -0.001  -5.479  -0.004  -0.003
 -0.004  -4.976   0.003   0.002   0.021  -0.004  -5.461   0.003
 -0.003   0.003  -4.999  -0.002   0.010  -0.003   0.003  -5.483
  0.020   0.002  -0.002  -4.974  -0.002   0.019   0.002  -0.002
 -0.001   0.021   0.010  -0.002  -4.995  -0.001   0.021   0.010
 -5.479  -0.004  -0.003   0.019  -0.001  -5.910  -0.004  -0.003
 -0.004  -5.461   0.003   0.002   0.021  -0.004  -5.892   0.003
 -0.003   0.003  -5.483  -0.002   0.010  -0.003   0.003  -5.914
  0.019   0.002  -0.002  -5.459  -0.002   0.019   0.002  -0.002
 -0.001   0.021   0.010  -0.002  -5.480  -0.001   0.020   0.009
 -0.001  -0.000  -0.002   0.001   0.001  -0.001  -0.000  -0.002
 -0.001  -0.000  -0.003   0.001   0.002  -0.001  -0.000  -0.003
 -0.000  -0.006  -0.000   0.000  -0.000  -0.000  -0.006  -0.000
  0.000   0.000  -0.009  -0.000  -0.000   0.000   0.000  -0.008
  0.000   0.000   0.000  -0.006  -0.000   0.000   0.000   0.000
 -0.000  -0.006  -0.000   0.000   0.000  -0.000  -0.005  -0.000
  0.000   0.000  -0.010  -0.000  -0.000   0.000   0.000  -0.010
  0.001   0.000   0.000  -0.006  -0.000   0.001   0.000   0.000
 total augmentation occupancy for first ion, spin component:           1
  2.701  -0.008  -0.037   0.054  -0.010  -1.327   0.007   0.027  -0.031   0.011   0.001   0.000  -0.000   0.004   0.024   0.000
 -0.008   2.734  -0.005  -0.002   0.053   0.007  -1.164  -0.002  -0.001  -0.034  -0.003  -0.001  -0.179  -0.001  -0.000   0.009
 -0.037  -0.005   2.819  -0.004   0.046   0.027  -0.002  -1.311   0.003  -0.038   0.339   0.018  -0.003  -0.121   0.001   0.000
  0.054  -0.002  -0.004   2.713  -0.008  -0.032  -0.001   0.003  -1.158   0.004   0.000   0.001  -0.002  -0.000  -0.178   0.000
 -0.010   0.053   0.046  -0.008   2.516   0.011  -0.033  -0.037   0.004  -1.208  -0.039  -0.007   0.026  -0.005  -0.001  -0.001
 -1.327   0.007   0.027  -0.032   0.011   1.529  -0.006  -0.021  -0.018  -0.009  -0.001  -0.000   0.000  -0.003  -0.032  -0.000
  0.007  -1.164  -0.002  -0.001  -0.033  -0.006   1.135   0.003   0.001  -0.016   0.002   0.000   0.190   0.001   0.001  -0.021
  0.027  -0.002  -1.311   0.003  -0.037  -0.021   0.003   1.357  -0.002   0.024  -0.430   0.018   0.001   0.232  -0.001  -0.000
 -0.031  -0.001   0.003  -1.158   0.004  -0.018   0.001  -0.002   1.133  -0.004  -0.001  -0.001   0.001   0.000   0.190  -0.000
  0.011  -0.034  -0.038   0.004  -1.208  -0.009  -0.016   0.024  -0.004   1.445   0.029   0.006  -0.034   0.004   0.001   0.002
  0.001  -0.003   0.339   0.000  -0.039  -0.001   0.002  -0.430  -0.001   0.029   2.052  -0.192  -0.001   0.189  -0.000   0.000
  0.000  -0.001   0.018   0.001  -0.007  -0.000   0.000   0.018  -0.001   0.006  -0.192   0.028  -0.000  -0.033  -0.000  -0.000
 -0.000  -0.179  -0.003  -0.002   0.026   0.000   0.190   0.001   0.001  -0.034  -0.001  -0.000   0.268   0.001   0.000  -0.024
  0.004  -0.001  -0.121  -0.000  -0.005  -0.003   0.001   0.232   0.000   0.004   0.189  -0.033   0.001   0.174   0.001  -0.000
  0.024  -0.000   0.001  -0.178  -0.001  -0.032   0.001  -0.001   0.190   0.001  -0.000  -0.000   0.000   0.001   0.259   0.000
  0.000   0.009   0.000   0.000  -0.001  -0.000  -0.021  -0.000  -0.000   0.002   0.000  -0.000  -0.024  -0.000   0.000   0.002
  0.000   0.000  -0.008   0.000   0.000  -0.000  -0.000  -0.015   0.000  -0.000  -0.031   0.004  -0.000  -0.017   0.000  -0.000
 -0.001   0.000  -0.000   0.008   0.000   0.002  -0.000   0.000  -0.021   0.000  -0.000  -0.000   0.000   0.000  -0.023   0.000
 total augmentation occupancy for first ion, spin component:           2
  2.008  -0.008  -0.038   0.059  -0.016  -0.950   0.005   0.028  -0.015   0.012  -0.002   0.000  -0.001   0.003   0.003   0.000
 -0.008   2.012   0.015   0.007   0.068   0.005  -0.914  -0.006  -0.002  -0.019  -0.005  -0.001   0.003   0.000  -0.002  -0.009
 -0.038   0.015   2.031  -0.002   0.063   0.028  -0.006  -0.940   0.002  -0.035   0.023   0.050   0.003  -0.049  -0.000  -0.000
  0.059   0.007  -0.002   2.023   0.004  -0.015  -0.002   0.002  -0.914  -0.000   0.002   0.002  -0.000  -0.000   0.002  -0.000
 -0.016   0.068   0.063   0.004   1.891   0.012  -0.018  -0.035   0.000  -0.849  -0.022  -0.007   0.005  -0.004  -0.001  -0.000
 -0.950   0.005   0.028  -0.015   0.012   0.248  -0.003  -0.019   0.006  -0.010  -0.000  -0.001   0.000  -0.003   0.002  -0.000
  0.005  -0.914  -0.006  -0.002  -0.018  -0.003   0.246   0.003   0.001   0.007   0.004   0.000  -0.006  -0.001   0.001   0.006
  0.028  -0.006  -0.940   0.002  -0.035  -0.019   0.003   0.260  -0.002   0.021   0.017  -0.031  -0.001  -0.004  -0.000   0.000
 -0.015  -0.002   0.002  -0.914   0.000   0.006   0.001  -0.002   0.243  -0.001  -0.001  -0.001   0.001   0.000  -0.006   0.000
  0.012  -0.019  -0.035  -0.000  -0.849  -0.010   0.007   0.021  -0.001   0.175   0.016   0.004   0.001   0.002   0.000  -0.000
 -0.002  -0.005   0.023   0.002  -0.022  -0.000   0.004   0.017  -0.001   0.016  -0.275   0.083   0.000  -0.021  -0.001  -0.000
  0.000  -0.001   0.050   0.002  -0.007  -0.001   0.000  -0.031  -0.001   0.004   0.083  -0.011  -0.000   0.006  -0.000   0.000
 -0.001   0.003   0.003  -0.000   0.005   0.000  -0.006  -0.001   0.001   0.001   0.000  -0.000  -0.025   0.000  -0.000   0.004
  0.003   0.000  -0.049  -0.000  -0.004  -0.003  -0.001  -0.004   0.000   0.002  -0.021   0.006   0.000  -0.021   0.001  -0.000
  0.003  -0.002  -0.000   0.002  -0.001   0.002   0.001  -0.000  -0.006   0.000  -0.001  -0.000  -0.000   0.001  -0.031   0.000
  0.000  -0.009  -0.000  -0.000  -0.000  -0.000   0.006   0.000   0.000  -0.000  -0.000   0.000   0.004  -0.000   0.000  -0.000
  0.000   0.000  -0.014   0.000  -0.000  -0.000  -0.000   0.009  -0.000   0.000   0.003  -0.002  -0.000   0.003  -0.000   0.000
  0.000   0.000   0.000  -0.009   0.000  -0.000  -0.000  -0.000   0.006  -0.000   0.000  -0.000   0.000  -0.000   0.004  -0.000


------------------------ aborting loop because EDIFF is reached ----------------------------------------


    CHARGE:  cpu time    1.07: real time    1.07
    FORLOC:  cpu time    0.08: real time    0.08
    FORNL :  cpu time    3.01: real time    3.01
    STRESS:  cpu time    8.72: real time    8.81
    FORCOR:  cpu time    0.39: real time    0.39
    FORHAR:  cpu time    0.11: real time    0.11
    MIXING:  cpu time    0.01: real time    0.01

  FORCE on cell =-STRESS in cart. coord.  units (eV):
  Direction    XX          YY          ZZ          XY          YZ          ZX
  --------------------------------------------------------------------------------------
  Alpha Z  2067.85644  2067.85644  2067.85644
  Ewald  484374.77315484380.90161************     3.47104     6.86193     3.41244
  Hartree508646.46571508649.20389************     6.45445    -1.40776    -1.45805
  E(xc)   -5564.32320 -5564.09131 -5570.93594    -0.16383     0.43043     0.28108
  Local  ************************************   -19.54745     8.56457     7.80984
  n-local  -668.47280  -629.98309  -703.30639     6.16858     3.10432     2.18948
  augment 18701.08200 18692.64527 18674.46652     4.01977   -10.82476    -8.00672
  Kinetic  9176.41461  9190.72928  9252.46756     3.41846    -8.06774    -4.63601
  Fock        0.00000     0.00000     0.00000     0.00000     0.00000     0.00000
  -------------------------------------------------------------------------------------
  Total     -62.23894   -30.82600   -13.39943     3.82102    -1.33900    -0.40794
  in kB     -33.48229   -16.58327    -7.20840     2.05557    -0.72033    -0.21945
  external pressure =      -19.09 kB  Pullay stress =        0.00 kB


 VOLUME and BASIS-vectors are now :
 -----------------------------------------------------------------------------
  energy-cutoff  :      450.00
  volume of cell :     2978.23
      direct lattice vectors                 reciprocal lattice vectors
     9.956100464  0.000000000  0.000000000     0.100440931  0.057989601  0.000000000
    -7.467050076 12.933309555  0.000000000     0.000000000  0.077319730  0.000000000
     0.000000000  0.000000000 23.129100800     0.000000000  0.000000000  0.043235576

  length of vectors
     9.956100464 14.934099667 23.129100800     0.115979198  0.077319730  0.043235576


 FORCES acting on ions
    electron-ion (+dipol)            ewald-force                    non-local-force                 convergence-correction
 -----------------------------------------------------------------------------------------------
   -.242E-01 0.114E+00 0.306E+04   0.858E-02 -.140E+00 -.306E+04   0.185E-01 0.290E-01 -.135E+01   0.160E-02 -.359E-02 -.127E-01
   -.912E-03 0.127E+00 0.306E+04   -.281E-01 -.158E+00 -.306E+04   0.162E-01 0.471E-01 -.137E+01   0.245E-02 -.475E-02 -.921E-02
   -.195E-01 0.191E+00 0.306E+04   -.389E-04 -.203E+00 -.306E+04   0.222E-01 0.214E-01 -.129E+01   -.118E-02 -.374E-02 -.870E-02
   -.263E-01 0.117E+00 0.306E+04   0.291E-01 -.185E+00 -.306E+04   0.994E-02 0.726E-01 -.126E+01   -.285E-02 -.258E-02 -.121E-01
   -.910E-01 0.147E+00 0.306E+04   0.861E-01 -.190E+00 -.306E+04   0.363E-03 0.397E-01 -.138E+01   -.170E-02 0.159E-01 -.839E-02
   0.289E-01 0.972E-01 0.306E+04   -.343E-01 -.135E+00 -.306E+04   0.134E-01 0.305E-01 -.138E+01   0.126E-02 0.147E-01 -.746E-02
   0.459E-01 0.164E+00 0.306E+04   -.942E-01 -.204E+00 -.306E+04   0.428E-01 0.391E-01 -.139E+01   0.160E-02 0.138E-01 -.373E-02
   -.385E-01 0.252E+00 0.306E+04   0.260E-01 -.259E+00 -.306E+04   0.198E-01 0.393E-02 -.132E+01   -.115E-02 0.150E-01 -.493E-02
   -.155E+00 0.916E-01 0.306E+04   0.132E+00 -.110E+00 -.306E+04   0.172E-01 0.256E-01 -.132E+01   -.141E-02 0.186E-01 0.177E-02
   -.537E-01 0.885E-01 0.306E+04   0.880E-01 -.836E-01 -.306E+04   -.241E-01 -.224E-01 -.132E+01   0.138E-04 0.199E-01 -.157E-03
   0.951E-01 0.383E-01 0.306E+04   -.140E+00 -.889E-01 -.306E+04   0.312E-01 0.586E-01 -.135E+01   0.923E-03 0.201E-01 0.237E-02
   0.511E-01 0.945E-01 0.306E+04   -.791E-01 -.113E+00 -.306E+04   0.273E-01 -.192E-02 -.137E+01   0.491E-03 0.188E-01 0.435E-02
   -.110E+00 -.146E+00 0.306E+04   0.378E-01 0.106E+00 -.306E+04   0.651E-01 0.500E-01 -.140E+01   -.549E-03 0.384E-02 0.635E-02
   -.136E+00 -.101E+00 0.306E+04   0.124E+00 0.401E-01 -.306E+04   0.154E-01 0.679E-01 -.131E+01   -.563E-03 0.357E-02 0.434E-02
   0.515E-02 -.532E-01 0.306E+04   -.355E-01 -.152E-01 -.306E+04   0.333E-01 0.634E-01 -.130E+01   0.988E-03 0.323E-02 0.504E-02
   0.169E+00 -.689E-01 0.306E+04   -.116E+00 0.507E-01 -.306E+04   -.440E-01 0.228E-01 -.131E+01   0.133E-03 0.325E-02 0.676E-02
   0.883E-02 -.366E+00 0.306E+04   -.804E-02 0.321E+00 -.306E+04   0.109E-01 0.630E-01 -.129E+01   0.118E-02 -.148E-01 0.230E-02
   -.717E-01 -.238E+00 0.306E+04   0.328E-01 0.304E+00 -.306E+04   0.305E-01 -.634E-01 -.131E+01   -.141E-02 -.141E-01 0.899E-03
   -.236E-01 -.242E+00 0.306E+04   0.927E-02 0.232E+00 -.306E+04   0.190E-01 0.338E-01 -.130E+01   -.601E-03 -.156E-01 -.111E-04
   0.491E-01 -.232E+00 0.306E+04   -.495E-01 0.252E+00 -.306E+04   -.806E-02 0.858E-02 -.125E+01   0.826E-03 -.164E-01 0.131E-02
   -.379E-01 -.169E+00 0.306E+04   -.494E-02 0.157E+00 -.306E+04   0.396E-01 0.668E-01 -.129E+01   0.264E-02 -.189E-01 -.626E-02
   -.565E-01 -.224E+00 0.306E+04   0.715E-02 0.141E+00 -.306E+04   0.385E-01 0.907E-01 -.138E+01   0.411E-03 -.181E-01 -.508E-02
   0.607E-02 -.117E+00 0.306E+04   0.127E-02 0.130E+00 -.306E+04   -.686E-02 0.323E-01 -.138E+01   -.277E-02 -.185E-01 -.704E-02
   0.270E-01 -.860E-01 0.306E+04   -.236E-02 0.143E+00 -.306E+04   -.155E-01 -.344E-01 -.125E+01   -.283E-03 -.197E-01 -.835E-02
   -.340E-01 0.730E-01 0.155E+04   0.341E-01 -.747E-01 -.155E+04   -.364E-02 0.117E-01 -.469E+00   -.165E-03 -.131E-01 -.834E-02
   0.568E-01 0.613E-01 0.155E+04   -.670E-01 -.702E-01 -.155E+04   0.651E-02 0.680E-02 -.399E+00   0.453E-02 -.134E-01 -.877E-02
   0.220E-01 0.224E+00 0.155E+04   -.636E-02 -.223E+00 -.155E+04   -.161E-02 0.393E-01 -.413E+00   0.293E-03 -.119E-01 -.106E-01
   -.439E-01 0.174E+00 0.155E+04   0.353E-01 -.144E+00 -.155E+04   0.240E-01 0.534E-02 -.433E+00   -.466E-02 -.118E-01 -.105E-01
   -.206E+00 0.582E+00 0.155E+04   0.174E+00 -.638E+00 -.155E+04   0.351E-01 0.442E-01 -.479E+00   -.420E-02 0.163E-01 -.111E-01
   -.966E-01 0.248E+00 0.155E+04   0.112E+00 -.264E+00 -.155E+04   -.247E-01 0.432E-02 -.408E+00   0.169E-02 0.143E-01 -.928E-02
   0.255E+00 0.270E+00 0.155E+04   -.263E+00 -.292E+00 -.155E+04   0.959E-02 0.244E-01 -.422E+00   0.421E-02 0.134E-01 -.943E-02
   0.259E-01 0.609E+00 0.155E+04   -.662E-02 -.665E+00 -.155E+04   -.758E-02 0.487E-01 -.511E+00   -.168E-02 0.152E-01 -.113E-01
   -.119E+00 0.380E+00 0.155E+04   0.110E+00 -.428E+00 -.155E+04   0.169E-01 0.352E-01 -.525E+00   -.316E-02 0.257E-01 -.427E-02
   -.722E+00 0.932E-01 0.155E+04   0.705E+00 -.114E+00 -.155E+04   0.173E-01 0.787E-02 -.450E+00   -.257E-02 0.272E-01 -.366E-02
   0.145E+00 -.252E+00 0.155E+04   -.154E+00 0.191E+00 -.155E+04   0.101E-01 0.612E-01 -.446E+00   0.341E-02 0.269E-01 -.267E-02
   0.708E+00 0.120E+00 0.155E+04   -.678E+00 -.147E+00 -.155E+04   -.257E-01 0.164E-01 -.517E+00   0.231E-02 0.255E-01 -.282E-02
   0.267E+00 -.793E-01 0.155E+04   -.280E+00 0.505E-01 -.155E+04   0.886E-02 0.501E-01 -.536E+00   -.646E-03 0.106E-01 0.149E-02
   -.501E+00 -.854E-01 0.155E+04   0.501E+00 0.706E-01 -.155E+04   0.103E-01 0.239E-01 -.543E+00   -.256E-02 0.110E-01 0.152E-02
   -.509E+00 0.343E+00 0.155E+04   0.489E+00 -.342E+00 -.155E+04   0.200E-01 0.535E-02 -.464E+00   0.996E-03 0.127E-01 0.303E-02
   0.734E+00 0.344E+00 0.155E+04   -.709E+00 -.328E+00 -.155E+04   -.339E-01 -.264E-01 -.465E+00   0.220E-02 0.117E-01 0.213E-02
   0.162E+00 -.411E+00 0.155E+04   -.187E+00 0.397E+00 -.155E+04   0.348E-01 0.393E-01 -.454E+00   0.116E-02 -.147E-01 0.262E-02
   -.106E+00 -.634E+00 0.155E+04   0.124E+00 0.636E+00 -.155E+04   -.598E-02 0.554E-01 -.615E+00   -.171E-02 -.135E-01 0.136E-02
   -.157E+00 -.249E+00 0.155E+04   0.165E+00 0.261E+00 -.155E+04   -.486E-02 0.139E-01 -.484E+00   -.864E-03 -.137E-01 0.259E-02
   0.885E-01 0.672E-01 0.155E+04   -.871E-01 -.727E-01 -.155E+04   -.477E-02 0.329E-01 -.380E+00   0.142E-02 -.153E-01 0.325E-02
   0.492E-02 -.569E+00 0.155E+04   -.333E-01 0.586E+00 -.155E+04   0.205E-01 0.303E-01 -.419E+00   0.269E-02 -.273E-01 -.177E-02
   -.937E-01 -.584E+00 0.155E+04   0.737E-01 0.576E+00 -.155E+04   0.296E-01 0.464E-01 -.444E+00   0.142E-02 -.251E-01 -.293E-02
   0.753E-01 -.490E+00 0.155E+04   -.570E-01 0.505E+00 -.155E+04   -.177E-01 0.423E-02 -.458E+00   -.261E-02 -.242E-01 -.382E-02
   0.195E-01 -.511E+00 0.155E+04   0.102E-02 0.523E+00 -.155E+04   -.156E-01 0.155E-01 -.404E+00   -.148E-02 -.264E-01 -.227E-02
   0.144E+00 0.239E+01 0.229E+02   -.137E+00 -.237E+01 -.230E+02   -.128E-01 -.487E-01 0.347E-01   0.176E-02 0.453E-02 0.228E-02
   0.857E+00 0.153E+01 0.229E+02   -.869E+00 -.146E+01 -.228E+02   -.774E-02 -.836E-01 0.410E-02   0.150E-02 0.417E-02 0.282E-02
   -.273E+00 0.231E+01 0.238E+02   0.270E+00 -.237E+01 -.238E+02   0.463E-02 0.201E-01 0.440E-01   -.165E-02 0.423E-02 -.206E-02
   -.399E+00 0.185E+01 0.219E+02   0.390E+00 -.190E+01 -.220E+02   0.211E-01 0.436E-02 0.133E+00   -.160E-02 0.479E-02 -.229E-02
   -.438E+00 0.185E+01 0.256E+02   0.461E+00 -.190E+01 -.256E+02   -.734E-02 0.185E-01 0.746E-01   -.317E-03 0.302E-01 -.397E-02
   -.118E+01 -.306E+01 0.227E+02   0.115E+01 0.299E+01 -.227E+02   0.316E-01 0.622E-01 0.910E-01   0.143E-02 0.297E-01 0.628E-03
   0.211E+01 -.293E+01 0.235E+02   -.209E+01 0.290E+01 -.235E+02   -.266E-01 0.185E-01 0.906E-01   0.382E-03 0.288E-01 -.304E-02
   -.184E+00 0.171E+01 0.257E+02   0.164E+00 -.171E+01 -.257E+02   0.160E-01 -.164E-01 0.912E-01   -.150E-02 0.291E-01 -.791E-02
   -.262E+00 -.208E+00 0.265E+02   0.258E+00 0.188E+00 -.266E+02   -.603E-02 -.317E-01 0.654E-01   -.143E-03 0.232E-01 -.820E-02
   -.499E+01 0.140E+01 0.237E+02   0.498E+01 -.140E+01 -.237E+02   0.556E-01 -.491E-01 0.980E-01   0.129E-02 0.246E-01 -.281E-02
   0.870E+00 0.110E+01 0.185E+02   -.870E+00 -.114E+01 -.184E+02   -.661E-02 -.129E-01 0.891E-01   -.123E-04 0.238E-01 -.371E-02
   0.475E+01 0.186E+01 0.248E+02   -.475E+01 -.188E+01 -.248E+02   -.522E-01 -.224E-01 0.692E-01   -.113E-02 0.232E-01 -.787E-02
   -.867E+00 -.204E+01 0.261E+02   0.786E+00 0.200E+01 -.261E+02   0.422E-01 0.269E-01 0.688E-01   -.105E-02 -.353E-02 -.478E-02
   -.333E-01 -.167E+01 0.249E+02   0.113E+00 0.160E+01 -.249E+02   -.461E-01 0.132E-01 0.875E-01   0.904E-03 -.438E-02 -.263E-02
   -.219E+01 0.269E+01 0.244E+02   0.217E+01 -.271E+01 -.244E+02   0.349E-01 -.475E-02 0.713E-01   -.236E-04 -.570E-02 -.283E-02
   0.332E+01 0.204E+01 0.251E+02   -.328E+01 -.204E+01 -.250E+02   -.425E-01 -.434E-01 0.334E-01   0.178E-03 -.509E-02 -.497E-02
   -.631E+00 -.238E+01 0.238E+02   0.632E+00 0.239E+01 -.239E+02   -.651E-02 -.114E-01 0.679E-01   0.155E-02 -.273E-01 -.830E-03
   -.389E+00 -.191E+01 0.220E+02   0.400E+00 0.193E+01 -.221E+02   -.990E-02 -.410E-01 0.138E+00   -.108E-02 -.259E-01 0.503E-03
   0.141E+01 -.146E+01 0.238E+02   -.145E+01 0.152E+01 -.239E+02   0.109E-01 -.554E-01 0.671E-01   -.803E-03 -.275E-01 0.352E-03
   -.154E+00 -.211E+01 0.241E+02   0.165E+00 0.211E+01 -.242E+02   -.487E-02 -.391E-02 0.260E-01   0.309E-03 -.285E-01 -.142E-02
   0.323E+00 -.133E+00 0.212E+02   -.318E+00 0.158E+00 -.213E+02   -.117E-01 -.142E-01 0.576E-01   0.217E-02 -.248E-01 0.309E-02
   -.359E+00 0.473E+00 0.217E+02   0.345E+00 -.456E+00 -.217E+02   -.250E-02 0.213E-02 0.159E-01   0.812E-03 -.253E-01 0.243E-02
   0.457E+00 0.686E-01 0.216E+02   -.452E+00 -.358E-01 -.216E+02   0.723E-02 -.153E-01 0.381E-01   -.227E-02 -.262E-01 0.138E-02
   -.385E+00 -.562E+00 0.216E+02   0.382E+00 0.617E+00 -.216E+02   -.281E-02 -.431E-01 0.499E-01   -.690E-03 -.261E-01 0.199E-02
   0.234E-01 0.440E+01 -.150E+04   -.297E-01 -.437E+01 0.150E+04   0.174E-02 -.206E-01 0.464E+00   0.374E-02 -.467E-02 0.852E-02
   -.445E+00 0.521E+01 -.150E+04   0.427E+00 -.524E+01 0.150E+04   0.168E-01 0.301E-01 0.466E+00   -.733E-03 -.777E-02 0.104E-01
   -.105E+01 0.313E+01 -.150E+04   0.111E+01 -.309E+01 0.150E+04   -.636E-01 -.322E-01 0.400E+00   -.326E-02 -.958E-02 0.119E-01
   0.603E+00 0.274E+01 -.150E+04   -.627E+00 -.267E+01 0.150E+04   0.256E-01 -.613E-01 0.402E+00   0.240E-03 -.657E-02 0.100E-01
   0.171E+01 0.809E+01 -.149E+04   -.175E+01 -.809E+01 0.148E+04   0.306E-01 -.157E-01 0.447E+00   0.341E-02 0.177E-01 0.730E-02
   0.291E+00 0.468E+01 -.149E+04   -.286E+00 -.430E+01 0.149E+04   -.522E-02 -.388E+00 0.674E-01   -.174E-03 0.167E-01 0.724E-02
   -.198E+01 0.869E+01 -.149E+04   0.202E+01 -.872E+01 0.148E+04   -.408E-01 0.830E-02 0.442E+00   -.362E-02 0.146E-01 0.598E-02
   -.476E+00 0.685E+01 -.150E+04   0.469E+00 -.692E+01 0.150E+04   0.590E-02 0.562E-01 0.514E+00   0.384E-03 0.157E-01 0.667E-02
   0.275E+01 0.709E+00 -.148E+04   -.267E+01 -.720E+00 0.148E+04   -.838E-01 -.162E-01 0.416E+00   0.452E-02 0.235E-01 -.104E-02
   -.235E+00 0.317E+00 -.150E+04   0.260E+00 -.335E+00 0.149E+04   -.244E-01 -.803E-02 0.466E+00   0.675E-03 0.220E-01 0.144E-02
   0.111E+01 0.166E+01 -.150E+04   -.115E+01 -.163E+01 0.149E+04   0.454E-01 -.498E-01 0.540E+00   -.387E-02 0.208E-01 -.852E-03
   -.389E+01 0.160E+01 -.148E+04   0.386E+01 -.163E+01 0.148E+04   0.390E-01 0.934E-02 0.466E+00   -.141E-02 0.225E-01 -.316E-02
   -.171E+01 -.412E+01 -.149E+04   0.177E+01 0.417E+01 0.149E+04   -.660E-01 -.647E-01 0.570E+00   0.180E-02 0.791E-02 -.597E-02
   -.429E+00 -.164E+01 -.148E+04   0.704E+00 0.146E+01 0.148E+04   -.274E+00 0.169E+00 0.343E-01   0.695E-03 0.372E-02 -.488E-02
   0.130E+01 -.352E+00 -.149E+04   -.128E+01 0.298E+00 0.149E+04   -.180E-01 0.536E-01 0.417E+00   -.204E-02 0.705E-03 -.697E-02
   0.388E+00 -.190E+01 -.148E+04   -.713E+00 0.171E+01 0.148E+04   0.324E+00 0.185E+00 0.437E-02   -.470E-03 0.551E-02 -.765E-02
   -.396E+01 -.686E+01 -.150E+04   0.396E+01 0.688E+01 0.150E+04   0.212E-02 -.886E-02 0.474E+00   0.240E-02 -.128E-01 -.460E-02
   0.274E+01 -.660E+01 -.150E+04   -.271E+01 0.663E+01 0.150E+04   -.199E-01 -.151E-01 0.448E+00   -.148E-02 -.137E-01 -.226E-02
   0.280E+01 -.809E+01 -.149E+04   -.281E+01 0.809E+01 0.149E+04   0.169E-01 0.109E-01 0.472E+00   -.423E-02 -.171E-01 -.698E-02
   -.191E+01 -.963E+01 -.149E+04   0.190E+01 0.965E+01 0.149E+04   0.498E-03 -.716E-02 0.487E+00   0.335E-02 -.160E-01 -.876E-02
   -.599E+00 -.294E+01 -.150E+04   0.597E+00 0.300E+01 0.150E+04   -.568E-02 -.435E-01 0.411E+00   0.506E-02 -.196E-01 0.235E-02
   0.290E+00 -.887E+00 -.151E+04   -.276E+00 0.942E+00 0.151E+04   -.124E-01 -.326E-01 0.405E+00   -.617E-03 -.220E-01 0.618E-02
   0.136E+01 -.336E+01 -.150E+04   -.137E+01 0.347E+01 0.150E+04   0.178E-01 -.900E-01 0.361E+00   -.478E-02 -.223E-01 0.477E-02
   -.828E+00 -.408E+01 -.150E+04   0.830E+00 0.414E+01 0.150E+04   -.315E-02 -.470E-01 0.448E+00   0.322E-03 -.198E-01 0.405E-03
   0.157E+01 0.229E+01 -.307E+04   -.154E+01 -.215E+01 0.307E+04   -.276E-01 -.139E+00 0.142E+01   -.245E-03 -.724E-02 0.798E-02
   -.230E+01 0.841E+01 -.306E+04   0.225E+01 -.843E+01 0.306E+04   0.455E-01 0.274E-01 0.133E+01   0.401E-02 -.854E-02 0.592E-02
   0.107E+01 0.503E+01 -.307E+04   -.102E+01 -.501E+01 0.307E+04   -.503E-01 -.120E-01 0.140E+01   0.143E-03 -.128E-01 0.644E-02
   0.862E-01 0.158E+01 -.307E+04   -.514E-01 -.156E+01 0.307E+04   -.331E-01 -.171E-01 0.142E+01   -.396E-02 -.113E-01 0.889E-02
   0.716E+01 0.136E+02 -.306E+04   -.714E+01 -.135E+02 0.306E+04   -.145E-01 -.935E-01 0.141E+01   0.172E-03 0.745E-02 0.988E-02
   0.118E+02 0.333E+02 -.305E+04   -.117E+02 -.332E+02 0.304E+04   -.934E-01 -.150E+00 0.145E+01   0.198E-02 0.959E-02 0.719E-02
   -.135E+02 0.330E+02 -.304E+04   0.134E+02 -.329E+02 0.304E+04   0.908E-01 -.124E+00 0.144E+01   -.129E-02 0.623E-02 0.730E-02
   -.518E+01 0.146E+02 -.306E+04   0.523E+01 -.145E+02 0.306E+04   -.496E-01 -.515E-01 0.138E+01   -.882E-03 0.394E-02 0.975E-02
   -.731E-01 0.115E+02 -.306E+04   0.901E-01 -.114E+02 0.305E+04   -.186E-01 -.123E+00 0.127E+01   0.265E-02 0.170E-01 0.538E-02
   0.349E+02 0.234E+02 -.303E+04   -.356E+02 -.238E+02 0.302E+04   0.688E+00 0.396E+00 0.209E+01   0.397E-02 0.203E-01 0.401E-02
   -.136E+01 0.149E+03 -.296E+04   0.138E+01 -.150E+03 0.296E+04   -.712E-02 0.111E+01 0.829E+00   -.236E-02 0.195E-01 0.289E-02
   -.318E+02 0.240E+02 -.303E+04   0.326E+02 -.245E+02 0.303E+04   -.805E+00 0.446E+00 0.208E+01   -.399E-02 0.171E-01 0.471E-02
   -.271E+02 -.820E+01 -.304E+04   0.270E+02 0.827E+01 0.304E+04   0.122E+00 -.882E-01 0.148E+01   -.312E-03 0.111E-01 -.128E-02
   0.252E+02 -.967E+01 -.304E+04   -.251E+02 0.975E+01 0.304E+04   -.151E+00 -.978E-01 0.148E+01   0.496E-02 0.107E-01 -.189E-02
   0.126E+03 -.754E+02 -.296E+04   -.127E+03 0.760E+02 0.296E+04   0.948E+00 -.599E+00 0.955E+00   -.132E-02 0.519E-02 -.209E-02
   -.122E+03 -.727E+02 -.295E+04   0.123E+03 0.732E+02 0.295E+04   -.963E+00 -.585E+00 0.798E+00   -.307E-02 0.536E-02 -.177E-02
   -.205E+02 -.297E+02 -.305E+04   0.205E+02 0.295E+02 0.304E+04   -.474E-01 0.189E+00 0.148E+01   0.367E-02 -.866E-02 -.338E-02
   -.687E+00 -.150E+02 -.307E+04   0.737E+00 0.151E+02 0.307E+04   -.493E-01 -.740E-01 0.143E+01   0.243E-02 -.448E-02 -.346E-02
   0.192E+02 -.286E+02 -.305E+04   -.193E+02 0.285E+02 0.305E+04   0.533E-01 0.132E+00 0.149E+01   -.341E-02 -.977E-02 -.269E-02
   0.161E+01 -.438E+02 -.303E+04   -.159E+01 0.446E+02 0.303E+04   -.133E-01 -.779E+00 0.205E+01   -.263E-02 -.128E-01 -.127E-02
   -.372E+01 -.137E+02 -.306E+04   0.380E+01 0.137E+02 0.306E+04   -.834E-01 0.491E-01 0.134E+01   0.382E-02 -.143E-01 0.208E-02
   -.544E+01 -.501E+01 -.307E+04   0.538E+01 0.496E+01 0.307E+04   0.618E-01 0.597E-01 0.144E+01   0.545E-02 -.144E-01 -.221E-04
   0.491E+01 -.316E+01 -.307E+04   -.483E+01 0.322E+01 0.307E+04   -.754E-01 -.452E-01 0.142E+01   -.279E-02 -.154E-01 0.983E-03
   0.440E+01 -.128E+02 -.306E+04   -.444E+01 0.129E+02 0.306E+04   0.440E-01 -.673E-01 0.132E+01   -.642E-02 -.153E-01 0.295E-02
   -.215E+01 -.116E+01 -.237E+04   0.231E+01 0.149E+01 0.240E+04   -.157E+00 -.335E+00 -.267E+02   -.236E-02 0.671E-02 -.655E-02
 -----------------------------------------------------------------------------------------------
   0.263E+00 0.301E+00 0.244E+02   -.235E-13 -.153E-12 -.214E-10   -.228E+00 -.341E+00 -.243E+02   -.180E-02 0.449E-02 -.959E-01
 
 
 POSITION                                       TOTAL-FORCE (eV/Angst)
 -----------------------------------------------------------------------------------
      1.24451      0.71857      0.00000         0.004264     -0.000623      0.280084
      3.73354      0.71857      0.00000        -0.010643      0.012168      0.291410
      6.22256      0.71857      0.00000         0.001241      0.005071      0.287097
      8.71159      0.71857      0.00000         0.009646      0.002455      0.280243
      0.00006      2.87404      0.00000        -0.006473      0.012935      0.286649
      2.48908      2.87404      0.00000         0.009042      0.007255      0.277977
      4.97812      2.87404      0.00000        -0.004100      0.013308      0.280982
      7.46714      2.87404      0.00000         0.005898      0.012573      0.295811
     -1.24448      5.02963      0.00000        -0.007865      0.026515      0.300361
      1.24455      5.02963      0.00000         0.009993      0.002699      0.272508
      3.73357      5.02963      0.00000        -0.012629      0.028486      0.277813
      6.22260      5.02963      0.00000        -0.000473     -0.001293      0.278615
     -2.48901      7.18523      0.00000        -0.007538      0.013975      0.273649
      0.00001      7.18523      0.00000         0.002319      0.010492      0.263456
      2.48904      7.18523      0.00000         0.003620     -0.001478      0.273542
      4.97806      7.18523      0.00000         0.008412      0.008155      0.277706
     -3.73347      9.34069      0.00000         0.012557      0.003340      0.288130
     -1.24445      9.34069      0.00000        -0.010035     -0.011067      0.286619
      1.24458      9.34069      0.00000         0.003759      0.008445      0.280143
      3.73361      9.34069      0.00000        -0.007967      0.012462      0.294462
     -4.97800     11.49629      0.00000        -0.000831      0.035758      0.292197
     -2.48898     11.49629      0.00000        -0.010754     -0.010447      0.281479
      0.00005     11.49629      0.00000        -0.002575      0.027086      0.296456
      2.48907     11.49629      0.00000         0.008589      0.003224      0.280606
      0.00000      0.00000      2.03235        -0.003967     -0.002786     -0.316766
      2.48903      0.00000      2.03235         0.000626     -0.015210     -0.338231
      4.97805      0.00000      2.03235         0.014062      0.028037     -0.302305
      7.46708      0.00000      2.03235         0.010364      0.023261     -0.321827
     -1.24453      2.15559      2.03235        -0.001456      0.004221     -0.337439
      1.24449      2.15559      2.03235        -0.007577      0.003398     -0.307934
      3.73352      2.15559      2.03235         0.005578      0.015829     -0.312977
      6.22254      2.15559      2.03235         0.009726      0.007765     -0.327529
     -2.48899      4.31106      2.03235         0.004309      0.012705     -0.359725
      0.00003      4.31106      2.03235        -0.002420      0.014273     -0.306153
      2.48906      4.31106      2.03235         0.003895      0.027436     -0.323744
      4.97809      4.31106      2.03235         0.006151      0.015617     -0.322613
     -3.73352      6.46665      2.03235        -0.005200      0.032136     -0.335470
     -1.24450      6.46665      2.03235         0.007048      0.020356     -0.347047
      1.24452      6.46665      2.03235         0.001303      0.019370     -0.299718
      3.73355      6.46665      2.03235        -0.007904      0.001961     -0.327608
     -4.97806      8.62225      2.03235         0.010795      0.010628     -0.319765
     -2.48903      8.62225      2.03235         0.010590      0.044123     -0.392693
     -0.00001      8.62225      2.03235         0.001690      0.012713     -0.314198
      2.48902      8.62225      2.03235        -0.002238      0.012352     -0.311097
     -6.22251     10.77771      2.03235        -0.005427      0.021114     -0.317745
     -3.73349     10.77771      2.03235         0.010774      0.013047     -0.332438
     -1.24447     10.77771      2.03235        -0.002196     -0.004975     -0.324641
      1.24456     10.77771      2.03235         0.003127      0.001328     -0.316836
     -0.00002      1.43702      4.06448        -0.004707     -0.031292      0.013500
      2.48900      1.43702      4.06448        -0.018549     -0.006043      0.074267
      4.97803      1.43702      4.06448         0.000299     -0.026550      0.000315
      7.46706      1.43702      4.06448         0.009994     -0.034937      0.045152
     -1.24456      3.59261      4.06448         0.015247     -0.002181      0.025627
      1.24447      3.59261      4.06448         0.005109      0.019693      0.070834
      3.73349      3.59261      4.06448        -0.004569      0.019642      0.085618
      6.22252      3.59261      4.06448        -0.005129      0.006756      0.022494
     -2.48901      5.74808      4.06448        -0.010106     -0.028312      0.026762
      0.00001      5.74808      4.06448         0.052737     -0.024226      0.060571
      2.48904      5.74808      4.06448        -0.007106     -0.024986      0.159762
      4.97806      5.74808      4.06448        -0.052718     -0.024422      0.063734
     -3.73355      7.90367      4.06448        -0.040231     -0.016689      0.071720
     -1.24452      7.90367      4.06448         0.034059     -0.056375      0.082846
      1.24450      7.90367      4.06448         0.010746     -0.029248      0.054579
      3.73353      7.90367      4.06448        -0.007643     -0.050097      0.054399
     -4.97808     10.05927      4.06448        -0.003392     -0.026634      0.030170
     -2.48906     10.05927      4.06448        -0.000144     -0.045888      0.037081
     -0.00003     10.05927      4.06448        -0.024236     -0.023451      0.006053
      2.48899     10.05927      4.06448         0.005974     -0.025968     -0.000445
     -6.22254     12.21474      4.06448        -0.004779     -0.014420      0.001605
     -3.73352     12.21473      4.06448        -0.015897     -0.006368      0.014866
     -1.24449     12.21474      4.06448         0.010310     -0.008453      0.006154
      1.24453     12.21474      4.06448        -0.007029     -0.013986      0.009950
      1.23648      0.70406      6.11531        -0.001177     -0.003201      0.000266
      3.72983      0.70999      6.10998        -0.001694     -0.003325     -0.000175
      6.21753      0.70930      6.11353        -0.001625     -0.002126     -0.001340
      8.70520      0.70326      6.11610         0.000591      0.000099     -0.000157
     -0.00607      2.85953      6.10711        -0.000969     -0.001071     -0.000518
      2.48362      2.86922      6.11105        -0.000149      0.000312      0.001658
      4.97191      2.86656      6.10463         0.001775     -0.001440     -0.000437
      7.46259      2.86500      6.11516        -0.000969     -0.002749      0.004618
     -1.24800      5.02141      6.10679        -0.000490     -0.002988      0.002645
      1.23987      5.02092      6.15200         0.000423     -0.003431     -0.000445
      3.72739      5.02436      6.14779         0.000639     -0.001557      0.000719
      6.21461      5.02331      6.10980         0.001547     -0.001200      0.001027
     -2.49488      7.18130      6.11428         0.000620     -0.001470      0.004181
     -0.00555      7.17767      6.11164         0.001213     -0.001257     -0.002616
      2.48496      7.18054      6.14165        -0.000266      0.000577     -0.004752
      4.97809      7.18110      6.10586        -0.001185      0.001667      0.001812
     -3.73447      9.33846      6.11485         0.000584     -0.002043     -0.003225
     -1.25178      9.33222      6.11847         0.000671     -0.001306      0.001657
      1.23628      9.32996      6.10496         0.003664     -0.002084     -0.002784
      3.73460      9.33112      6.10737        -0.001941     -0.002123      0.000326
     -4.97687     11.48876      6.11358        -0.002445     -0.000219      0.002713
     -2.49040     11.48968      6.11781         0.001182      0.000807      0.001202
     -0.00610     11.48429      6.11047         0.000281     -0.000379      0.003193
      2.48395     11.48433      6.11769        -0.001159     -0.001010      0.002814
      2.48364     12.91697      8.08822        -0.000734     -0.000997     -0.001657
     -4.97871     12.93049      8.08002        -0.000350     -0.000797      0.000503
     -2.48642     12.92422      8.08091        -0.001313     -0.004506     -0.000575
     -0.00951     12.91852      8.08324        -0.002540     -0.004752     -0.001134
      8.70385      2.12998      8.08148         0.001639      0.000623      0.000758
      1.23892      2.13717      8.07506        -0.001810     -0.001299     -0.000310
      3.72800      2.14120      8.07294        -0.000177      0.002227      0.001133
      6.22552      2.13873      8.07849        -0.002031     -0.002663      0.000981
      7.46435      4.30874      8.07190         0.000838     -0.003163     -0.000422
     -0.03950      4.27226      8.07126        -0.002847     -0.003382      0.001273
      2.47570      4.26450      8.18900         0.002594     -0.003865     -0.005107
      5.01035      4.27504      8.07274        -0.000171     -0.003887      0.000089
      6.21863      6.45567      8.07134         0.002950     -0.002429      0.001030
     -1.24558      6.44994      8.07267        -0.002151     -0.005247     -0.001909
      1.21755      6.47526      8.18409         0.005473     -0.002040      0.003659
      3.76831      6.49238      8.17540        -0.000452     -0.002123     -0.003792
     -4.97762      8.62380      8.07209         0.002109      0.000379      0.000008
     -2.49280      8.60420      8.08460         0.002434      0.000465      0.000497
     -0.00615      8.61463      8.07440        -0.000540      0.001456     -0.001180
      2.48562      8.66946      8.06865         0.002524      0.001837     -0.000768
     -6.21642     10.78264      8.07882         0.002209     -0.001681     -0.001680
     -3.73581     10.77549      8.08537        -0.000907     -0.001113      0.000323
     -1.24774     10.77154      8.08334        -0.000830     -0.000600      0.002295
      1.23307     10.77875      8.07680        -0.000970     -0.000657     -0.000350
      2.51135      5.73795      9.32935        -0.001421      0.003976     -0.005158
 -----------------------------------------------------------------------------------
    total drift:                                0.033984     -0.035688      0.045869


--------------------------------------------------------------------------------------------------------



  FREE ENERGIE OF THE ION-ELECTRON SYSTEM (eV)
  ---------------------------------------------------
  free  energy   TOTEN  =      -817.088831 eV

  energy  without entropy=     -816.842077  energy(sigma->0) =     -817.027143
 


--------------------------------------------------------------------------------------------------------


    POTLOK:  cpu time    0.42: real time    0.45


--------------------------------------------------------------------------------------------------------


 stress matrix after NEB project (eV)
    -62.23894      3.82007     -0.40794
      3.82102    -30.82600     -1.33878
     -0.40745     -1.33900    -13.39943
  FORCES: max atom, RMS     0.006665    0.000606
  FORCE total and by dimension    0.006665    0.005158
  Stress total and by dimension   70.968893   62.238944
 Finite differences:
   Step               POTIM =   2.000000000000000E-002
   Degrees of freedom DOF   =            3
  LATTYP: Found a simple monoclinic cell.
 ALAT       =    17.9486009422
 B/A-ratio  =     1.2886297308
 C/A-ratio  =     1.4411545266
 COS(beta)  =    -0.9607691321
  
  Lattice vectors:
  
 A1 = ( -12.4451508522, -12.9333095551,   0.0000000000)
 A2 = (   0.0000000000,   0.0000000000, -23.1291007996)
 A3 = (  22.4012513161,  12.9333095551,   0.0000000000)
 Subroutine PRICEL returns:
 Original cell was already a primitive cell.
 

Analysis of symmetry for initial positions (statically):

 Routine SETGRP: Setting up the symmetry group for a 
 simple monoclinic supercell.


 Subroutine GETGRP returns: Found  1 space group operations
 (whereof  1 operations were pure point group operations)
 out of a pool of  4 trial point group operations.


The static configuration has the point symmetry C_1 .

Analysis of symmetry for dynamics (positions and initial velocities):

 Subroutine DYNSYM returns: Found  1 space group operations
 (whereof  1 operations were pure point group operations)
 out of a pool of  1 trial space group operations
 (whereof  1 operations were pure point group operations)
 and found also     1 'primitive' translations


The dynamic configuration has the point symmetry C_1 .

Analysis of constrained symmetry for selective dynamics:

 Subroutine DYNSYM returns: Found  1 space group operations
 (whereof  1 operations were pure point group operations)
 out of a pool of  1 trial space group operations
 (whereof  1 operations were pure point group operations)
 and found also     1 'primitive' translations


The constrained configuration has the point symmetry C_1 .

Analysis of magnetic symmetry:

 Subroutine MAGSYM returns: Found  1 space group operations
 (whereof  1 operations were pure point group operations)
 out of a pool of  1 trial space group operations
 (whereof  1 operations were pure point group operations)
 and found also     1 'primitive' translations


The magnetic configuration has the point symmetry C_1 .
 
 KPOINTS: k-points                                

Automatic generation of k-mesh.
 
 Subroutine IBZKPT returns following result:
 ===========================================
 
 Found      1 irreducible k-points:
 
 Following reciprocal coordinates:
            Coordinates               Weight
  0.000000  0.000000  0.000000      1.000000
 
 Following cartesian coordinates:
            Coordinates               Weight
  0.000000  0.000000  0.000000      1.000000
 
    WAVPRE:  cpu time    0.07: real time    0.07
    FEWALD:  cpu time    0.07: real time    0.07
    ORTHCH:  cpu time    2.60: real time    2.66
     LOOP+:  cpu time  104.76: real time  106.77


----------------------------------------- Iteration    2(   1)  ---------------------------------------


    POTLOK:  cpu time    0.35: real time    0.35
    SETDIJ:  cpu time    0.05: real time    0.05
     EDDAV:  cpu time   20.79: real time   20.93
       DOS:  cpu time    0.00: real time    0.00
    CHARGE:  cpu time    1.04: real time    1.05
    MIXING:  cpu time    0.01: real time    0.01
    --------------------------------------------
      LOOP:  cpu time   22.24: real time   22.40

 eigenvalue-minimisations  :  2944
 total energy-change (2. order) : 0.4315292E-02  (-0.2197967E+00)
 number of electron    1085.9999550 magnetization     202.1169665
 augmentation part      617.3016589 magnetization     179.6441652

 Broyden mixing:
  rms(total) = 0.26913E-01    rms(broyden)= 0.26884E-01
  rms(prec ) = 0.27282E-01
  weight for this iteration     100.00

 Free energy of the ion-electron system (eV)
  ---------------------------------------------------
  alpha Z        PSCENC =      2067.85644204
  Ewald energy   TEWEN  =    423773.18485000
  -1/2 Hartree   DENC   =   -519602.04620124
  -exchange  EXHF       =         0.00000000
  -V(xc)+E(xc)   XCENC  =      1982.15134741
  PAW double counting   =    106757.32370711  -113112.59949393
  entropy T*S    EENTRO =        -0.24621510
  eigenvalues    EBANDS =      -718.66159984
  atomic energy  EATOM  =     98035.95264826
  ---------------------------------------------------
  free energy    TOTEN  =      -817.08451528 eV

  energy without entropy =     -816.83830018  energy(sigma->0) =     -817.02296151


--------------------------------------------------------------------------------------------------------




----------------------------------------- Iteration    2(   2)  ---------------------------------------


    POTLOK:  cpu time    0.35: real time    0.35
    SETDIJ:  cpu time    0.05: real time    0.05
    EDDIAG:  cpu time    4.42: real time    4.44
  RMM-DIIS:  cpu time    7.23: real time    7.26
    ORTHCH:  cpu time    1.69: real time    1.73
       DOS:  cpu time    0.00: real time    0.00
    CHARGE:  cpu time    1.08: real time    1.08
    MIXING:  cpu time    0.01: real time    0.01
    --------------------------------------------
      LOOP:  cpu time   14.83: real time   14.91

 eigenvalue-minimisations  :  2959
 total energy-change (2. order) :-0.3951897E-02  (-0.3139742E-02)
 number of electron    1085.9999550 magnetization     202.1169003
 augmentation part      617.3003878 magnetization     179.6442370

 Broyden mixing:
  rms(total) = 0.56780E-01    rms(broyden)= 0.56777E-01
  rms(prec ) = 0.60925E-01
  weight for this iteration     100.00

 eigenvalues of (default mixing * dielectric matrix)
  average eigenvalue GAMMA=   0.0730
  0.0730

 Free energy of the ion-electron system (eV)
  ---------------------------------------------------
  alpha Z        PSCENC =      2067.85644204
  Ewald energy   TEWEN  =    423773.18485000
  -1/2 Hartree   DENC   =   -519602.04700181
  -exchange  EXHF       =         0.00000000
  -V(xc)+E(xc)   XCENC  =      1982.15175171
  PAW double counting   =    106757.23432006  -113112.52017182
  entropy T*S    EENTRO =        -0.24642615
  eigenvalues    EBANDS =      -718.65487948
  atomic energy  EATOM  =     98035.95264826
  ---------------------------------------------------
  free energy    TOTEN  =      -817.08846718 eV

  energy without entropy =     -816.84204104  energy(sigma->0) =     -817.02686064


--------------------------------------------------------------------------------------------------------




----------------------------------------- Iteration    2(   3)  ---------------------------------------


    POTLOK:  cpu time    0.36: real time    0.36
    SETDIJ:  cpu time    0.05: real time    0.05
    EDDIAG:  cpu time    4.40: real time    4.43
  RMM-DIIS:  cpu time    7.20: real time    7.26
    ORTHCH:  cpu time    1.70: real time    1.71
       DOS:  cpu time    0.00: real time    0.00
    CHARGE:  cpu time    1.07: real time    1.08
    MIXING:  cpu time    0.01: real time    0.01
    --------------------------------------------
      LOOP:  cpu time   14.80: real time   14.90

 eigenvalue-minimisations  :  2959
 total energy-change (2. order) : 0.1001339E-02  (-0.2217943E-03)
 number of electron    1085.9999550 magnetization     202.1168596
 augmentation part      617.2999872 magnetization     179.6424902

 Broyden mixing:
  rms(total) = 0.18672E-01    rms(broyden)= 0.18668E-01
  rms(prec ) = 0.19559E-01
  weight for this iteration     100.00

 eigenvalues of (default mixing * dielectric matrix)
  average eigenvalue GAMMA=   0.5058
  0.8937  0.1179

 Free energy of the ion-electron system (eV)
  ---------------------------------------------------
  alpha Z        PSCENC =      2067.85644204
  Ewald energy   TEWEN  =    423773.18485000
  -1/2 Hartree   DENC   =   -519602.09246677
  -exchange  EXHF       =         0.00000000
  -V(xc)+E(xc)   XCENC  =      1982.15139259
  PAW double counting   =    106757.22780938  -113112.51283135
  entropy T*S    EENTRO =        -0.24632580
  eigenvalues    EBANDS =      -718.60898420
  atomic energy  EATOM  =     98035.95264826
  ---------------------------------------------------
  free energy    TOTEN  =      -817.08746584 eV

  energy without entropy =     -816.84114004  energy(sigma->0) =     -817.02588439


--------------------------------------------------------------------------------------------------------




----------------------------------------- Iteration    2(   4)  ---------------------------------------


    POTLOK:  cpu time    0.36: real time    0.37
    SETDIJ:  cpu time    0.05: real time    0.05
    EDDIAG:  cpu time    4.41: real time    4.43
  RMM-DIIS:  cpu time    7.23: real time    7.31
    ORTHCH:  cpu time    1.68: real time    1.69
       DOS:  cpu time    0.00: real time    0.00
    CHARGE:  cpu time    1.09: real time    1.09
    MIXING:  cpu time    0.01: real time    0.01
    --------------------------------------------
      LOOP:  cpu time   14.83: real time   14.95

 eigenvalue-minimisations  :  2973
 total energy-change (2. order) :-0.1945755E-02  (-0.8964131E-04)
 number of electron    1085.9999549 magnetization     202.1166660
 augmentation part      617.3017390 magnetization     179.6491637

 Broyden mixing:
  rms(total) = 0.60531E-01    rms(broyden)= 0.60529E-01
  rms(prec ) = 0.84754E-01
  weight for this iteration     100.00

 eigenvalues of (default mixing * dielectric matrix)
  average eigenvalue GAMMA=   0.4077
  1.0044  0.1266  0.0923

 Free energy of the ion-electron system (eV)
  ---------------------------------------------------
  alpha Z        PSCENC =      2067.85644204
  Ewald energy   TEWEN  =    423773.18485000
  -1/2 Hartree   DENC   =   -519602.01649348
  -exchange  EXHF       =         0.00000000
  -V(xc)+E(xc)   XCENC  =      1982.15227720
  PAW double counting   =    106757.24958892  -113112.52372677
  entropy T*S    EENTRO =        -0.24488603
  eigenvalues    EBANDS =      -718.70011173
  atomic energy  EATOM  =     98035.95264826
  ---------------------------------------------------
  free energy    TOTEN  =      -817.08941160 eV

  energy without entropy =     -816.84452556  energy(sigma->0) =     -817.02819009


--------------------------------------------------------------------------------------------------------




----------------------------------------- Iteration    2(   5)  ---------------------------------------


    POTLOK:  cpu time    0.35: real time    0.35
    SETDIJ:  cpu time    0.05: real time    0.05
    EDDIAG:  cpu time    4.38: real time    4.40
  RMM-DIIS:  cpu time    7.26: real time    7.31
    ORTHCH:  cpu time    1.67: real time    1.68
       DOS:  cpu time    0.00: real time    0.00
    CHARGE:  cpu time    1.06: real time    1.07
    MIXING:  cpu time    0.01: real time    0.01
    --------------------------------------------
      LOOP:  cpu time   14.78: real time   14.88

 eigenvalue-minimisations  :  2972
 total energy-change (2. order) : 0.1803421E-02  (-0.5812907E-04)
 number of electron    1085.9999551 magnetization     202.1164871
 augmentation part      617.3013988 magnetization     179.6418194

 Broyden mixing:
  rms(total) = 0.22572E-01    rms(broyden)= 0.22567E-01
  rms(prec ) = 0.30182E-01
  weight for this iteration     100.00

 eigenvalues of (default mixing * dielectric matrix)
  average eigenvalue GAMMA=   0.4778
  1.2726  0.4526  0.1168  0.0691

 Free energy of the ion-electron system (eV)
  ---------------------------------------------------
  alpha Z        PSCENC =      2067.85644204
  Ewald energy   TEWEN  =    423773.18485000
  -1/2 Hartree   DENC   =   -519602.01232570
  -exchange  EXHF       =         0.00000000
  -V(xc)+E(xc)   XCENC  =      1982.15093142
  PAW double counting   =    106757.23421963  -113112.50713421
  entropy T*S    EENTRO =        -0.24659205
  eigenvalues    EBANDS =      -718.70064756
  atomic energy  EATOM  =     98035.95264826
  ---------------------------------------------------
  free energy    TOTEN  =      -817.08760818 eV

  energy without entropy =     -816.84101612  energy(sigma->0) =     -817.02596016


--------------------------------------------------------------------------------------------------------




----------------------------------------- Iteration    2(   6)  ---------------------------------------


    POTLOK:  cpu time    0.35: real time    0.35
    SETDIJ:  cpu time    0.05: real time    0.05
    EDDIAG:  cpu time    4.36: real time    4.38
  RMM-DIIS:  cpu time    7.11: real time    7.19
    ORTHCH:  cpu time    1.67: real time    1.67
       DOS:  cpu time    0.00: real time    0.00
    CHARGE:  cpu time    1.07: real time    1.07
    MIXING:  cpu time    0.01: real time    0.01
    --------------------------------------------
      LOOP:  cpu time   14.62: real time   14.73

 eigenvalue-minimisations  :  2949
 total energy-change (2. order) :-0.5841844E-03  (-0.1095426E-03)
 number of electron    1085.9999550 magnetization     202.1162817
 augmentation part      617.3005154 magnetization     179.6415090

 Broyden mixing:
  rms(total) = 0.44766E-01    rms(broyden)= 0.44764E-01
  rms(prec ) = 0.50048E-01
  weight for this iteration     100.00

 eigenvalues of (default mixing * dielectric matrix)
  average eigenvalue GAMMA=   0.6449
  2.1470  0.7719  0.1285  0.1103  0.0666

 Free energy of the ion-electron system (eV)
  ---------------------------------------------------
  alpha Z        PSCENC =      2067.85644204
  Ewald energy   TEWEN  =    423773.18485000
  -1/2 Hartree   DENC   =   -519602.35795664
  -exchange  EXHF       =         0.00000000
  -V(xc)+E(xc)   XCENC  =      1982.15071103
  PAW double counting   =    106757.31101064  -113112.58794917
  entropy T*S    EENTRO =        -0.24629279
  eigenvalues    EBANDS =      -718.35165574
  atomic energy  EATOM  =     98035.95264826
  ---------------------------------------------------
  free energy    TOTEN  =      -817.08819236 eV

  energy without entropy =     -816.84189957  energy(sigma->0) =     -817.02661916


--------------------------------------------------------------------------------------------------------




----------------------------------------- Iteration    2(   7)  ---------------------------------------


    POTLOK:  cpu time    0.35: real time    0.35
    SETDIJ:  cpu time    0.05: real time    0.05
    EDDIAG:  cpu time    4.37: real time    4.38
  RMM-DIIS:  cpu time    7.19: real time    7.24
    ORTHCH:  cpu time    1.68: real time    1.68
       DOS:  cpu time    0.00: real time    0.00
    CHARGE:  cpu time    1.06: real time    1.06
    MIXING:  cpu time    0.01: real time    0.01
    --------------------------------------------
      LOOP:  cpu time   14.71: real time   14.78

 eigenvalue-minimisations  :  2959
 total energy-change (2. order) : 0.5837293E-03  (-0.5817346E-04)
 number of electron    1085.9999550 magnetization     202.1161794
 augmentation part      617.3003957 magnetization     179.6445620

 Broyden mixing:
  rms(total) = 0.23759E-01    rms(broyden)= 0.23758E-01
  rms(prec ) = 0.27814E-01
  weight for this iteration     100.00

 eigenvalues of (default mixing * dielectric matrix)
  average eigenvalue GAMMA=   0.5788
  2.2359  0.7978  0.1485  0.0664  0.1122  0.1122

 Free energy of the ion-electron system (eV)
  ---------------------------------------------------
  alpha Z        PSCENC =      2067.85644204
  Ewald energy   TEWEN  =    423773.18485000
  -1/2 Hartree   DENC   =   -519601.92760872
  -exchange  EXHF       =         0.00000000
  -V(xc)+E(xc)   XCENC  =      1982.15177704
  PAW double counting   =    106757.38847002  -113112.66997461
  entropy T*S    EENTRO =        -0.24591592
  eigenvalues    EBANDS =      -718.77829674
  atomic energy  EATOM  =     98035.95264826
  ---------------------------------------------------
  free energy    TOTEN  =      -817.08760863 eV

  energy without entropy =     -816.84169271  energy(sigma->0) =     -817.02612965


--------------------------------------------------------------------------------------------------------




----------------------------------------- Iteration    2(   8)  ---------------------------------------


    POTLOK:  cpu time    0.35: real time    0.35
    SETDIJ:  cpu time    0.05: real time    0.05
    EDDIAG:  cpu time    4.37: real time    4.38
  RMM-DIIS:  cpu time    7.11: real time    7.24
    ORTHCH:  cpu time    1.68: real time    1.68
       DOS:  cpu time    0.00: real time    0.00
    CHARGE:  cpu time    1.06: real time    1.07
    MIXING:  cpu time    0.01: real time    0.01
    --------------------------------------------
      LOOP:  cpu time   14.63: real time   14.79

 eigenvalue-minimisations  :  2959
 total energy-change (2. order) : 0.1935318E-03  (-0.1727635E-04)
 number of electron    1085.9999550 magnetization     202.1160781
 augmentation part      617.2999260 magnetization     179.6420001

 Broyden mixing:
  rms(total) = 0.68256E-02    rms(broyden)= 0.68239E-02
  rms(prec ) = 0.80345E-02
  weight for this iteration     100.00

 eigenvalues of (default mixing * dielectric matrix)
  average eigenvalue GAMMA=   0.6051
  2.3405  0.9128  0.5793  0.1312  0.1145  0.0664  0.0906

 Free energy of the ion-electron system (eV)
  ---------------------------------------------------
  alpha Z        PSCENC =      2067.85644204
  Ewald energy   TEWEN  =    423773.18485000
  -1/2 Hartree   DENC   =   -519602.16423187
  -exchange  EXHF       =         0.00000000
  -V(xc)+E(xc)   XCENC  =      1982.15118294
  PAW double counting   =    106757.40868701  -113112.69039197
  entropy T*S    EENTRO =        -0.24628642
  eigenvalues    EBANDS =      -718.54031509
  atomic energy  EATOM  =     98035.95264826
  ---------------------------------------------------
  free energy    TOTEN  =      -817.08741510 eV

  energy without entropy =     -816.84112868  energy(sigma->0) =     -817.02584349


--------------------------------------------------------------------------------------------------------




----------------------------------------- Iteration    2(   9)  ---------------------------------------


    POTLOK:  cpu time    0.35: real time    0.35
    SETDIJ:  cpu time    0.05: real time    0.05
    EDDIAG:  cpu time    4.37: real time    4.38
  RMM-DIIS:  cpu time    7.14: real time    7.22
    ORTHCH:  cpu time    1.69: real time    1.69
       DOS:  cpu time    0.00: real time    0.00
    CHARGE:  cpu time    1.04: real time    1.06
    MIXING:  cpu time    0.01: real time    0.01
    --------------------------------------------
      LOOP:  cpu time   14.65: real time   14.78

 eigenvalue-minimisations  :  2955
 total energy-change (2. order) :-0.4605007E-04  (-0.6433222E-05)
 number of electron    1085.9999550 magnetization     202.1160712
 augmentation part      617.3005077 magnetization     179.6413834

 Broyden mixing:
  rms(total) = 0.11659E-01    rms(broyden)= 0.11659E-01
  rms(prec ) = 0.13086E-01
  weight for this iteration     100.00

 eigenvalues of (default mixing * dielectric matrix)
  average eigenvalue GAMMA=   0.5703
  2.3854  1.0013  0.6561  0.0664  0.1278  0.1278  0.1100  0.0876

 Free energy of the ion-electron system (eV)
  ---------------------------------------------------
  alpha Z        PSCENC =      2067.85644204
  Ewald energy   TEWEN  =    423773.18485000
  -1/2 Hartree   DENC   =   -519602.22011953
  -exchange  EXHF       =         0.00000000
  -V(xc)+E(xc)   XCENC  =      1982.15097491
  PAW double counting   =    106757.41920720  -113112.69555483
  entropy T*S    EENTRO =        -0.24629015
  eigenvalues    EBANDS =      -718.48961905
  atomic energy  EATOM  =     98035.95264826
  ---------------------------------------------------
  free energy    TOTEN  =      -817.08746115 eV

  energy without entropy =     -816.84117100  energy(sigma->0) =     -817.02588861


--------------------------------------------------------------------------------------------------------




----------------------------------------- Iteration    2(  10)  ---------------------------------------


    POTLOK:  cpu time    0.36: real time    0.37
    SETDIJ:  cpu time    0.05: real time    0.05
    EDDIAG:  cpu time    4.71: real time    4.73
  RMM-DIIS:  cpu time    7.07: real time    7.16
    ORTHCH:  cpu time    1.68: real time    1.69
       DOS:  cpu time    0.00: real time    0.00
    CHARGE:  cpu time    1.05: real time    1.05
    MIXING:  cpu time    0.01: real time    0.01
    --------------------------------------------
      LOOP:  cpu time   14.94: real time   15.07

 eigenvalue-minimisations  :  2939
 total energy-change (2. order) : 0.5071753E-04  (-0.3219477E-05)
 number of electron    1085.9999550 magnetization     202.1160126
 augmentation part      617.3010169 magnetization     179.6431523

 Broyden mixing:
  rms(total) = 0.23924E-02    rms(broyden)= 0.23917E-02
  rms(prec ) = 0.27263E-02
  weight for this iteration     100.00

 eigenvalues of (default mixing * dielectric matrix)
  average eigenvalue GAMMA=   0.5341
  2.3833  1.0168  0.6612  0.2358  0.1372  0.0664  0.1124  0.1069  0.0871

 Free energy of the ion-electron system (eV)
  ---------------------------------------------------
  alpha Z        PSCENC =      2067.85644204
  Ewald energy   TEWEN  =    423773.18485000
  -1/2 Hartree   DENC   =   -519602.06198442
  -exchange  EXHF       =         0.00000000
  -V(xc)+E(xc)   XCENC  =      1982.15142417
  PAW double counting   =    106757.42168205  -113112.69579608
  entropy T*S    EENTRO =        -0.24613162
  eigenvalues    EBANDS =      -718.65054483
  atomic energy  EATOM  =     98035.95264826
  ---------------------------------------------------
  free energy    TOTEN  =      -817.08741043 eV

  energy without entropy =     -816.84127881  energy(sigma->0) =     -817.02587753


--------------------------------------------------------------------------------------------------------




----------------------------------------- Iteration    2(  11)  ---------------------------------------


    POTLOK:  cpu time    0.34: real time    0.37
    SETDIJ:  cpu time    0.08: real time    0.08
    EDDIAG:  cpu time    4.42: real time    4.43
  RMM-DIIS:  cpu time    6.49: real time    6.53
    ORTHCH:  cpu time    1.71: real time    1.71
       DOS:  cpu time    0.00: real time    0.00
    --------------------------------------------
      LOOP:  cpu time   13.04: real time   13.12

 eigenvalue-minimisations  :  2636
 total energy-change (2. order) :-0.7601338E-06  (-0.5495408E-06)
 number of electron    1085.9999550 magnetization     202.1160126
 augmentation part      617.3010169 magnetization     179.6431523

 Free energy of the ion-electron system (eV)
  ---------------------------------------------------
  alpha Z        PSCENC =      2067.85644204
  Ewald energy   TEWEN  =    423773.18485000
  -1/2 Hartree   DENC   =   -519602.14631308
  -exchange  EXHF       =         0.00000000
  -V(xc)+E(xc)   XCENC  =      1982.15124267
  PAW double counting   =    106757.43499969  -113112.70982385
  entropy T*S    EENTRO =        -0.24624128
  eigenvalues    EBANDS =      -718.56521563
  atomic energy  EATOM  =     98035.95264826
  ---------------------------------------------------
  free energy    TOTEN  =      -817.08741119 eV

  energy without entropy =     -816.84116991  energy(sigma->0) =     -817.02585087


--------------------------------------------------------------------------------------------------------




 average (electrostatic) potential at core
  the test charge radii are     1.0452  0.7215
  (the norm of the test charge is              1.0000)
       1 -86.7455       2 -86.7450       3 -86.7487       4 -86.7484       5 -86.7462
       6 -86.7464       7 -86.7461       8 -86.7477       9 -86.7450      10 -86.7499
      11 -86.7485      12 -86.7432      13 -86.7428      14 -86.7505      15 -86.7495
      16 -86.7508      17 -86.7462      18 -86.7485      19 -86.7505      20 -86.7470
      21 -86.7467      22 -86.7476      23 -86.7475      24 -86.7506      25 -86.8438
      26 -86.8435      27 -86.8451      28 -86.8491      29 -86.8479      30 -86.8498
      31 -86.8494      32 -86.8494      33 -86.8460      34 -86.8486      35 -86.8454
      36 -86.8481      37 -86.8462      38 -86.8454      39 -86.8457      40 -86.8454
      41 -86.8471      42 -86.8451      43 -86.8481      44 -86.8488      45 -86.8457
      46 -86.8432      47 -86.8453      48 -86.8487      49 -86.8187      50 -86.8215
      51 -86.8216      52 -86.8182      53 -86.8173      54 -86.8173      55 -86.8179
      56 -86.8176      57 -86.8274      58 -86.8128      59 -86.8148      60 -86.8115
      61 -86.8320      62 -86.8289      63 -86.8138      64 -86.8137      65 -86.8264
      66 -86.8212      67 -86.8257      68 -86.8229      69 -86.8164      70 -86.8211
      71 -86.8201      72 -86.8190      73 -86.8587      74 -86.8597      75 -86.8568
      76 -86.8572      77 -86.8547      78 -86.8423      79 -86.8533      80 -86.8475
      81 -86.8578      82 -86.8691      83 -86.8700      84 -86.8575      85 -86.8610
      86 -86.8381      87 -86.8659      88 -86.8390      89 -86.8625      90 -86.8610
      91 -86.8547      92 -86.8602      93 -86.8583      94 -86.8642      95 -86.8604
      96 -86.8559      97 -86.7532      98 -86.7540      99 -86.7501     100 -86.7582
     101 -86.7515     102 -86.7637     103 -86.7662     104 -86.7545     105 -86.7434
     106 -86.7587     107 -86.9020     108 -86.7574     109 -86.7544     110 -86.7558
     111 -86.8867     112 -86.9004     113 -86.7561     114 -86.7529     115 -86.7585
     116 -86.7545     117 -86.7502     118 -86.7467     119 -86.7483     120 -86.7521
     121 -74.3063
 
 
 
 E-fermi :   1.8130     XC(G=0):  -6.7351     alpha+bet : -7.7752


 spin component 1

 k-point   1 :       0.0000    0.0000    0.0000
  band No.  band energies     occupation 
      1     -17.1817      1.00000
      2      -6.8711      1.00000
      3      -5.9886      1.00000
      4      -5.9469      1.00000
      5      -5.9316      1.00000
      6      -5.3031      1.00000
      7      -5.2937      1.00000
      8      -5.1275      1.00000
      9      -5.1040      1.00000
     10      -4.9247      1.00000
     11      -4.9151      1.00000
     12      -4.6843      1.00000
     13      -4.5620      1.00000
     14      -4.5326      1.00000
     15      -4.2817      1.00000
     16      -4.2358      1.00000
     17      -4.2264      1.00000
     18      -4.2160      1.00000
     19      -4.0339      1.00000
     20      -3.9298      1.00000
     21      -3.8714      1.00000
     22      -3.8623      1.00000
     23      -3.8564      1.00000
     24      -3.7626      1.00000
     25      -3.7471      1.00000
     26      -3.6754      1.00000
     27      -3.6221      1.00000
     28      -3.5603      1.00000
     29      -3.4878      1.00000
     30      -3.4437      1.00000
     31      -3.4168      1.00000
     32      -3.4003      1.00000
     33      -3.3597      1.00000
     34      -3.3438      1.00000
     35      -3.3421      1.00000
     36      -3.3280      1.00000
     37      -3.3102      1.00000
     38      -3.2955      1.00000
     39      -3.2574      1.00000
     40      -3.2368      1.00000
     41      -3.2081      1.00000
     42      -3.2063      1.00000
     43      -3.1953      1.00000
     44      -3.0846      1.00000
     45      -3.0824      1.00000
     46      -3.0631      1.00000
     47      -3.0482      1.00000
     48      -3.0189      1.00000
     49      -3.0075      1.00000
     50      -2.9938      1.00000
     51      -2.9836      1.00000
     52      -2.9720      1.00000
     53      -2.9493      1.00000
     54      -2.9385      1.00000
     55      -2.9342      1.00000
     56      -2.9256      1.00000
     57      -2.9181      1.00000
     58      -2.9104      1.00000
     59      -2.8574      1.00000
     60      -2.8554      1.00000
     61      -2.8511      1.00000
     62      -2.8492      1.00000
     63      -2.8017      1.00000
     64      -2.7925      1.00000
     65      -2.7761      1.00000
     66      -2.7727      1.00000
     67      -2.7496      1.00000
     68      -2.7424      1.00000
     69      -2.7391      1.00000
     70      -2.7337      1.00000
     71      -2.7262      1.00000
     72      -2.7148      1.00000
     73      -2.7009      1.00000
     74      -2.6960      1.00000
     75      -2.6880      1.00000
     76      -2.6751      1.00000
     77      -2.6689      1.00000
     78      -2.6642      1.00000
     79      -2.6611      1.00000
     80      -2.6579      1.00000
     81      -2.6301      1.00000
     82      -2.6267      1.00000
     83      -2.6260      1.00000
     84      -2.6182      1.00000
     85      -2.6167      1.00000
     86      -2.5971      1.00000
     87      -2.5816      1.00000
     88      -2.5673      1.00000
     89      -2.5574      1.00000
     90      -2.5500      1.00000
     91      -2.5235      1.00000
     92      -2.5137      1.00000
     93      -2.5012      1.00000
     94      -2.5001      1.00000
     95      -2.4987      1.00000
     96      -2.4842      1.00000
     97      -2.4838      1.00000
     98      -2.4796      1.00000
     99      -2.4748      1.00000
    100      -2.4624      1.00000
    101      -2.4615      1.00000
    102      -2.4593      1.00000
    103      -2.4534      1.00000
    104      -2.4456      1.00000
    105      -2.4402      1.00000
    106      -2.4313      1.00000
    107      -2.4267      1.00000
    108      -2.4237      1.00000
    109      -2.4177      1.00000
    110      -2.4162      1.00000
    111      -2.4150      1.00000
    112      -2.4066      1.00000
    113      -2.4020      1.00000
    114      -2.4008      1.00000
    115      -2.4003      1.00000
    116      -2.3954      1.00000
    117      -2.3785      1.00000
    118      -2.3538      1.00000
    119      -2.3347      1.00000
    120      -2.2892      1.00000
    121      -2.2775      1.00000
    122      -2.2393      1.00000
    123      -2.2309      1.00000
    124      -2.2244      1.00000
    125      -2.2185      1.00000
    126      -2.2101      1.00000
    127      -2.2059      1.00000
    128      -2.1968      1.00000
    129      -2.1526      1.00000
    130      -2.1501      1.00000
    131      -2.1489      1.00000
    132      -2.1460      1.00000
    133      -2.1442      1.00000
    134      -2.1384      1.00000
    135      -2.1290      1.00000
    136      -2.1112      1.00000
    137      -2.0793      1.00000
    138      -2.0743      1.00000
    139      -2.0709      1.00000
    140      -2.0690      1.00000
    141      -2.0663      1.00000
    142      -2.0555      1.00000
    143      -2.0358      1.00000
    144      -2.0334      1.00000
    145      -2.0203      1.00000
    146      -2.0175      1.00000
    147      -2.0142      1.00000
    148      -2.0107      1.00000
    149      -2.0068      1.00000
    150      -1.9860      1.00000
    151      -1.9804      1.00000
    152      -1.9472      1.00000
    153      -1.9097      1.00000
    154      -1.9035      1.00000
    155      -1.8783      1.00000
    156      -1.8775      1.00000
    157      -1.8754      1.00000
    158      -1.8711      1.00000
    159      -1.8666      1.00000
    160      -1.8577      1.00000
    161      -1.8558      1.00000
    162      -1.8511      1.00000
    163      -1.8500      1.00000
    164      -1.8417      1.00000
    165      -1.8265      1.00000
    166      -1.8199      1.00000
    167      -1.8104      1.00000
    168      -1.7947      1.00000
    169      -1.7892      1.00000
    170      -1.7671      1.00000
    171      -1.7625      1.00000
    172      -1.7592      1.00000
    173      -1.7385      1.00000
    174      -1.7234      1.00000
    175      -1.7173      1.00000
    176      -1.7050      1.00000
    177      -1.6967      1.00000
    178      -1.6930      1.00000
    179      -1.6836      1.00000
    180      -1.6791      1.00000
    181      -1.6734      1.00000
    182      -1.6544      1.00000
    183      -1.6357      1.00000
    184      -1.6345      1.00000
    185      -1.6306      1.00000
    186      -1.6253      1.00000
    187      -1.6098      1.00000
    188      -1.6015      1.00000
    189      -1.5908      1.00000
    190      -1.5588      1.00000
    191      -1.5555      1.00000
    192      -1.5462      1.00000
    193      -1.5449      1.00000
    194      -1.5400      1.00000
    195      -1.5367      1.00000
    196      -1.5320      1.00000
    197      -1.5295      1.00000
    198      -1.5023      1.00000
    199      -1.4956      1.00000
    200      -1.4759      1.00000
    201      -1.4718      1.00000
    202      -1.4699      1.00000
    203      -1.4627      1.00000
    204      -1.4550      1.00000
    205      -1.4525      1.00000
    206      -1.4366      1.00000
    207      -1.4268      1.00000
    208      -1.4241      1.00000
    209      -1.4181      1.00000
    210      -1.4140      1.00000
    211      -1.4060      1.00000
    212      -1.3746      1.00000
    213      -1.3620      1.00000
    214      -1.3588      1.00000
    215      -1.3552      1.00000
    216      -1.3504      1.00000
    217      -1.3469      1.00000
    218      -1.3447      1.00000
    219      -1.3378      1.00000
    220      -1.3248      1.00000
    221      -1.3231      1.00000
    222      -1.3218      1.00000
    223      -1.3147      1.00000
    224      -1.3095      1.00000
    225      -1.2843      1.00000
    226      -1.2806      1.00000
    227      -1.2479      1.00000
    228      -1.2439      1.00000
    229      -1.2390      1.00000
    230      -1.2334      1.00000
    231      -1.2140      1.00000
    232      -1.2056      1.00000
    233      -1.1781      1.00000
    234      -1.1749      1.00000
    235      -1.1529      1.00000
    236      -1.1339      1.00000
    237      -1.1328      1.00000
    238      -1.1263      1.00000
    239      -1.1158      1.00000
    240      -1.1120      1.00000
    241      -1.1112      1.00000
    242      -1.1078      1.00000
    243      -1.1054      1.00000
    244      -1.0917      1.00000
    245      -1.0898      1.00000
    246      -1.0837      1.00000
    247      -1.0774      1.00000
    248      -1.0767      1.00000
    249      -1.0766      1.00000
    250      -1.0710      1.00000
    251      -1.0662      1.00000
    252      -1.0480      1.00000
    253      -1.0429      1.00000
    254      -1.0427      1.00000
    255      -1.0385      1.00000
    256      -1.0350      1.00000
    257      -1.0298      1.00000
    258      -1.0217      1.00000
    259      -1.0176      1.00000
    260      -1.0150      1.00000
    261      -1.0027      1.00000
    262      -0.9890      1.00000
    263      -0.9864      1.00000
    264      -0.9847      1.00000
    265      -0.9647      1.00000
    266      -0.9618      1.00000
    267      -0.9546      1.00000
    268      -0.9533      1.00000
    269      -0.9483      1.00000
    270      -0.9377      1.00000
    271      -0.9353      1.00000
    272      -0.9345      1.00000
    273      -0.9307      1.00000
    274      -0.9302      1.00000
    275      -0.9277      1.00000
    276      -0.9271      1.00000
    277      -0.9264      1.00000
    278      -0.9252      1.00000
    279      -0.9232      1.00000
    280      -0.9060      1.00000
    281      -0.8918      1.00000
    282      -0.8855      1.00000
    283      -0.8834      1.00000
    284      -0.8797      1.00000
    285      -0.8700      1.00000
    286      -0.8666      1.00000
    287      -0.8630      1.00000
    288      -0.8592      1.00000
    289      -0.8525      1.00000
    290      -0.8511      1.00000
    291      -0.8491      1.00000
    292      -0.8435      1.00000
    293      -0.8391      1.00000
    294      -0.8370      1.00000
    295      -0.8365      1.00000
    296      -0.8340      1.00000
    297      -0.8300      1.00000
    298      -0.8256      1.00000
    299      -0.8236      1.00000
    300      -0.8230      1.00000
    301      -0.8210      1.00000
    302      -0.8172      1.00000
    303      -0.8155      1.00000
    304      -0.8122      1.00000
    305      -0.8097      1.00000
    306      -0.8076      1.00000
    307      -0.8051      1.00000
    308      -0.8038      1.00000
    309      -0.7851      1.00000
    310      -0.7807      1.00000
    311      -0.7722      1.00000
    312      -0.7641      1.00000
    313      -0.7476      1.00000
    314      -0.7457      1.00000
    315      -0.7442      1.00000
    316      -0.7278      1.00000
    317      -0.7217      1.00000
    318      -0.7152      1.00000
    319      -0.7081      1.00000
    320      -0.7000      1.00000
    321      -0.6994      1.00000
    322      -0.6972      1.00000
    323      -0.6915      1.00000
    324      -0.6879      1.00000
    325      -0.6849      1.00000
    326      -0.6831      1.00000
    327      -0.6809      1.00000
    328      -0.6729      1.00000
    329      -0.6720      1.00000
    330      -0.6682      1.00000
    331      -0.6663      1.00000
    332      -0.6611      1.00000
    333      -0.6575      1.00000
    334      -0.6561      1.00000
    335      -0.6527      1.00000
    336      -0.6510      1.00000
    337      -0.6473      1.00000
    338      -0.6452      1.00000
    339      -0.6427      1.00000
    340      -0.6409      1.00000
    341      -0.6390      1.00000
    342      -0.6357      1.00000
    343      -0.6318      1.00000
    344      -0.6289      1.00000
    345      -0.6265      1.00000
    346      -0.6241      1.00000
    347      -0.6112      1.00000
    348      -0.6068      1.00000
    349      -0.5978      1.00000
    350      -0.5963      1.00000
    351      -0.5934      1.00000
    352      -0.5912      1.00000
    353      -0.5897      1.00000
    354      -0.5851      1.00000
    355      -0.5785      1.00000
    356      -0.5775      1.00000
    357      -0.5728      1.00000
    358      -0.5666      1.00000
    359      -0.5628      1.00000
    360      -0.5475      1.00000
    361      -0.5415      1.00000
    362      -0.5306      1.00000
    363      -0.5204      1.00000
    364      -0.5101      1.00000
    365      -0.4982      1.00000
    366      -0.4826      1.00000
    367      -0.4774      1.00000
    368      -0.4719      1.00000
    369      -0.4672      1.00000
    370      -0.4623      1.00000
    371      -0.4586      1.00000
    372      -0.4568      1.00000
    373      -0.4502      1.00000
    374      -0.4475      1.00000
    375      -0.4425      1.00000
    376      -0.4391      1.00000
    377      -0.4354      1.00000
    378      -0.4335      1.00000
    379      -0.4269      1.00000
    380      -0.4208      1.00000
    381      -0.4189      1.00000
    382      -0.4139      1.00000
    383      -0.3814      1.00000
    384      -0.3676      1.00000
    385      -0.3648      1.00000
    386      -0.3520      1.00000
    387      -0.3419      1.00000
    388      -0.3364      1.00000
    389      -0.3325      1.00000
    390      -0.3277      1.00000
    391      -0.3208      1.00000
    392      -0.3118      1.00000
    393      -0.3020      1.00000
    394      -0.2940      1.00000
    395      -0.2917      1.00000
    396      -0.2861      1.00000
    397      -0.2519      1.00000
    398      -0.2476      1.00000
    399      -0.2459      1.00000
    400      -0.2374      1.00000
    401      -0.2344      1.00000
    402      -0.2315      1.00000
    403      -0.2270      1.00000
    404      -0.2193      1.00000
    405      -0.2118      1.00000
    406      -0.2071      1.00000
    407      -0.2022      1.00000
    408      -0.1955      1.00000
    409      -0.1928      1.00000
    410      -0.1920      1.00000
    411      -0.1840      1.00000
    412      -0.1793      1.00000
    413      -0.1697      1.00000
    414      -0.1371      1.00000
    415      -0.1076      1.00000
    416      -0.0936      1.00000
    417      -0.0808      1.00000
    418      -0.0761      1.00000
    419      -0.0737      1.00000
    420      -0.0654      1.00000
    421      -0.0621      1.00000
    422      -0.0586      1.00000
    423      -0.0469      1.00000
    424      -0.0396      1.00000
    425      -0.0359      1.00000
    426      -0.0322      1.00000
    427      -0.0300      1.00000
    428      -0.0269      1.00000
    429      -0.0212      1.00000
    430      -0.0201      1.00000
    431      -0.0178      1.00000
    432      -0.0151      1.00000
    433      -0.0118      1.00000
    434      -0.0098      1.00000
    435      -0.0068      1.00000
    436      -0.0043      1.00000
    437       0.0066      1.00000
    438       0.0109      1.00000
    439       0.0134      1.00000
    440       0.0191      1.00000
    441       0.0210      1.00000
    442       0.0381      1.00000
    443       0.0450      1.00000
    444       0.0533      1.00000
    445       0.0606      1.00000
    446       0.0634      1.00000
    447       0.0644      1.00000
    448       0.0700      1.00000
    449       0.0812      1.00000
    450       0.0881      1.00000
    451       0.0992      1.00000
    452       0.1148      1.00000
    453       0.1151      1.00000
    454       0.1188      1.00000
    455       0.1193      1.00000
    456       0.1278      1.00000
    457       0.1295      1.00000
    458       0.1415      1.00000
    459       0.1420      1.00000
    460       0.1433      1.00000
    461       0.1479      1.00000
    462       0.1508      1.00000
    463       0.1564      1.00000
    464       0.1587      1.00000
    465       0.1650      1.00000
    466       0.1681      1.00000
    467       0.1712      1.00000
    468       0.1745      1.00000
    469       0.1793      1.00000
    470       0.1810      1.00000
    471       0.1861      1.00000
    472       0.1881      1.00000
    473       0.1925      1.00000
    474       0.2025      1.00000
    475       0.2092      1.00000
    476       0.2179      1.00000
    477       0.2255      1.00000
    478       0.2265      1.00000
    479       0.2289      1.00000
    480       0.2443      1.00000
    481       0.2491      1.00000
    482       0.2601      1.00000
    483       0.2659      1.00000
    484       0.2820      1.00000
    485       0.2991      1.00000
    486       0.3063      1.00000
    487       0.3146      1.00000
    488       0.3178      1.00000
    489       0.3200      1.00000
    490       0.3225      1.00000
    491       0.3290      1.00000
    492       0.3319      1.00000
    493       0.3386      1.00000
    494       0.3474      1.00000
    495       0.3527      1.00000
    496       0.3620      1.00000
    497       0.3675      1.00000
    498       0.3852      1.00000
    499       0.3891      1.00000
    500       0.3960      1.00000
    501       0.4029      1.00000
    502       0.4094      1.00000
    503       0.4220      1.00000
    504       0.4234      1.00000
    505       0.4272      1.00000
    506       0.4298      1.00000
    507       0.4353      1.00000
    508       0.4387      1.00000
    509       0.4437      1.00000
    510       0.4501      1.00000
    511       0.4674      1.00000
    512       0.4698      1.00000
    513       0.4745      1.00000
    514       0.4792      1.00000
    515       0.4899      1.00000
    516       0.4946      1.00000
    517       0.4971      1.00000
    518       0.5077      1.00000
    519       0.5107      1.00000
    520       0.5142      1.00000
    521       0.5199      1.00000
    522       0.5208      1.00000
    523       0.5242      1.00000
    524       0.5254      1.00000
    525       0.5271      1.00000
    526       0.5329      1.00000
    527       0.5344      1.00000
    528       0.5380      1.00000
    529       0.5431      1.00000
    530       0.5516      1.00000
    531       0.5621      1.00000
    532       0.5641      1.00000
    533       0.5752      1.00000
    534       0.5850      1.00000
    535       0.5865      1.00000
    536       0.5891      1.00000
    537       0.5940      1.00000
    538       0.6052      1.00000
    539       0.6109      1.00000
    540       0.6152      1.00000
    541       0.6175      1.00000
    542       0.6212      1.00000
    543       0.6262      1.00000
    544       0.6290      1.00000
    545       0.6326      1.00000
    546       0.6493      1.00000
    547       0.6550      1.00000
    548       0.6620      1.00000
    549       0.6663      1.00000
    550       0.6769      1.00000
    551       0.6893      1.00000
    552       0.6974      1.00000
    553       0.7012      1.00000
    554       0.7044      1.00000
    555       0.7065      1.00000
    556       0.7067      1.00000
    557       0.7115      1.00000
    558       0.7246      1.00000
    559       0.7388      1.00000
    560       0.7447      1.00000
    561       0.7688      1.00000
    562       0.7936      1.00000
    563       0.8090      1.00000
    564       0.8094      1.00000
    565       0.8138      1.00000
    566       0.8172      1.00000
    567       0.8295      1.00000
    568       0.8393      1.00000
    569       0.8516      1.00000
    570       0.8567      1.00000
    571       0.8622      1.00000
    572       0.8674      1.00000
    573       0.8718      1.00000
    574       0.8728      1.00000
    575       0.8761      1.00000
    576       0.8807      1.00000
    577       0.8958      1.00000
    578       0.9012      1.00000
    579       0.9022      1.00000
    580       0.9075      1.00000
    581       0.9088      1.00000
    582       0.9107      1.00000
    583       0.9153      1.00000
    584       0.9210      1.00000
    585       0.9243      1.00000
    586       0.9279      1.00000
    587       0.9290      1.00000
    588       0.9377      1.00000
    589       0.9431      1.00000
    590       0.9487      1.00000
    591       0.9499      1.00000
    592       0.9530      1.00000
    593       0.9541      1.00000
    594       0.9640      1.00000
    595       0.9697      1.00000
    596       0.9768      1.00000
    597       0.9804      1.00000
    598       0.9839      1.00000
    599       1.0059      1.00000
    600       1.0222      1.00000
    601       1.0242      1.00000
    602       1.0256      1.00000
    603       1.0291      1.00000
    604       1.0363      1.00000
    605       1.0403      1.00000
    606       1.0498      1.00000
    607       1.0519      1.00000
    608       1.0522      1.00000
    609       1.0599      1.00000
    610       1.0645      1.00000
    611       1.0660      1.00000
    612       1.0709      0.99999
    613       1.0739      0.99999
    614       1.0750      0.99999
    615       1.0856      0.99999
    616       1.0971      0.99999
    617       1.1196      0.99997
    618       1.1456      0.99995
    619       1.1559      0.99993
    620       1.1612      0.99992
    621       1.1623      0.99992
    622       1.1659      0.99991
    623       1.1946      0.99981
    624       1.2026      0.99977
    625       1.2070      0.99974
    626       1.2088      0.99973
    627       1.2097      0.99972
    628       1.2126      0.99970
    629       1.2143      0.99969
    630       1.2239      0.99962
    631       1.2356      0.99950
    632       1.2466      0.99937
    633       1.2553      0.99925
    634       1.2753      0.99890
    635       1.3165      0.99781
    636       1.3785      0.99561
    637       1.4397      0.99598
    638       1.4529      0.99712
    639       1.4647      0.99864
    640       1.6090      1.05044
    641       1.6243      1.05154
    642       1.6412      1.04776
    643       1.6978      0.97694
    644       1.7775      0.68323
    645       1.8551      0.28461
    646       1.9181      0.04721
    647       2.0253     -0.04848
    648       2.0654     -0.03186
    649       2.2078      0.00487
    650       2.2325      0.00478
    651       2.2418      0.00456
    652       2.3146      0.00202
    653       2.3738      0.00070
    654       2.5377      0.00001
    655       2.5964      0.00000
    656       2.8455      0.00000
    657       2.8503      0.00000
    658       2.8547      0.00000
    659       2.8612      0.00000
    660       2.8790      0.00000
    661       2.8802      0.00000
    662       2.8964      0.00000
    663       2.9067      0.00000
    664       2.9637      0.00000
    665       3.0148      0.00000
    666       3.2109      0.00000
    667       3.2168      0.00000
    668       3.2207      0.00000
    669       3.2256      0.00000
    670       3.2303      0.00000
    671       3.2513      0.00000
    672       3.2822      0.00000
    673       3.2987      0.00000
    674       3.3661      0.00000
    675       3.3955      0.00000
    676       3.5364      0.00000
    677       3.6794      0.00000
    678       3.7240      0.00000
    679       4.0303      0.00000
    680       4.0316      0.00000
    681       4.0363      0.00000
    682       4.0474      0.00000
    683       4.0495      0.00000
    684       4.0523      0.00000
    685       4.0635      0.00000
    686       4.0814      0.00000
    687       4.1208      0.00000
    688       4.1296      0.00000
    689       4.1363      0.00000
    690       4.1431      0.00000
    691       4.2368      0.00000
    692       4.2650      0.00000
    693       4.3497      0.00000
    694       4.4173      0.00000
    695       4.4301      0.00000
    696       4.4348      0.00000
    697       4.4813      0.00000
    698       4.4919      0.00000
    699       4.6300      0.00000
    700       4.6444      0.00000
    701       4.7854      0.00000
    702       4.9256      0.00000
    703       4.9620      0.00000
    704       5.0577      0.00000
    705       5.0982      0.00000
    706       5.1447      0.00000
    707       5.2172      0.00000
    708       5.3878      0.00000
    709       5.4044      0.00000
    710       5.4971      0.00000
    711       5.4988      0.00000
    712       5.5569      0.00000
    713       5.5909      0.00000
    714       5.6548      0.00000
    715       5.6699      0.00000
    716       5.8008      0.00000
    717       5.9056      0.00000
    718       6.0262      0.00000
    719       6.0644      0.00000
    720       6.1986      0.00000
    721       6.4121      0.00000
    722       6.4859      0.00000
    723       6.6886      0.00000
    724       6.7588      0.00000
    725       6.8027      0.00000
    726       6.9820      0.00000
    727       7.0210      0.00000
    728       7.1063      0.00000
    729       7.1081      0.00000
    730       7.1875      0.00000
    731       7.2120      0.00000
    732       7.2735      0.00000
    733       7.3115      0.00000
    734       7.3679      0.00000
    735       7.4518      0.00000
    736       7.5937      0.00000

 spin component 2

 k-point   1 :       0.0000    0.0000    0.0000
  band No.  band energies     occupation 
      1     -16.8474      1.00000
      2      -6.8702      1.00000
      3      -5.9715      1.00000
      4      -5.9352      1.00000
      5      -5.9190      1.00000
      6      -5.2680      1.00000
      7      -5.2602      1.00000
      8      -5.0862      1.00000
      9      -5.0630      1.00000
     10      -4.8569      1.00000
     11      -4.8511      1.00000
     12      -4.5695      1.00000
     13      -4.4706      1.00000
     14      -4.4480      1.00000
     15      -4.1170      1.00000
     16      -4.0867      1.00000
     17      -4.0838      1.00000
     18      -4.0745      1.00000
     19      -3.7923      1.00000
     20      -3.7455      1.00000
     21      -3.6259      1.00000
     22      -3.6043      1.00000
     23      -3.5027      1.00000
     24      -3.4226      1.00000
     25      -3.3540      1.00000
     26      -3.2708      1.00000
     27      -3.2596      1.00000
     28      -3.2108      1.00000
     29      -3.1036      1.00000
     30      -3.0623      1.00000
     31      -3.0500      1.00000
     32      -3.0218      1.00000
     33      -2.9646      1.00000
     34      -2.9251      1.00000
     35      -2.8175      1.00000
     36      -2.7601      1.00000
     37      -2.5794      1.00000
     38      -2.5422      1.00000
     39      -2.5172      1.00000
     40      -2.4394      1.00000
     41      -2.4355      1.00000
     42      -2.3919      1.00000
     43      -2.3482      1.00000
     44      -2.2967      1.00000
     45      -2.2908      1.00000
     46      -2.2798      1.00000
     47      -2.2732      1.00000
     48      -2.2298      1.00000
     49      -2.1470      1.00000
     50      -2.1430      1.00000
     51      -2.1414      1.00000
     52      -2.0947      1.00000
     53      -2.0912      1.00000
     54      -2.0757      1.00000
     55      -2.0746      1.00000
     56      -2.0123      1.00000
     57      -2.0092      1.00000
     58      -1.9659      1.00000
     59      -1.9509      1.00000
     60      -1.9301      1.00000
     61      -1.9087      1.00000
     62      -1.9074      1.00000
     63      -1.8941      1.00000
     64      -1.8936      1.00000
     65      -1.8923      1.00000
     66      -1.8850      1.00000
     67      -1.8837      1.00000
     68      -1.8822      1.00000
     69      -1.8700      1.00000
     70      -1.8641      1.00000
     71      -1.7947      1.00000
     72      -1.7789      1.00000
     73      -1.7743      1.00000
     74      -1.7616      1.00000
     75      -1.6871      1.00000
     76      -1.6844      1.00000
     77      -1.6773      1.00000
     78      -1.6761      1.00000
     79      -1.6453      1.00000
     80      -1.6083      1.00000
     81      -1.5986      1.00000
     82      -1.5789      1.00000
     83      -1.5510      1.00000
     84      -1.5168      1.00000
     85      -1.5034      1.00000
     86      -1.4628      1.00000
     87      -1.4597      1.00000
     88      -1.4547      1.00000
     89      -1.4474      1.00000
     90      -1.4362      1.00000
     91      -1.4295      1.00000
     92      -1.4287      1.00000
     93      -1.4097      1.00000
     94      -1.4092      1.00000
     95      -1.3851      1.00000
     96      -1.3771      1.00000
     97      -1.3670      1.00000
     98      -1.3631      1.00000
     99      -1.3533      1.00000
    100      -1.3372      1.00000
    101      -1.3340      1.00000
    102      -1.3179      1.00000
    103      -1.3121      1.00000
    104      -1.3035      1.00000
    105      -1.2960      1.00000
    106      -1.2767      1.00000
    107      -1.2714      1.00000
    108      -1.2593      1.00000
    109      -1.2527      1.00000
    110      -1.2383      1.00000
    111      -1.2107      1.00000
    112      -1.1713      1.00000
    113      -1.1687      1.00000
    114      -1.1204      1.00000
    115      -1.1032      1.00000
    116      -1.0991      1.00000
    117      -1.0961      1.00000
    118      -1.0931      1.00000
    119      -1.0852      1.00000
    120      -1.0750      1.00000
    121      -1.0660      1.00000
    122      -1.0640      1.00000
    123      -1.0596      1.00000
    124      -1.0219      1.00000
    125      -1.0089      1.00000
    126      -1.0004      1.00000
    127      -0.9849      1.00000
    128      -0.9682      1.00000
    129      -0.8843      1.00000
    130      -0.8792      1.00000
    131      -0.8690      1.00000
    132      -0.8670      1.00000
    133      -0.8651      1.00000
    134      -0.8613      1.00000
    135      -0.8524      1.00000
    136      -0.8400      1.00000
    137      -0.8324      1.00000
    138      -0.8213      1.00000
    139      -0.8147      1.00000
    140      -0.8130      1.00000
    141      -0.7973      1.00000
    142      -0.7914      1.00000
    143      -0.7568      1.00000
    144      -0.7552      1.00000
    145      -0.7501      1.00000
    146      -0.7382      1.00000
    147      -0.7277      1.00000
    148      -0.7209      1.00000
    149      -0.7200      1.00000
    150      -0.6821      1.00000
    151      -0.6453      1.00000
    152      -0.6421      1.00000
    153      -0.6380      1.00000
    154      -0.6346      1.00000
    155      -0.6133      1.00000
    156      -0.6065      1.00000
    157      -0.6001      1.00000
    158      -0.5922      1.00000
    159      -0.5767      1.00000
    160      -0.5607      1.00000
    161      -0.5556      1.00000
    162      -0.5229      1.00000
    163      -0.5152      1.00000
    164      -0.5070      1.00000
    165      -0.5026      1.00000
    166      -0.4883      1.00000
    167      -0.4850      1.00000
    168      -0.4689      1.00000
    169      -0.4631      1.00000
    170      -0.4554      1.00000
    171      -0.4533      1.00000
    172      -0.4510      1.00000
    173      -0.4230      1.00000
    174      -0.3990      1.00000
    175      -0.3981      1.00000
    176      -0.3914      1.00000
    177      -0.3766      1.00000
    178      -0.3645      1.00000
    179      -0.3534      1.00000
    180      -0.3488      1.00000
    181      -0.3414      1.00000
    182      -0.2967      1.00000
    183      -0.2926      1.00000
    184      -0.2839      1.00000
    185      -0.2826      1.00000
    186      -0.2782      1.00000
    187      -0.2722      1.00000
    188      -0.2577      1.00000
    189      -0.2516      1.00000
    190      -0.2257      1.00000
    191      -0.2219      1.00000
    192      -0.2192      1.00000
    193      -0.2156      1.00000
    194      -0.1614      1.00000
    195      -0.1566      1.00000
    196      -0.1477      1.00000
    197      -0.1417      1.00000
    198      -0.1373      1.00000
    199      -0.1346      1.00000
    200      -0.1331      1.00000
    201      -0.1260      1.00000
    202      -0.0791      1.00000
    203      -0.0740      1.00000
    204      -0.0517      1.00000
    205      -0.0461      1.00000
    206      -0.0389      1.00000
    207      -0.0321      1.00000
    208      -0.0210      1.00000
    209      -0.0157      1.00000
    210      -0.0085      1.00000
    211      -0.0038      1.00000
    212       0.0092      1.00000
    213       0.0215      1.00000
    214       0.0449      1.00000
    215       0.0502      1.00000
    216       0.0806      1.00000
    217       0.0859      1.00000
    218       0.1278      1.00000
    219       0.1298      1.00000
    220       0.1335      1.00000
    221       0.1365      1.00000
    222       0.1396      1.00000
    223       0.1459      1.00000
    224       0.1503      1.00000
    225       0.1507      1.00000
    226       0.1547      1.00000
    227       0.2022      1.00000
    228       0.2104      1.00000
    229       0.2201      1.00000
    230       0.2244      1.00000
    231       0.2251      1.00000
    232       0.2264      1.00000
    233       0.2327      1.00000
    234       0.2348      1.00000
    235       0.2359      1.00000
    236       0.2403      1.00000
    237       0.2433      1.00000
    238       0.2483      1.00000
    239       0.2622      1.00000
    240       0.2669      1.00000
    241       0.2680      1.00000
    242       0.2780      1.00000
    243       0.2799      1.00000
    244       0.2908      1.00000
    245       0.3221      1.00000
    246       0.3310      1.00000
    247       0.3367      1.00000
    248       0.3397      1.00000
    249       0.3441      1.00000
    250       0.3505      1.00000
    251       0.3596      1.00000
    252       0.3684      1.00000
    253       0.3792      1.00000
    254       0.3878      1.00000
    255       0.4087      1.00000
    256       0.4276      1.00000
    257       0.4338      1.00000
    258       0.4424      1.00000
    259       0.4463      1.00000
    260       0.4523      1.00000
    261       0.4723      1.00000
    262       0.4762      1.00000
    263       0.4906      1.00000
    264       0.4916      1.00000
    265       0.4960      1.00000
    266       0.5075      1.00000
    267       0.5138      1.00000
    268       0.5294      1.00000
    269       0.5350      1.00000
    270       0.5379      1.00000
    271       0.5394      1.00000
    272       0.5406      1.00000
    273       0.5451      1.00000
    274       0.5523      1.00000
    275       0.5576      1.00000
    276       0.5615      1.00000
    277       0.5642      1.00000
    278       0.5685      1.00000
    279       0.5712      1.00000
    280       0.5768      1.00000
    281       0.5802      1.00000
    282       0.5860      1.00000
    283       0.6025      1.00000
    284       0.6048      1.00000
    285       0.6141      1.00000
    286       0.6398      1.00000
    287       0.6504      1.00000
    288       0.6569      1.00000
    289       0.6666      1.00000
    290       0.6788      1.00000
    291       0.6871      1.00000
    292       0.6933      1.00000
    293       0.6983      1.00000
    294       0.7092      1.00000
    295       0.7182      1.00000
    296       0.7251      1.00000
    297       0.7256      1.00000
    298       0.7320      1.00000
    299       0.7375      1.00000
    300       0.7395      1.00000
    301       0.7447      1.00000
    302       0.7474      1.00000
    303       0.7573      1.00000
    304       0.7677      1.00000
    305       0.7729      1.00000
    306       0.7805      1.00000
    307       0.7871      1.00000
    308       0.7910      1.00000
    309       0.7917      1.00000
    310       0.7963      1.00000
    311       0.8027      1.00000
    312       0.8066      1.00000
    313       0.8073      1.00000
    314       0.8083      1.00000
    315       0.8172      1.00000
    316       0.8191      1.00000
    317       0.8230      1.00000
    318       0.8279      1.00000
    319       0.8303      1.00000
    320       0.8434      1.00000
    321       0.8477      1.00000
    322       0.8530      1.00000
    323       0.8553      1.00000
    324       0.8572      1.00000
    325       0.8601      1.00000
    326       0.8635      1.00000
    327       0.8670      1.00000
    328       0.8692      1.00000
    329       0.8727      1.00000
    330       0.8798      1.00000
    331       0.8843      1.00000
    332       0.8906      1.00000
    333       0.8957      1.00000
    334       0.9277      1.00000
    335       0.9483      1.00000
    336       0.9640      1.00000
    337       0.9676      1.00000
    338       0.9717      1.00000
    339       0.9736      1.00000
    340       0.9763      1.00000
    341       0.9791      1.00000
    342       0.9804      1.00000
    343       0.9849      1.00000
    344       0.9879      1.00000
    345       0.9968      1.00000
    346       0.9974      1.00000
    347       1.0003      1.00000
    348       1.0086      1.00000
    349       1.0115      1.00000
    350       1.0127      1.00000
    351       1.0166      1.00000
    352       1.0207      1.00000
    353       1.0337      1.00000
    354       1.0363      1.00000
    355       1.0388      1.00000
    356       1.0407      1.00000
    357       1.0447      1.00000
    358       1.0532      1.00000
    359       1.0573      1.00000
    360       1.0586      1.00000
    361       1.0623      1.00000
    362       1.0661      1.00000
    363       1.0678      0.99999
    364       1.0700      0.99999
    365       1.0767      0.99999
    366       1.0858      0.99999
    367       1.0890      0.99999
    368       1.1113      0.99998
    369       1.1161      0.99998
    370       1.1319      0.99996
    371       1.1558      0.99993
    372       1.1624      0.99992
    373       1.1675      0.99990
    374       1.1748      0.99988
    375       1.1830      0.99986
    376       1.1920      0.99982
    377       1.1930      0.99982
    378       1.1984      0.99979
    379       1.2101      0.99972
    380       1.2196      0.99965
    381       1.2314      0.99955
    382       1.2420      0.99943
    383       1.2487      0.99935
    384       1.2624      0.99914
    385       1.2804      0.99879
    386       1.2978      0.99837
    387       1.3039      0.99820
    388       1.3109      0.99799
    389       1.3262      0.99748
    390       1.3357      0.99714
    391       1.3366      0.99711
    392       1.3404      0.99697
    393       1.3561      0.99638
    394       1.3627      0.99614
    395       1.3727      0.99579
    396       1.3735      0.99576
    397       1.3802      0.99555
    398       1.3857      0.99540
    399       1.3892      0.99531
    400       1.3917      0.99526
    401       1.3953      0.99519
    402       1.4013      0.99511
    403       1.4213      0.99519
    404       1.4356      0.99574
    405       1.4567      0.99756
    406       1.4640      0.99854
    407       1.4887      1.00346
    408       1.4934      1.00470
    409       1.4991      1.00632
    410       1.5106      1.01007
    411       1.5149      1.01165
    412       1.5169      1.01239
    413       1.5370      1.02080
    414       1.5420      1.02305
    415       1.5447      1.02430
    416       1.5560      1.02969
    417       1.5637      1.03340
    418       1.5690      1.03594
    419       1.5702      1.03649
    420       1.5895      1.04478
    421       1.5941      1.04645
    422       1.6048      1.04956
    423       1.6403      1.04813
    424       1.6436      1.04672
    425       1.6479      1.04448
    426       1.6650      1.03049
    427       1.6954      0.98226
    428       1.7003      0.97121
    429       1.7365      0.86174
    430       1.7471      0.82070
    431       1.7486      0.81463
    432       1.7503      0.80730
    433       1.7656      0.73972
    434       1.7715      0.71218
    435       1.7847      0.64699
    436       1.7925      0.60729
    437       1.7961      0.58844
    438       1.7977      0.58045
    439       1.8042      0.54647
    440       1.8109      0.51087
    441       1.8138      0.49564
    442       1.8190      0.46797
    443       1.8269      0.42644
    444       1.8289      0.41616
    445       1.8306      0.40735
    446       1.8354      0.38260
    447       1.8385      0.36634
    448       1.8402      0.35772
    449       1.8412      0.35265
    450       1.8426      0.34564
    451       1.8451      0.33352
    452       1.8546      0.28700
    453       1.8554      0.28317
    454       1.8589      0.26652
    455       1.8629      0.24840
    456       1.8865      0.14894
    457       1.8926      0.12642
    458       1.9145      0.05689
    459       1.9236      0.03351
    460       1.9324      0.01389
    461       1.9372      0.00435
    462       1.9419     -0.00409
    463       1.9508     -0.01800
    464       1.9579     -0.02712
    465       1.9808     -0.04596
    466       1.9845     -0.04770
    467       1.9955     -0.05086
    468       2.0100     -0.05139
    469       2.0365     -0.04477
    470       2.0369     -0.04462
    471       2.0431     -0.04211
    472       2.0488     -0.03966
    473       2.0574     -0.03569
    474       2.0615     -0.03373
    475       2.0697     -0.02980
    476       2.0767     -0.02643
    477       2.0943     -0.01840
    478       2.0948     -0.01815
    479       2.1007     -0.01567
    480       2.1040     -0.01434
    481       2.1053     -0.01382
    482       2.1106     -0.01180
    483       2.1117     -0.01140
    484       2.1156     -0.00997
    485       2.1221     -0.00781
    486       2.1331     -0.00455
    487       2.1361     -0.00373
    488       2.1714      0.00270
    489       2.1729      0.00287
    490       2.1842      0.00387
    491       2.1873      0.00409
    492       2.2078      0.00487
    493       2.2123      0.00492
    494       2.2140      0.00493
    495       2.2192      0.00493
    496       2.2213      0.00492
    497       2.2258      0.00488
    498       2.2284      0.00485
    499       2.2339      0.00475
    500       2.2374      0.00467
    501       2.2426      0.00454
    502       2.2461      0.00444
    503       2.2515      0.00427
    504       2.2533      0.00421
    505       2.2622      0.00390
    506       2.2788      0.00328
    507       2.2832      0.00311
    508       2.2868      0.00298
    509       2.2947      0.00269
    510       2.2954      0.00267
    511       2.2981      0.00257
    512       2.3029      0.00241
    513       2.3049      0.00234
    514       2.3102      0.00216
    515       2.3146      0.00202
    516       2.3236      0.00176
    517       2.3325      0.00151
    518       2.3407      0.00131
    519       2.3432      0.00126
    520       2.3570      0.00097
    521       2.3601      0.00092
    522       2.3694      0.00076
    523       2.3698      0.00076
    524       2.3778      0.00065
    525       2.3806      0.00061
    526       2.3876      0.00052
    527       2.3924      0.00047
    528       2.4014      0.00039
    529       2.4088      0.00033
    530       2.4177      0.00027
    531       2.4202      0.00025
    532       2.4264      0.00022
    533       2.4332      0.00018
    534       2.4393      0.00016
    535       2.4424      0.00015
    536       2.4461      0.00013
    537       2.4528      0.00011
    538       2.4716      0.00007
    539       2.4728      0.00007
    540       2.4819      0.00005
    541       2.4865      0.00005
    542       2.5001      0.00003
    543       2.5036      0.00003
    544       2.5126      0.00002
    545       2.5151      0.00002
    546       2.5196      0.00002
    547       2.5198      0.00002
    548       2.5232      0.00002
    549       2.5294      0.00001
    550       2.5304      0.00001
    551       2.5388      0.00001
    552       2.5581      0.00001
    553       2.5596      0.00000
    554       2.5780      0.00000
    555       2.5870      0.00000
    556       2.6159      0.00000
    557       2.6236      0.00000
    558       2.6338      0.00000
    559       2.6446      0.00000
    560       2.6550      0.00000
    561       2.6597      0.00000
    562       2.6631      0.00000
    563       2.6709      0.00000
    564       2.6793      0.00000
    565       2.6840      0.00000
    566       2.6866      0.00000
    567       2.6920      0.00000
    568       2.6944      0.00000
    569       2.6953      0.00000
    570       2.7102      0.00000
    571       2.7169      0.00000
    572       2.7517      0.00000
    573       2.7599      0.00000
    574       2.7659      0.00000
    575       2.7719      0.00000
    576       2.7755      0.00000
    577       2.7848      0.00000
    578       2.7962      0.00000
    579       2.8018      0.00000
    580       2.8059      0.00000
    581       2.8074      0.00000
    582       2.8212      0.00000
    583       2.8260      0.00000
    584       2.8307      0.00000
    585       2.8340      0.00000
    586       2.8380      0.00000
    587       2.8398      0.00000
    588       2.8413      0.00000
    589       2.8460      0.00000
    590       2.8479      0.00000
    591       2.8496      0.00000
    592       2.8503      0.00000
    593       2.8506      0.00000
    594       2.8526      0.00000
    595       2.8590      0.00000
    596       2.8628      0.00000
    597       2.8665      0.00000
    598       2.8693      0.00000
    599       2.8761      0.00000
    600       2.8788      0.00000
    601       2.8801      0.00000
    602       2.8831      0.00000
    603       2.8873      0.00000
    604       2.8895      0.00000
    605       2.8906      0.00000
    606       2.9043      0.00000
    607       2.9168      0.00000
    608       2.9240      0.00000
    609       2.9301      0.00000
    610       2.9334      0.00000
    611       2.9361      0.00000
    612       2.9381      0.00000
    613       2.9418      0.00000
    614       2.9443      0.00000
    615       2.9447      0.00000
    616       2.9479      0.00000
    617       2.9489      0.00000
    618       2.9536      0.00000
    619       2.9547      0.00000
    620       2.9572      0.00000
    621       2.9738      0.00000
    622       2.9774      0.00000
    623       2.9793      0.00000
    624       2.9821      0.00000
    625       2.9838      0.00000
    626       2.9855      0.00000
    627       3.0204      0.00000
    628       3.0226      0.00000
    629       3.0263      0.00000
    630       3.0351      0.00000
    631       3.0358      0.00000
    632       3.0509      0.00000
    633       3.0526      0.00000
    634       3.0540      0.00000
    635       3.0597      0.00000
    636       3.0798      0.00000
    637       3.1034      0.00000
    638       3.1175      0.00000
    639       3.1326      0.00000
    640       3.1562      0.00000
    641       3.1582      0.00000
    642       3.1610      0.00000
    643       3.1777      0.00000
    644       3.2132      0.00000
    645       3.3078      0.00000
    646       3.3233      0.00000
    647       3.3676      0.00000
    648       3.3862      0.00000
    649       3.4031      0.00000
    650       3.4519      0.00000
    651       3.4980      0.00000
    652       3.5938      0.00000
    653       3.6277      0.00000
    654       3.7552      0.00000
    655       3.8028      0.00000
    656       3.9732      0.00000
    657       3.9855      0.00000
    658       4.0621      0.00000
    659       4.0724      0.00000
    660       4.1375      0.00000
    661       4.1402      0.00000
    662       4.1489      0.00000
    663       4.1547      0.00000
    664       4.1576      0.00000
    665       4.1801      0.00000
    666       4.1893      0.00000
    667       4.2934      0.00000
    668       4.3134      0.00000
    669       4.3314      0.00000
    670       4.3484      0.00000
    671       4.4123      0.00000
    672       4.4180      0.00000
    673       4.4279      0.00000
    674       4.4777      0.00000
    675       4.5217      0.00000
    676       4.5459      0.00000
    677       4.6398      0.00000
    678       4.6585      0.00000
    679       4.7169      0.00000
    680       4.7211      0.00000
    681       4.7995      0.00000
    682       4.8393      0.00000
    683       4.8546      0.00000
    684       4.9458      0.00000
    685       4.9502      0.00000
    686       4.9540      0.00000
    687       4.9565      0.00000
    688       4.9685      0.00000
    689       4.9825      0.00000
    690       5.0056      0.00000
    691       5.0137      0.00000
    692       5.0195      0.00000
    693       5.0870      0.00000
    694       5.1398      0.00000
    695       5.1665      0.00000
    696       5.1777      0.00000
    697       5.1887      0.00000
    698       5.2006      0.00000
    699       5.5653      0.00000
    700       5.6874      0.00000
    701       5.6966      0.00000
    702       5.7070      0.00000
    703       5.7266      0.00000
    704       5.7738      0.00000
    705       5.8666      0.00000
    706       6.0579      0.00000
    707       6.0673      0.00000
    708       6.0847      0.00000
    709       6.1216      0.00000
    710       6.1458      0.00000
    711       6.1501      0.00000
    712       6.2155      0.00000
    713       6.2621      0.00000
    714       6.3294      0.00000
    715       6.3642      0.00000
    716       6.4718      0.00000
    717       6.5113      0.00000
    718       6.6104      0.00000
    719       6.7555      0.00000
    720       6.7724      0.00000
    721       6.7879      0.00000
    722       6.8721      0.00000
    723       7.0968      0.00000
    724       7.2651      0.00000
    725       7.3301      0.00000
    726       7.3392      0.00000
    727       7.3807      0.00000
    728       7.6389      0.00000
    729       7.6495      0.00000
    730       7.6574      0.00000
    731       7.6636      0.00000
    732       7.7065      0.00000
    733       7.7112      0.00000
    734       7.7454      0.00000
    735       7.7976      0.00000
    736       7.8522      0.00000


--------------------------------------------------------------------------------------------------------


 soft charge-density along one line, spin component           1
         0         1         2         3         4         5         6         7         8         9
 total charge-density along one line
 
 soft charge-density along one line, spin component           2
         0         1         2         3         4         5         6         7         8         9
 total charge-density along one line
 
 pseudopotential strength for first ion, spin component:           1
 -6.358  -0.003  -0.000  -0.024   0.002  -6.785  -0.003  -0.000
 -0.003  -6.415  -0.004  -0.002  -0.026  -0.003  -6.840  -0.004
 -0.000  -0.004  -6.417  -0.002  -0.007  -0.000  -0.004  -6.842
 -0.024  -0.002  -0.002  -6.426  -0.006  -0.023  -0.002  -0.002
  0.002  -0.026  -0.007  -0.006  -6.372   0.002  -0.025  -0.007
 -6.785  -0.003  -0.000  -0.023   0.002  -7.160  -0.003  -0.000
 -0.003  -6.840  -0.004  -0.002  -0.025  -0.003  -7.213  -0.004
 -0.000  -0.004  -6.842  -0.002  -0.007  -0.000  -0.004  -7.215
 -0.023  -0.002  -0.002  -6.850  -0.006  -0.022  -0.002  -0.002
  0.002  -0.025  -0.007  -0.006  -6.798   0.001  -0.024  -0.006
  0.000   0.000   0.005   0.001  -0.000   0.000   0.000   0.005
  0.001   0.000   0.009   0.002  -0.001   0.001   0.000   0.009
 -0.000  -0.001  -0.000  -0.000  -0.001  -0.000  -0.001  -0.000
 -0.000   0.000   0.007  -0.000   0.000  -0.000   0.000   0.007
 -0.000  -0.000   0.000  -0.001  -0.000  -0.000  -0.000   0.000
 -0.000   0.001  -0.000  -0.000  -0.002  -0.000   0.001  -0.000
 -0.000   0.000   0.011  -0.000   0.000  -0.000   0.000   0.011
 -0.000  -0.000   0.000   0.001  -0.000  -0.000  -0.000   0.000
 pseudopotential strength for first ion, spin component:           2
 -4.994  -0.004  -0.003   0.020  -0.001  -5.479  -0.004  -0.003
 -0.004  -4.976   0.003   0.002   0.021  -0.004  -5.461   0.003
 -0.003   0.003  -4.999  -0.002   0.010  -0.003   0.003  -5.483
  0.020   0.002  -0.002  -4.974  -0.002   0.019   0.002  -0.002
 -0.001   0.021   0.010  -0.002  -4.995  -0.001   0.021   0.010
 -5.479  -0.004  -0.003   0.019  -0.001  -5.910  -0.004  -0.003
 -0.004  -5.461   0.003   0.002   0.021  -0.004  -5.892   0.003
 -0.003   0.003  -5.483  -0.002   0.010  -0.003   0.003  -5.914
  0.019   0.002  -0.002  -5.459  -0.002   0.019   0.002  -0.002
 -0.001   0.021   0.010  -0.002  -5.480  -0.001   0.020   0.009
 -0.001  -0.000  -0.002   0.001   0.001  -0.001  -0.000  -0.002
 -0.001  -0.000  -0.003   0.001   0.002  -0.001  -0.000  -0.003
 -0.000  -0.006  -0.000   0.000  -0.000  -0.000  -0.006  -0.000
  0.000   0.000  -0.009  -0.000  -0.000   0.000   0.000  -0.008
  0.000   0.000   0.000  -0.006  -0.000   0.000   0.000   0.000
 -0.000  -0.006  -0.000   0.000   0.000  -0.000  -0.005  -0.000
  0.000   0.000  -0.010  -0.000  -0.000   0.000   0.000  -0.010
  0.001   0.000   0.000  -0.006  -0.000   0.001   0.000   0.000
 total augmentation occupancy for first ion, spin component:           1
  2.701  -0.008  -0.037   0.054  -0.010  -1.327   0.007   0.027  -0.031   0.011   0.001   0.000  -0.000   0.004   0.023   0.000
 -0.008   2.734  -0.004  -0.002   0.053   0.007  -1.164  -0.002  -0.001  -0.034  -0.003  -0.001  -0.179  -0.001  -0.000   0.009
 -0.037  -0.004   2.819  -0.004   0.046   0.027  -0.002  -1.312   0.003  -0.038   0.339   0.018  -0.003  -0.121   0.001   0.000
  0.054  -0.002  -0.004   2.713  -0.008  -0.032  -0.001   0.003  -1.158   0.004   0.000   0.001  -0.002  -0.000  -0.178   0.000
 -0.010   0.053   0.046  -0.008   2.516   0.011  -0.033  -0.038   0.004  -1.208  -0.039  -0.007   0.026  -0.005  -0.001  -0.001
 -1.327   0.007   0.027  -0.032   0.011   1.529  -0.006  -0.021  -0.018  -0.009  -0.001  -0.000   0.000  -0.003  -0.032  -0.000
  0.007  -1.164  -0.002  -0.001  -0.033  -0.006   1.135   0.003   0.001  -0.016   0.002   0.000   0.190   0.001   0.001  -0.021
  0.027  -0.002  -1.312   0.003  -0.038  -0.021   0.003   1.357  -0.002   0.024  -0.430   0.018   0.001   0.232  -0.001  -0.000
 -0.031  -0.001   0.003  -1.158   0.004  -0.018   0.001  -0.002   1.133  -0.004  -0.001  -0.001   0.001   0.000   0.190  -0.000
  0.011  -0.034  -0.038   0.004  -1.208  -0.009  -0.016   0.024  -0.004   1.445   0.029   0.006  -0.034   0.004   0.001   0.002
  0.001  -0.003   0.339   0.000  -0.039  -0.001   0.002  -0.430  -0.001   0.029   2.052  -0.192  -0.001   0.189  -0.000   0.000
  0.000  -0.001   0.018   0.001  -0.007  -0.000   0.000   0.018  -0.001   0.006  -0.192   0.028  -0.000  -0.033  -0.000  -0.000
 -0.000  -0.179  -0.003  -0.002   0.026   0.000   0.190   0.001   0.001  -0.034  -0.001  -0.000   0.268   0.001   0.000  -0.024
  0.004  -0.001  -0.121  -0.000  -0.005  -0.003   0.001   0.232   0.000   0.004   0.189  -0.033   0.001   0.174   0.001  -0.000
  0.023  -0.000   0.001  -0.178  -0.001  -0.032   0.001  -0.001   0.190   0.001  -0.000  -0.000   0.000   0.001   0.259   0.000
  0.000   0.009   0.000   0.000  -0.001  -0.000  -0.021  -0.000  -0.000   0.002   0.000  -0.000  -0.024  -0.000   0.000   0.002
  0.000   0.000  -0.008   0.000   0.000  -0.000  -0.000  -0.015   0.000  -0.000  -0.031   0.004  -0.000  -0.017   0.000  -0.000
 -0.001   0.000  -0.000   0.008   0.000   0.002  -0.000   0.000  -0.021   0.000  -0.000  -0.000   0.000   0.000  -0.023   0.000
 total augmentation occupancy for first ion, spin component:           2
  2.008  -0.008  -0.038   0.060  -0.016  -0.950   0.005   0.028  -0.015   0.012  -0.002   0.000  -0.001   0.003   0.003   0.000
 -0.008   2.012   0.015   0.007   0.068   0.005  -0.914  -0.006  -0.002  -0.019  -0.005  -0.001   0.003   0.000  -0.002  -0.009
 -0.038   0.015   2.032  -0.002   0.063   0.028  -0.006  -0.941   0.002  -0.035   0.023   0.050   0.003  -0.049  -0.000  -0.000
  0.060   0.007  -0.002   2.023   0.004  -0.015  -0.002   0.002  -0.914  -0.000   0.002   0.002  -0.001  -0.000   0.002  -0.000
 -0.016   0.068   0.063   0.004   1.891   0.012  -0.018  -0.035   0.000  -0.849  -0.022  -0.007   0.005  -0.004  -0.001  -0.000
 -0.950   0.005   0.028  -0.015   0.012   0.248  -0.003  -0.019   0.006  -0.010   0.000  -0.001   0.000  -0.003   0.002  -0.000
  0.005  -0.914  -0.006  -0.002  -0.018  -0.003   0.246   0.003   0.001   0.007   0.004   0.000  -0.006  -0.001   0.001   0.006
  0.028  -0.006  -0.941   0.002  -0.035  -0.019   0.003   0.260  -0.002   0.021   0.016  -0.031  -0.001  -0.004  -0.000   0.000
 -0.015  -0.002   0.002  -0.914   0.000   0.006   0.001  -0.002   0.243  -0.001  -0.001  -0.001   0.001   0.000  -0.006   0.000
  0.012  -0.019  -0.035  -0.000  -0.849  -0.010   0.007   0.021  -0.001   0.175   0.016   0.004   0.001   0.002   0.000  -0.000
 -0.002  -0.005   0.023   0.002  -0.022   0.000   0.004   0.016  -0.001   0.016  -0.275   0.083   0.000  -0.021  -0.001  -0.000
  0.000  -0.001   0.050   0.002  -0.007  -0.001   0.000  -0.031  -0.001   0.004   0.083  -0.011  -0.000   0.006  -0.000   0.000
 -0.001   0.003   0.003  -0.001   0.005   0.000  -0.006  -0.001   0.001   0.001   0.000  -0.000  -0.025   0.001  -0.000   0.004
  0.003   0.000  -0.049  -0.000  -0.004  -0.003  -0.001  -0.004   0.000   0.002  -0.021   0.006   0.001  -0.021   0.001  -0.000
  0.003  -0.002  -0.000   0.002  -0.001   0.002   0.001  -0.000  -0.006   0.000  -0.001  -0.000  -0.000   0.001  -0.031   0.000
  0.000  -0.009  -0.000  -0.000  -0.000  -0.000   0.006   0.000   0.000  -0.000  -0.000   0.000   0.004  -0.000   0.000  -0.000
  0.000   0.000  -0.014   0.000  -0.000  -0.000  -0.000   0.009  -0.000   0.000   0.003  -0.002  -0.000   0.003  -0.000   0.000
  0.000   0.000   0.000  -0.009   0.000  -0.000  -0.000  -0.000   0.006  -0.000   0.000  -0.000   0.000  -0.000   0.004  -0.000


------------------------ aborting loop because EDIFF is reached ----------------------------------------


    CHARGE:  cpu time    1.02: real time    1.03
    FORLOC:  cpu time    0.07: real time    0.07
    FORNL :  cpu time    2.99: real time    3.03
    STRESS:  cpu time    8.73: real time    8.83
    FORCOR:  cpu time    0.39: real time    0.39
    FORHAR:  cpu time    0.11: real time    0.11
    MIXING:  cpu time    0.01: real time    0.01

  FORCE on cell =-STRESS in cart. coord.  units (eV):
  Direction    XX          YY          ZZ          XY          YZ          ZX
  --------------------------------------------------------------------------------------
  Alpha Z  2067.85644  2067.85644  2067.85644
  Ewald  484374.72211484380.85145************     7.05406     6.62143     0.67495
  Hartree508641.98313508644.67666************     7.87024    -1.49646    -2.48737
  E(xc)   -5564.32308 -5564.09163 -5570.93678    -0.15961     0.43035     0.28057
  Local  ************************************   -24.20668     8.86076    11.26260
  n-local  -668.48279  -629.98505  -703.31148     6.22865     3.09649     2.08468
  augment 18701.08270 18692.65604 18674.46175     3.87591   -10.80858    -7.85336
  Kinetic  9176.42657  9190.75221  9252.45428     3.21836    -8.05616    -4.53601
  Fock        0.00000     0.00000     0.00000     0.00000     0.00000     0.00000
  -------------------------------------------------------------------------------------
  Total     -62.22257   -30.80315   -13.41074     3.88092    -1.35218    -0.57394
  in kB     -33.47348   -16.57098    -7.21449     2.08779    -0.72742    -0.30876
  external pressure =      -19.09 kB  Pullay stress =        0.00 kB


 VOLUME and BASIS-vectors are now :
 -----------------------------------------------------------------------------
  energy-cutoff  :      450.00
  volume of cell :     2978.23
      direct lattice vectors                 reciprocal lattice vectors
     9.956100464  0.000000000  0.000000000     0.100440931  0.057989601  0.000000000
    -7.467050076 12.933309555  0.000000000     0.000000000  0.077319730  0.000000000
     0.000000000  0.000000000 23.129100800     0.000000000  0.000000000  0.043235576

  length of vectors
     9.956100464 14.934099667 23.129100800     0.115979198  0.077319730  0.043235576


 FORCES acting on ions
    electron-ion (+dipol)            ewald-force                    non-local-force                 convergence-correction
 -----------------------------------------------------------------------------------------------
   -.203E-01 0.113E+00 0.306E+04   0.711E-02 -.140E+00 -.306E+04   0.188E-01 0.295E-01 -.134E+01   -.804E-03 -.400E-02 0.200E-01
   0.120E-02 0.132E+00 0.306E+04   -.289E-01 -.158E+00 -.306E+04   0.161E-01 0.478E-01 -.137E+01   0.134E-02 -.989E-02 0.218E-01
   -.214E-01 0.198E+00 0.306E+04   0.143E-02 -.204E+00 -.306E+04   0.219E-01 0.206E-01 -.129E+01   -.655E-03 -.935E-02 0.225E-01
   -.299E-01 0.118E+00 0.306E+04   0.299E-01 -.185E+00 -.306E+04   0.974E-02 0.725E-01 -.126E+01   0.147E-03 -.332E-02 0.217E-01
   -.916E-01 0.164E+00 0.306E+04   0.860E-01 -.189E+00 -.306E+04   0.611E-03 0.394E-01 -.138E+01   -.843E-03 -.115E-02 0.199E-01
   0.372E-01 0.113E+00 0.306E+04   -.370E-01 -.135E+00 -.306E+04   0.132E-01 0.313E-01 -.138E+01   -.358E-02 -.213E-02 0.192E-01
   0.456E-01 0.180E+00 0.306E+04   -.940E-01 -.204E+00 -.306E+04   0.434E-01 0.392E-01 -.139E+01   0.138E-02 -.150E-02 0.209E-01
   -.449E-01 0.268E+00 0.306E+04   0.288E-01 -.259E+00 -.306E+04   0.192E-01 0.351E-02 -.132E+01   0.307E-02 -.466E-03 0.214E-01
   -.158E+00 0.105E+00 0.306E+04   0.134E+00 -.109E+00 -.306E+04   0.169E-01 0.262E-01 -.132E+01   -.117E-02 0.448E-02 0.209E-01
   -.484E-01 0.104E+00 0.306E+04   0.855E-01 -.833E-01 -.306E+04   -.242E-01 -.223E-01 -.132E+01   -.265E-02 0.344E-02 0.214E-01
   0.963E-01 0.515E-01 0.306E+04   -.142E+00 -.891E-01 -.306E+04   0.320E-01 0.587E-01 -.134E+01   0.151E-02 0.725E-02 0.214E-01
   0.466E-01 0.104E+00 0.306E+04   -.766E-01 -.113E+00 -.306E+04   0.273E-01 -.199E-02 -.137E+01   0.233E-02 0.904E-02 0.226E-01
   -.109E+00 -.148E+00 0.306E+04   0.412E-01 0.106E+00 -.306E+04   0.650E-01 0.487E-01 -.140E+01   -.372E-02 0.709E-02 0.244E-01
   -.135E+00 -.103E+00 0.306E+04   0.124E+00 0.395E-01 -.306E+04   0.157E-01 0.684E-01 -.131E+01   -.184E-02 0.524E-02 0.225E-01
   0.823E-02 -.596E-01 0.306E+04   -.389E-01 -.151E-01 -.306E+04   0.330E-01 0.643E-01 -.130E+01   0.217E-02 0.859E-02 0.245E-01
   0.165E+00 -.765E-01 0.306E+04   -.117E+00 0.513E-01 -.306E+04   -.436E-01 0.228E-01 -.131E+01   0.341E-02 0.997E-02 0.259E-01
   0.798E-02 -.383E+00 0.306E+04   -.662E-02 0.322E+00 -.306E+04   0.114E-01 0.634E-01 -.129E+01   0.136E-03 0.542E-03 0.267E-01
   -.689E-01 -.253E+00 0.306E+04   0.347E-01 0.303E+00 -.306E+04   0.296E-01 -.653E-01 -.131E+01   -.525E-02 0.288E-02 0.238E-01
   -.241E-01 -.257E+00 0.306E+04   0.785E-02 0.231E+00 -.306E+04   0.193E-01 0.333E-01 -.130E+01   0.121E-02 0.833E-03 0.238E-01
   0.481E-01 -.248E+00 0.306E+04   -.514E-01 0.253E+00 -.306E+04   -.843E-02 0.884E-02 -.126E+01   0.395E-02 -.143E-02 0.267E-01
   -.393E-01 -.181E+00 0.306E+04   -.568E-02 0.158E+00 -.306E+04   0.398E-01 0.669E-01 -.129E+01   0.428E-02 -.820E-02 0.236E-01
   -.562E-01 -.234E+00 0.306E+04   0.837E-02 0.140E+00 -.306E+04   0.384E-01 0.902E-01 -.138E+01   -.104E-02 -.707E-02 0.243E-01
   0.545E-02 -.131E+00 0.306E+04   0.202E-02 0.129E+00 -.306E+04   -.573E-02 0.340E-01 -.138E+01   -.409E-02 -.497E-02 0.235E-01
   0.283E-01 -.995E-01 0.306E+04   -.358E-02 0.143E+00 -.306E+04   -.164E-01 -.351E-01 -.125E+01   0.860E-03 -.590E-02 0.231E-01
   -.307E-01 0.648E-01 0.155E+04   0.323E-01 -.723E-01 -.155E+04   -.412E-02 0.112E-01 -.470E+00   -.153E-02 -.691E-02 0.391E-01
   0.624E-01 0.572E-01 0.155E+04   -.707E-01 -.687E-01 -.155E+04   0.655E-02 0.650E-02 -.399E+00   0.260E-02 -.101E-01 0.374E-01
   0.187E-01 0.225E+00 0.155E+04   -.453E-02 -.226E+00 -.155E+04   -.162E-02 0.397E-01 -.413E+00   0.150E-02 -.112E-01 0.389E-01
   -.497E-01 0.171E+00 0.155E+04   0.389E-01 -.146E+00 -.155E+04   0.243E-01 0.563E-02 -.433E+00   -.258E-02 -.790E-02 0.398E-01
   -.214E+00 0.599E+00 0.155E+04   0.179E+00 -.636E+00 -.155E+04   0.347E-01 0.442E-01 -.481E+00   -.223E-03 -.314E-02 0.354E-01
   -.854E-01 0.261E+00 0.155E+04   0.106E+00 -.260E+00 -.155E+04   -.251E-01 0.438E-02 -.408E+00   -.360E-02 -.223E-02 0.352E-01
   0.262E+00 0.293E+00 0.155E+04   -.269E+00 -.294E+00 -.155E+04   0.108E-01 0.247E-01 -.422E+00   0.191E-02 -.834E-02 0.324E-01
   0.167E-01 0.632E+00 0.155E+04   -.618E-03 -.668E+00 -.155E+04   -.791E-02 0.490E-01 -.511E+00   0.187E-02 -.513E-02 0.382E-01
   -.134E+00 0.401E+00 0.155E+04   0.123E+00 -.429E+00 -.155E+04   0.170E-01 0.355E-01 -.525E+00   -.492E-03 0.491E-02 0.361E-01
   -.724E+00 0.114E+00 0.155E+04   0.705E+00 -.112E+00 -.155E+04   0.163E-01 0.804E-02 -.452E+00   -.747E-03 0.329E-02 0.366E-01
   0.166E+00 -.230E+00 0.155E+04   -.167E+00 0.191E+00 -.155E+04   0.105E-01 0.614E-01 -.446E+00   -.544E-02 0.485E-02 0.312E-01
   0.703E+00 0.143E+00 0.155E+04   -.678E+00 -.150E+00 -.155E+04   -.254E-01 0.162E-01 -.515E+00   0.666E-02 0.566E-02 0.302E-01
   0.255E+00 -.827E-01 0.155E+04   -.271E+00 0.514E-01 -.155E+04   0.985E-02 0.509E-01 -.535E+00   0.998E-03 0.122E-01 0.342E-01
   -.510E+00 -.783E-01 0.155E+04   0.511E+00 0.694E-01 -.155E+04   0.988E-02 0.222E-01 -.544E+00   -.325E-02 0.658E-02 0.376E-01
   -.498E+00 0.350E+00 0.155E+04   0.480E+00 -.343E+00 -.155E+04   0.195E-01 0.537E-02 -.464E+00   -.414E-03 0.733E-02 0.364E-01
   0.743E+00 0.339E+00 0.155E+04   -.720E+00 -.327E+00 -.155E+04   -.344E-01 -.263E-01 -.465E+00   0.263E-02 0.154E-01 0.337E-01
   0.161E+00 -.432E+00 0.155E+04   -.187E+00 0.401E+00 -.155E+04   0.366E-01 0.402E-01 -.452E+00   0.137E-02 0.206E-02 0.369E-01
   -.109E+00 -.653E+00 0.155E+04   0.134E+00 0.636E+00 -.155E+04   -.768E-02 0.547E-01 -.616E+00   -.540E-02 0.518E-02 0.391E-01
   -.160E+00 -.265E+00 0.155E+04   0.166E+00 0.257E+00 -.155E+04   -.351E-02 0.140E-01 -.486E+00   -.996E-03 0.662E-02 0.416E-01
   0.949E-01 0.469E-01 0.155E+04   -.970E-01 -.724E-01 -.155E+04   -.538E-02 0.324E-01 -.380E+00   0.499E-02 0.498E-02 0.410E-01
   0.106E-01 -.590E+00 0.155E+04   -.377E-01 0.589E+00 -.155E+04   0.216E-01 0.307E-01 -.418E+00   0.523E-03 -.868E-02 0.397E-01
   -.981E-01 -.604E+00 0.155E+04   0.761E-01 0.577E+00 -.155E+04   0.290E-01 0.462E-01 -.444E+00   0.365E-02 -.657E-02 0.372E-01
   0.721E-01 -.509E+00 0.155E+04   -.526E-01 0.502E+00 -.155E+04   -.176E-01 0.458E-02 -.459E+00   -.353E-02 -.323E-02 0.434E-01
   0.210E-01 -.530E+00 0.155E+04   -.135E-02 0.522E+00 -.155E+04   -.156E-01 0.146E-01 -.404E+00   -.688E-03 -.558E-02 0.455E-01
   0.148E+00 0.238E+01 0.229E+02   -.138E+00 -.236E+01 -.229E+02   -.121E-01 -.483E-01 0.360E-01   -.158E-02 -.751E-02 0.147E-01
   0.885E+00 0.155E+01 0.229E+02   -.890E+00 -.145E+01 -.228E+02   -.815E-02 -.835E-01 0.435E-02   -.462E-02 -.139E-01 0.102E-01
   -.284E+00 0.235E+01 0.238E+02   0.273E+00 -.238E+01 -.238E+02   0.399E-02 0.194E-01 0.436E-01   0.756E-02 -.168E-01 0.938E-02
   -.419E+00 0.187E+01 0.219E+02   0.409E+00 -.190E+01 -.220E+02   0.217E-01 0.502E-02 0.133E+00   -.136E-02 -.954E-02 0.137E-01
   -.471E+00 0.187E+01 0.255E+02   0.492E+00 -.189E+01 -.256E+02   -.753E-02 0.179E-01 0.747E-01   0.126E-02 0.179E-02 0.113E-01
   -.114E+01 -.305E+01 0.227E+02   0.112E+01 0.301E+01 -.227E+02   0.318E-01 0.629E-01 0.927E-01   -.113E-01 -.429E-03 0.759E-02
   0.214E+01 -.288E+01 0.235E+02   -.212E+01 0.289E+01 -.235E+02   -.274E-01 0.182E-01 0.884E-01   -.306E-03 -.607E-02 0.185E-03
   -.227E+00 0.175E+01 0.257E+02   0.195E+00 -.172E+01 -.258E+02   0.164E-01 -.163E-01 0.919E-01   0.104E-01 -.412E-02 0.405E-02
   -.320E+00 -.193E+00 0.265E+02   0.312E+00 0.188E+00 -.266E+02   -.572E-02 -.321E-01 0.657E-01   0.515E-02 0.863E-02 0.394E-02
   -.499E+01 0.142E+01 0.236E+02   0.499E+01 -.140E+01 -.237E+02   0.561E-01 -.493E-01 0.967E-01   -.438E-02 0.448E-02 0.680E-02
   0.946E+00 0.111E+01 0.185E+02   -.937E+00 -.114E+01 -.184E+02   -.643E-02 -.126E-01 0.887E-01   -.966E-02 0.138E-01 -.230E-02
   0.474E+01 0.186E+01 0.249E+02   -.475E+01 -.188E+01 -.249E+02   -.520E-01 -.214E-01 0.689E-01   0.889E-02 0.164E-01 -.632E-02
   -.901E+00 -.207E+01 0.261E+02   0.816E+00 0.201E+01 -.261E+02   0.394E-01 0.249E-01 0.710E-01   0.424E-02 0.120E-01 -.154E-02
   -.624E-01 -.168E+01 0.248E+02   0.145E+00 0.159E+01 -.249E+02   -.459E-01 0.135E-01 0.861E-01   -.235E-02 0.141E-01 0.105E-01
   -.216E+01 0.268E+01 0.244E+02   0.214E+01 -.272E+01 -.244E+02   0.343E-01 -.501E-02 0.701E-01   -.849E-03 0.185E-01 0.885E-02
   0.335E+01 0.200E+01 0.251E+02   -.331E+01 -.203E+01 -.251E+02   -.427E-01 -.429E-01 0.349E-01   -.101E-02 0.156E-01 -.394E-02
   -.629E+00 -.242E+01 0.238E+02   0.631E+00 0.240E+01 -.239E+02   -.716E-02 -.108E-01 0.679E-01   0.131E-02 -.723E-03 0.528E-02
   -.415E+00 -.193E+01 0.219E+02   0.419E+00 0.193E+01 -.221E+02   -.103E-01 -.409E-01 0.139E+00   0.678E-02 0.981E-03 0.119E-01
   0.141E+01 -.147E+01 0.238E+02   -.144E+01 0.150E+01 -.239E+02   0.115E-01 -.562E-01 0.683E-01   -.917E-04 0.168E-02 0.199E-01
   -.125E+00 -.214E+01 0.241E+02   0.145E+00 0.211E+01 -.242E+02   -.429E-02 -.393E-02 0.262E-01   -.798E-02 0.335E-04 0.137E-01
   0.337E+00 -.156E+00 0.212E+02   -.327E+00 0.166E+00 -.213E+02   -.111E-01 -.142E-01 0.577E-01   -.331E-02 -.101E-01 0.167E-01
   -.363E+00 0.459E+00 0.217E+02   0.345E+00 -.456E+00 -.217E+02   -.324E-02 0.210E-02 0.169E-01   0.561E-02 -.112E-01 0.125E-01
   0.445E+00 0.631E-01 0.216E+02   -.442E+00 -.439E-01 -.216E+02   0.775E-02 -.146E-01 0.387E-01   -.482E-03 -.133E-01 0.147E-01
   -.385E+00 -.574E+00 0.216E+02   0.382E+00 0.617E+00 -.216E+02   -.254E-02 -.439E-01 0.497E-01   -.183E-02 -.143E-01 0.180E-01
   0.664E-01 0.437E+01 -.150E+04   -.587E-01 -.434E+01 0.150E+04   0.207E-02 -.209E-01 0.463E+00   -.103E-01 -.147E-01 -.169E-01
   -.429E+00 0.524E+01 -.150E+04   0.406E+00 -.526E+01 0.150E+04   0.172E-01 0.306E-01 0.466E+00   0.469E-02 -.203E-01 -.220E-01
   -.108E+01 0.316E+01 -.150E+04   0.114E+01 -.312E+01 0.150E+04   -.646E-01 -.324E-01 0.400E+00   0.458E-02 -.137E-01 -.155E-01
   0.580E+00 0.273E+01 -.150E+04   -.606E+00 -.265E+01 0.150E+04   0.246E-01 -.618E-01 0.402E+00   0.114E-02 -.126E-01 -.120E-01
   0.170E+01 0.802E+01 -.149E+04   -.172E+01 -.800E+01 0.149E+04   0.319E-01 -.132E-01 0.448E+00   -.640E-02 -.262E-02 -.121E-01
   0.450E+00 0.470E+01 -.149E+04   -.431E+00 -.430E+01 0.149E+04   -.388E-02 -.388E+00 0.676E-01   -.167E-01 -.162E-01 -.277E-01
   -.202E+01 0.882E+01 -.149E+04   0.204E+01 -.881E+01 0.148E+04   -.392E-01 0.849E-02 0.440E+00   0.147E-01 -.238E-01 -.284E-01
   -.581E+00 0.688E+01 -.150E+04   0.568E+00 -.692E+01 0.150E+04   0.272E-02 0.553E-01 0.514E+00   0.839E-02 -.111E-01 -.176E-01
   0.257E+01 0.708E+00 -.148E+04   -.250E+01 -.692E+00 0.148E+04   -.823E-01 -.163E-01 0.419E+00   0.712E-02 -.269E-02 -.171E-01
   -.517E-01 0.263E+00 -.150E+04   0.104E+00 -.255E+00 0.150E+04   -.260E-01 -.651E-02 0.461E+00   -.242E-01 -.478E-02 -.275E-01
   0.129E+01 0.175E+01 -.150E+04   -.133E+01 -.171E+01 0.149E+04   0.458E-01 -.496E-01 0.545E+00   -.532E-02 0.559E-02 -.390E-01
   -.409E+01 0.165E+01 -.148E+04   0.403E+01 -.166E+01 0.148E+04   0.382E-01 0.819E-02 0.464E+00   0.216E-01 -.346E-03 -.362E-01
   -.188E+01 -.412E+01 -.149E+04   0.193E+01 0.417E+01 0.149E+04   -.688E-01 -.656E-01 0.569E+00   0.132E-01 0.145E-01 -.294E-01
   -.491E+00 -.155E+01 -.149E+04   0.774E+00 0.136E+01 0.149E+04   -.270E+00 0.164E+00 0.505E-01   -.798E-02 0.185E-01 -.249E-01
   0.161E+01 -.371E+00 -.149E+04   -.158E+01 0.294E+00 0.149E+04   -.192E-01 0.536E-01 0.418E+00   -.109E-01 0.233E-01 -.366E-01
   0.320E+00 -.202E+01 -.148E+04   -.652E+00 0.181E+01 0.148E+04   0.328E+00 0.190E+00 -.987E-02   0.598E-02 0.171E-01 -.414E-01
   -.403E+01 -.693E+01 -.150E+04   0.401E+01 0.692E+01 0.150E+04   0.221E-03 -.100E-01 0.472E+00   0.152E-01 0.153E-01 -.304E-01
   0.267E+01 -.659E+01 -.150E+04   -.265E+01 0.659E+01 0.150E+04   -.218E-01 -.138E-01 0.448E+00   0.890E-02 0.105E-01 -.233E-01
   0.286E+01 -.806E+01 -.149E+04   -.286E+01 0.803E+01 0.149E+04   0.178E-01 0.110E-01 0.473E+00   -.106E-01 0.186E-01 -.216E-01
   -.183E+01 -.973E+01 -.149E+04   0.184E+01 0.971E+01 0.149E+04   0.223E-02 -.669E-02 0.486E+00   -.133E-01 0.187E-01 -.333E-01
   -.584E+00 -.298E+01 -.150E+04   0.588E+00 0.302E+01 0.150E+04   -.535E-02 -.437E-01 0.411E+00   -.715E-03 0.660E-03 -.219E-01
   0.262E+00 -.894E+00 -.151E+04   -.254E+00 0.933E+00 0.151E+04   -.135E-01 -.325E-01 0.405E+00   0.516E-02 -.529E-02 -.220E-01
   0.134E+01 -.335E+01 -.150E+04   -.136E+01 0.345E+01 0.150E+04   0.158E-01 -.905E-01 0.360E+00   0.458E-02 -.113E-01 -.182E-01
   -.796E+00 -.410E+01 -.150E+04   0.806E+00 0.415E+01 0.150E+04   -.198E-02 -.469E-01 0.448E+00   -.903E-02 -.326E-02 -.155E-01
   0.159E+01 0.225E+01 -.307E+04   -.155E+01 -.211E+01 0.307E+04   -.278E-01 -.140E+00 0.142E+01   -.887E-02 -.105E-01 -.235E-01
   -.225E+01 0.840E+01 -.306E+04   0.221E+01 -.841E+01 0.306E+04   0.465E-01 0.262E-01 0.133E+01   -.558E-02 -.135E-01 -.233E-01
   0.104E+01 0.507E+01 -.307E+04   -.100E+01 -.505E+01 0.307E+04   -.506E-01 -.113E-01 0.140E+01   0.970E-02 -.116E-01 -.224E-01
   0.382E-01 0.160E+01 -.307E+04   -.149E-01 -.158E+01 0.307E+04   -.309E-01 -.162E-01 0.142E+01   0.470E-02 -.853E-02 -.227E-01
   0.704E+01 0.136E+02 -.306E+04   -.703E+01 -.135E+02 0.306E+04   -.131E-01 -.928E-01 0.142E+01   0.419E-02 -.606E-02 -.199E-01
   0.119E+02 0.332E+02 -.305E+04   -.118E+02 -.330E+02 0.304E+04   -.973E-01 -.153E+00 0.145E+01   -.233E-01 -.114E-01 -.193E-01
   -.134E+02 0.332E+02 -.304E+04   0.133E+02 -.331E+02 0.304E+04   0.877E-01 -.121E+00 0.144E+01   0.390E-02 -.305E-01 -.183E-01
   -.532E+01 0.147E+02 -.306E+04   0.535E+01 -.146E+02 0.306E+04   -.483E-01 -.515E-01 0.138E+01   0.150E-01 -.254E-01 -.197E-01
   -.458E+00 0.115E+02 -.306E+04   0.448E+00 -.114E+02 0.305E+04   -.156E-01 -.122E+00 0.127E+01   0.296E-01 -.969E-02 -.189E-01
   0.344E+02 0.230E+02 -.303E+04   -.350E+02 -.233E+02 0.303E+04   0.663E+00 0.375E+00 0.207E+01   -.159E-01 -.791E-02 -.190E-01
   0.973E+00 0.149E+03 -.296E+04   -.952E+00 -.150E+03 0.296E+04   0.794E-02 0.111E+01 0.835E+00   -.246E-01 -.105E-01 -.157E-01
   -.323E+02 0.245E+02 -.303E+04   0.331E+02 -.250E+02 0.303E+04   -.829E+00 0.467E+00 0.209E+01   0.168E-01 -.128E-01 -.155E-01
   -.277E+02 -.831E+01 -.304E+04   0.275E+02 0.838E+01 0.304E+04   0.114E+00 -.881E-01 0.149E+01   0.232E-01 0.133E-01 -.181E-01
   0.247E+02 -.957E+01 -.304E+04   -.246E+02 0.965E+01 0.304E+04   -.158E+00 -.962E-01 0.147E+01   0.588E-02 0.238E-02 -.194E-01
   0.125E+03 -.735E+02 -.296E+04   -.126E+03 0.741E+02 0.296E+04   0.102E+01 -.630E+00 0.107E+01   -.283E-01 0.150E-01 -.284E-01
   -.123E+03 -.746E+02 -.295E+04   0.124E+03 0.752E+02 0.295E+04   -.901E+00 -.550E+00 0.686E+00   -.837E-02 0.144E-01 -.373E-02
   -.206E+02 -.300E+02 -.305E+04   0.206E+02 0.298E+02 0.304E+04   -.509E-01 0.188E+00 0.148E+01   0.561E-02 0.214E-01 -.197E-01
   -.903E+00 -.150E+02 -.307E+04   0.937E+00 0.151E+02 0.307E+04   -.496E-01 -.735E-01 0.143E+01   0.190E-01 0.149E-01 -.237E-01
   0.191E+02 -.283E+02 -.305E+04   -.192E+02 0.282E+02 0.305E+04   0.496E-01 0.131E+00 0.148E+01   -.366E-02 0.229E-01 -.265E-01
   0.204E+01 -.439E+02 -.303E+04   -.201E+01 0.446E+02 0.303E+04   -.298E-02 -.778E+00 0.205E+01   -.209E-01 0.288E-01 -.241E-01
   -.365E+01 -.138E+02 -.306E+04   0.375E+01 0.137E+02 0.306E+04   -.833E-01 0.479E-01 0.134E+01   -.134E-01 0.145E-01 -.245E-01
   -.548E+01 -.507E+01 -.307E+04   0.541E+01 0.500E+01 0.307E+04   0.614E-01 0.604E-01 0.143E+01   0.863E-02 0.842E-02 -.250E-01
   0.485E+01 -.313E+01 -.307E+04   -.478E+01 0.317E+01 0.307E+04   -.769E-01 -.447E-01 0.142E+01   0.786E-02 -.155E-02 -.268E-01
   0.444E+01 -.127E+02 -.306E+04   -.448E+01 0.128E+02 0.306E+04   0.442E-01 -.678E-01 0.133E+01   -.269E-02 0.218E-02 -.278E-01
   -.309E+00 -.989E+00 -.237E+04   0.171E+00 0.129E+01 0.240E+04   -.210E-01 -.324E+00 -.267E+02   0.200E-01 0.741E-02 0.145E-01
 -----------------------------------------------------------------------------------------------
   0.234E-01 0.277E+00 0.237E+02   0.361E-15 0.220E-13 -.609E-10   -.692E-02 -.323E+00 -.243E+02   0.184E-01 0.539E-02 0.562E+00
 
 
 POSITION                                       TOTAL-FORCE (eV/Angst)
 -----------------------------------------------------------------------------------
      1.24451      0.71857      0.00000         0.004503     -0.000957      0.279736
      3.73354      0.71857      0.00000        -0.010509      0.012403      0.291307
      6.22256      0.71857      0.00000         0.000972      0.005354      0.286969
      8.71159      0.71857      0.00000         0.009535      0.002419      0.280219
      0.00006      2.87404      0.00000        -0.006116      0.013126      0.286784
      2.48908      2.87404      0.00000         0.009537      0.007560      0.278133
      4.97812      2.87404      0.00000        -0.004014      0.013464      0.280743
      7.46714      2.87404      0.00000         0.005850      0.012487      0.295667
     -1.24448      5.02963      0.00000        -0.008140      0.026785      0.300847
      1.24455      5.02963      0.00000         0.009874      0.002624      0.272657
      3.73357      5.02963      0.00000        -0.012729      0.028778      0.277451
      6.22260      5.02963      0.00000        -0.000649     -0.001499      0.278673
     -2.48901      7.18523      0.00000        -0.007252      0.013907      0.273681
      0.00001      7.18523      0.00000         0.002424      0.010680      0.263815
      2.48904      7.18523      0.00000         0.004159     -0.001491      0.273717
      4.97806      7.18523      0.00000         0.008334      0.007965      0.277764
     -3.73347      9.34069      0.00000         0.012578      0.003150      0.288644
     -1.24445      9.34069      0.00000        -0.010160     -0.011348      0.286605
      1.24458      9.34069      0.00000         0.003923      0.008483      0.280049
      3.73361      9.34069      0.00000        -0.008063      0.012904      0.294334
     -4.97800     11.49629      0.00000        -0.001193      0.035981      0.292080
     -2.48898     11.49629      0.00000        -0.010784     -0.010345      0.281295
      0.00005     11.49629      0.00000        -0.002642      0.026884      0.296380
      2.48907     11.49629      0.00000         0.008919      0.003287      0.280263
      0.00000      0.00000      2.03235        -0.004319     -0.002890     -0.316930
      2.48903      0.00000      2.03235         0.000642     -0.014857     -0.338336
      4.97805      0.00000      2.03235         0.013778      0.028069     -0.302470
      7.46708      0.00000      2.03235         0.010623      0.023187     -0.322309
     -1.24453      2.15559      2.03235        -0.001468      0.004404     -0.337797
      1.24449      2.15559      2.03235        -0.008015      0.003487     -0.308097
      3.73352      2.15559      2.03235         0.005468      0.015525     -0.313591
      6.22254      2.15559      2.03235         0.009727      0.007835     -0.327795
     -2.48899      4.31106      2.03235         0.004874      0.012901     -0.360072
      0.00003      4.31106      2.03235        -0.002834      0.014509     -0.307245
      2.48906      4.31106      2.03235         0.003864      0.027611     -0.323694
      4.97809      4.31106      2.03235         0.005892      0.015749     -0.322105
     -3.73352      6.46665      2.03235        -0.004863      0.032070     -0.335455
     -1.24450      6.46665      2.03235         0.006523      0.020295     -0.347166
      1.24452      6.46665      2.03235         0.000969      0.019525     -0.300140
      3.73355      6.46665      2.03235        -0.008338      0.002147     -0.327647
     -4.97806      8.62225      2.03235         0.010770      0.011188     -0.319826
     -2.48903      8.62225      2.03235         0.011470      0.043599     -0.393132
     -0.00001      8.62225      2.03235         0.001258      0.012640     -0.314671
      2.48902      8.62225      2.03235        -0.002797      0.012239     -0.311329
     -6.22251     10.77771      2.03235        -0.005261      0.021254     -0.317940
     -3.73349     10.77771      2.03235         0.010368      0.013212     -0.332801
     -1.24447     10.77771      2.03235        -0.001888     -0.004944     -0.324916
      1.24456     10.77771      2.03235         0.003025      0.001018     -0.317470
     -0.00002      1.43702      4.06448        -0.004331     -0.031264      0.013757
      2.48900      1.43702      4.06448        -0.018251     -0.005914      0.074400
      4.97803      1.43702      4.06448        -0.000421     -0.026371     -0.000083
      7.46706      1.43702      4.06448         0.010154     -0.034787      0.045057
     -1.24456      3.59261      4.06448         0.014784     -0.002415      0.025221
      1.24447      3.59261      4.06448         0.005565      0.019993      0.071084
      3.73349      3.59261      4.06448        -0.004849      0.019734      0.085352
      6.22252      3.59261      4.06448        -0.004868      0.007448      0.023170
     -2.48901      5.74808      4.06448        -0.009373     -0.028383      0.026317
      0.00001      5.74808      4.06448         0.053665     -0.023439      0.060454
      2.48904      5.74808      4.06448        -0.007424     -0.024973      0.159866
      4.97806      5.74808      4.06448        -0.052253     -0.024457      0.063823
     -3.73355      7.90367      4.06448        -0.041191     -0.018220      0.073219
     -1.24452      7.90367      4.06448         0.033688     -0.055611      0.081606
      1.24450      7.90367      4.06448         0.010588     -0.030186      0.055178
      3.73353      7.90367      4.06448        -0.007766     -0.049660      0.054305
     -4.97808     10.05927      4.06448        -0.004375     -0.026369      0.030333
     -2.48906     10.05927      4.06448         0.000442     -0.046002      0.036996
     -0.00003     10.05927      4.06448        -0.024354     -0.024115      0.006077
      2.48899     10.05927      4.06448         0.006747     -0.026086     -0.000180
     -6.22254     12.21474      4.06448        -0.004562     -0.014276      0.001409
     -3.73352     12.21473      4.06448        -0.016024     -0.006300      0.014856
     -1.24449     12.21474      4.06448         0.010541     -0.008477      0.006221
      1.24453     12.21474      4.06448        -0.007154     -0.014305      0.010116
      1.23648      0.70406      6.11531        -0.000852     -0.003447      0.000436
      3.72983      0.70999      6.10998        -0.002306     -0.002758      0.000194
      6.21753      0.70930      6.11353        -0.001722     -0.002536      0.000339
      8.70520      0.70326      6.11610        -0.000214      0.000147     -0.000519
     -0.00607      2.85953      6.10711        -0.000269     -0.001216      0.000313
      2.48362      2.86922      6.11105        -0.001741      0.000633      0.002363
      4.97191      2.86656      6.10463         0.001918     -0.000911     -0.000397
      7.46259      2.86500      6.11516        -0.001362     -0.002720      0.005005
     -1.24800      5.02141      6.10679        -0.000820     -0.003161      0.004337
      1.23987      5.02092      6.15200         0.001991     -0.002984      0.002167
      3.72739      5.02436      6.14779         0.001596     -0.000761     -0.001655
      6.21461      5.02331      6.10980         0.000691     -0.001185      0.000669
     -2.49488      7.18130      6.11428        -0.001869     -0.001411      0.004798
     -0.00555      7.17767      6.11164         0.004001     -0.004597      0.005084
      2.48496      7.18054      6.14165         0.001082      0.000210     -0.004665
      4.97809      7.18110      6.10586         0.002037      0.005494     -0.005428
     -3.73447      9.33846      6.11485        -0.000400     -0.002762     -0.002958
     -1.25178      9.33222      6.11847         0.000551     -0.000784      0.001584
      1.23628      9.32996      6.10496         0.003227     -0.001893     -0.002338
      3.73460      9.33112      6.10737        -0.000794     -0.001902      0.000164
     -4.97687     11.48876      6.11358        -0.002234     -0.000003      0.002859
     -2.49040     11.48968      6.11781         0.000252      0.001038      0.001561
     -0.00610     11.48429      6.11047         0.000109     -0.000537      0.003491
      2.48395     11.48433      6.11769        -0.001253     -0.001196      0.002683
      2.48364     12.91697      8.08822        -0.000140     -0.000288     -0.001746
     -4.97871     12.93049      8.08002        -0.000934     -0.001341      0.000597
     -2.48642     12.92422      8.08091        -0.000707     -0.004766     -0.000863
     -0.00951     12.91852      8.08324        -0.003187     -0.004384     -0.001094
      8.70385      2.12998      8.08148         0.001863     -0.000057      0.001948
      1.23892      2.13717      8.07506        -0.002116      0.000051     -0.000399
      3.72800      2.14120      8.07294        -0.000741      0.001509      0.000627
      6.22552      2.13873      8.07849        -0.000691     -0.001322     -0.000176
      7.46435      4.30874      8.07190         0.003449     -0.002702     -0.000404
     -0.03950      4.27226      8.07126        -0.000759      0.000134      0.002261
      2.47570      4.26450      8.18900         0.004079     -0.001338     -0.002398
      5.01035      4.27504      8.07274         0.000585     -0.006603      0.000684
      6.21863      6.45567      8.07134         0.003773     -0.001272      0.001047
     -1.24558      6.44994      8.07267         0.000029     -0.005888     -0.002086
      1.21755      6.47526      8.18409         0.062924     -0.036372      0.048757
      3.76831      6.49238      8.17540         0.065519      0.041001     -0.058077
     -4.97762      8.62380      8.07209         0.001871     -0.000279     -0.001068
     -2.49280      8.60420      8.08460         0.003349      0.000587      0.000452
     -0.00615      8.61463      8.07440        -0.001104      0.000925     -0.000658
      2.48562      8.66946      8.06865         0.002786      0.001313     -0.000292
     -6.21642     10.78264      8.07882         0.003530     -0.000644     -0.001700
     -3.73581     10.77549      8.08537        -0.001089     -0.001312      0.000790
     -1.24774     10.77154      8.08334        -0.000729     -0.000392      0.002390
      1.23307     10.77875      8.07680        -0.000703     -0.001729     -0.000450
      2.53135      5.73795      9.32935        -0.139281     -0.013531     -0.001663
 -----------------------------------------------------------------------------------
    total drift:                                0.034931     -0.041389      0.041533


--------------------------------------------------------------------------------------------------------



  FREE ENERGIE OF THE ION-ELECTRON SYSTEM (eV)
  ---------------------------------------------------
  free  energy   TOTEN  =      -817.087411 eV

  energy  without entropy=     -816.841170  energy(sigma->0) =     -817.025851
 
 d Force =-0.1407020E-02[-0.279E-02,-0.284E-04]  d Energy =-0.1420195E-02 0.132E-04
 d Force = 0.2476603E-01[ 0.341E-02, 0.461E-01]  d Ewald  = 0.2475883E-01 0.721E-05


--------------------------------------------------------------------------------------------------------


    POTLOK:  cpu time    0.41: real time    0.41


--------------------------------------------------------------------------------------------------------


 stress matrix after NEB project (eV)
    -62.22257      3.88051     -0.57394
      3.88092    -30.80315     -1.35219
     -0.57365     -1.35218    -13.41074
  FORCES: max atom, RMS     0.139947    0.012722
  FORCE total and by dimension    0.139947    0.139281
  Stress total and by dimension   70.956084   62.222574
 Finite differences progress:
  Degree of freedom:   1/  3
  Displacement:        1/  2
  Total:               1/  6
  LATTYP: Found a simple monoclinic cell.
 ALAT       =    17.9486009422
 B/A-ratio  =     1.2886297308
 C/A-ratio  =     1.4411545266
 COS(beta)  =    -0.9607691321
  
  Lattice vectors:
  
 A1 = ( -12.4451508522, -12.9333095551,   0.0000000000)
 A2 = (   0.0000000000,   0.0000000000, -23.1291007996)
 A3 = (  22.4012513161,  12.9333095551,   0.0000000000)
 Subroutine PRICEL returns:
 Original cell was already a primitive cell.
 

Analysis of symmetry for initial positions (statically):

 Routine SETGRP: Setting up the symmetry group for a 
 simple monoclinic supercell.


 Subroutine GETGRP returns: Found  1 space group operations
 (whereof  1 operations were pure point group operations)
 out of a pool of  4 trial point group operations.


The static configuration has the point symmetry C_1 .

Analysis of symmetry for dynamics (positions and initial velocities):

 Subroutine DYNSYM returns: Found  1 space group operations
 (whereof  1 operations were pure point group operations)
 out of a pool of  1 trial space group operations
 (whereof  1 operations were pure point group operations)
 and found also     1 'primitive' translations


The dynamic configuration has the point symmetry C_1 .

Analysis of constrained symmetry for selective dynamics:

 Subroutine DYNSYM returns: Found  1 space group operations
 (whereof  1 operations were pure point group operations)
 out of a pool of  1 trial space group operations
 (whereof  1 operations were pure point group operations)
 and found also     1 'primitive' translations


The constrained configuration has the point symmetry C_1 .

Analysis of magnetic symmetry:

 Subroutine MAGSYM returns: Found  1 space group operations
 (whereof  1 operations were pure point group operations)
 out of a pool of  1 trial space group operations
 (whereof  1 operations were pure point group operations)
 and found also     1 'primitive' translations


The magnetic configuration has the point symmetry C_1 .
 
 KPOINTS: k-points                                

Automatic generation of k-mesh.
 
 Subroutine IBZKPT returns following result:
 ===========================================
 
 Found      1 irreducible k-points:
 
 Following reciprocal coordinates:
            Coordinates               Weight
  0.000000  0.000000  0.000000      1.000000
 
 Following cartesian coordinates:
            Coordinates               Weight
  0.000000  0.000000  0.000000      1.000000
 
    WAVPRE:  cpu time    0.08: real time    0.09
    FEWALD:  cpu time    0.07: real time    0.07
    ORTHCH:  cpu time    2.57: real time    2.59
     LOOP+:  cpu time  184.75: real time  186.19


----------------------------------------- Iteration    3(   1)  ---------------------------------------


    POTLOK:  cpu time    0.35: real time    0.35
    SETDIJ:  cpu time    0.05: real time    0.05
     EDDAV:  cpu time   20.72: real time   20.85
       DOS:  cpu time    0.00: real time    0.00
    CHARGE:  cpu time    1.03: real time    1.03
    MIXING:  cpu time    0.01: real time    0.01
    --------------------------------------------
      LOOP:  cpu time   22.16: real time   22.29

 eigenvalue-minimisations  :  2944
 total energy-change (2. order) : 0.1293124E-01  (-0.8767830E+00)
 number of electron    1085.9999547 magnetization     202.1162263
 augmentation part      617.3013393 magnetization     179.6408438

 Broyden mixing:
  rms(total) = 0.53236E-01    rms(broyden)= 0.53177E-01
  rms(prec ) = 0.53997E-01
  weight for this iteration     100.00

 Free energy of the ion-electron system (eV)
  ---------------------------------------------------
  alpha Z        PSCENC =      2067.85644204
  Ewald energy   TEWEN  =    423773.27709071
  -1/2 Hartree   DENC   =   -519602.16317926
  -exchange  EXHF       =         0.00000000
  -V(xc)+E(xc)   XCENC  =      1982.15067932
  PAW double counting   =    106757.47502693  -113112.75163384
  entropy T*S    EENTRO =        -0.24729245
  eigenvalues    EBANDS =      -718.62426090
  atomic energy  EATOM  =     98035.95264826
  ---------------------------------------------------
  free energy    TOTEN  =      -817.07447919 eV

  energy without entropy =     -816.82718674  energy(sigma->0) =     -817.01265608


--------------------------------------------------------------------------------------------------------




----------------------------------------- Iteration    3(   2)  ---------------------------------------


    POTLOK:  cpu time    0.35: real time    0.35
    SETDIJ:  cpu time    0.05: real time    0.05
    EDDIAG:  cpu time    4.46: real time    4.51
  RMM-DIIS:  cpu time    7.17: real time    7.26
    ORTHCH:  cpu time    1.73: real time    1.73
       DOS:  cpu time    0.00: real time    0.00
    CHARGE:  cpu time    1.04: real time    1.04
    MIXING:  cpu time    0.01: real time    0.01
    --------------------------------------------
      LOOP:  cpu time   14.82: real time   14.96

 eigenvalue-minimisations  :  2959
 total energy-change (2. order) :-0.1753484E-01  (-0.1395398E-01)
 number of electron    1085.9999547 magnetization     202.1164477
 augmentation part      617.2981599 magnetization     179.6360162

 Broyden mixing:
  rms(total) = 0.11683E+00    rms(broyden)= 0.11682E+00
  rms(prec ) = 0.12553E+00
  weight for this iteration     100.00

 eigenvalues of (default mixing * dielectric matrix)
  average eigenvalue GAMMA=   0.0709
  0.0709

 Free energy of the ion-electron system (eV)
  ---------------------------------------------------
  alpha Z        PSCENC =      2067.85644204
  Ewald energy   TEWEN  =    423773.27709071
  -1/2 Hartree   DENC   =   -519602.36445504
  -exchange  EXHF       =         0.00000000
  -V(xc)+E(xc)   XCENC  =      1982.15127415
  PAW double counting   =    106757.86054249  -113113.15075060
  entropy T*S    EENTRO =        -0.24728882
  eigenvalues    EBANDS =      -718.42751724
  atomic energy  EATOM  =     98035.95264826
  ---------------------------------------------------
  free energy    TOTEN  =      -817.09201403 eV

  energy without entropy =     -816.84472521  energy(sigma->0) =     -817.03019183


--------------------------------------------------------------------------------------------------------




----------------------------------------- Iteration    3(   3)  ---------------------------------------


    POTLOK:  cpu time    0.36: real time    0.37
    SETDIJ:  cpu time    0.07: real time    0.07
    EDDIAG:  cpu time    4.41: real time    4.44
  RMM-DIIS:  cpu time    7.20: real time    7.23
    ORTHCH:  cpu time    1.70: real time    1.70
       DOS:  cpu time    0.00: real time    0.00
    CHARGE:  cpu time    1.06: real time    1.06
    MIXING:  cpu time    0.01: real time    0.01
    --------------------------------------------
      LOOP:  cpu time   14.81: real time   14.89

 eigenvalue-minimisations  :  2958
 total energy-change (2. order) : 0.4297719E-02  (-0.9582088E-03)
 number of electron    1085.9999547 magnetization     202.1164873
 augmentation part      617.2998911 magnetization     179.6435953

 Broyden mixing:
  rms(total) = 0.37572E-01    rms(broyden)= 0.37566E-01
  rms(prec ) = 0.39350E-01
  weight for this iteration     100.00

 eigenvalues of (default mixing * dielectric matrix)
  average eigenvalue GAMMA=   0.4839
  0.8494  0.1185

 Free energy of the ion-electron system (eV)
  ---------------------------------------------------
  alpha Z        PSCENC =      2067.85644204
  Ewald energy   TEWEN  =    423773.27709071
  -1/2 Hartree   DENC   =   -519602.01509699
  -exchange  EXHF       =         0.00000000
  -V(xc)+E(xc)   XCENC  =      1982.15243704
  PAW double counting   =    106757.83789393  -113113.12472197
  entropy T*S    EENTRO =        -0.24704925
  eigenvalues    EBANDS =      -718.77736009
  atomic energy  EATOM  =     98035.95264826
  ---------------------------------------------------
  free energy    TOTEN  =      -817.08771632 eV

  energy without entropy =     -816.84066706  energy(sigma->0) =     -817.02595400


--------------------------------------------------------------------------------------------------------




----------------------------------------- Iteration    3(   4)  ---------------------------------------


    POTLOK:  cpu time    0.36: real time    0.37
    SETDIJ:  cpu time    0.05: real time    0.05
    EDDIAG:  cpu time    4.43: real time    4.47
  RMM-DIIS:  cpu time    7.34: real time    7.45
    ORTHCH:  cpu time    1.67: real time    1.69
       DOS:  cpu time    0.00: real time    0.00
    CHARGE:  cpu time    1.01: real time    1.05
    MIXING:  cpu time    0.01: real time    0.01
    --------------------------------------------
      LOOP:  cpu time   14.87: real time   15.10

 eigenvalue-minimisations  :  2978
 total energy-change (2. order) :-0.7669524E-02  (-0.3752223E-03)
 number of electron    1085.9999549 magnetization     202.1167913
 augmentation part      617.3005079 magnetization     179.6296596

 Broyden mixing:
  rms(total) = 0.12063E+00    rms(broyden)= 0.12063E+00
  rms(prec ) = 0.16904E+00
  weight for this iteration     100.00

 eigenvalues of (default mixing * dielectric matrix)
  average eigenvalue GAMMA=   0.3912
  0.9572  0.1279  0.0886

 Free energy of the ion-electron system (eV)
  ---------------------------------------------------
  alpha Z        PSCENC =      2067.85644204
  Ewald energy   TEWEN  =    423773.27709071
  -1/2 Hartree   DENC   =   -519602.43035234
  -exchange  EXHF       =         0.00000000
  -V(xc)+E(xc)   XCENC  =      1982.14958068
  PAW double counting   =    106757.71536913  -113112.99173167
  entropy T*S    EENTRO =        -0.25072627
  eigenvalues    EBANDS =      -718.37370639
  atomic energy  EATOM  =     98035.95264826
  ---------------------------------------------------
  free energy    TOTEN  =      -817.09538584 eV

  energy without entropy =     -816.84465957  energy(sigma->0) =     -817.03270427


--------------------------------------------------------------------------------------------------------




----------------------------------------- Iteration    3(   5)  ---------------------------------------


    POTLOK:  cpu time    0.35: real time    0.35
    SETDIJ:  cpu time    0.05: real time    0.05
    EDDIAG:  cpu time    5.03: real time    5.05
  RMM-DIIS:  cpu time    7.22: real time    7.30
    ORTHCH:  cpu time    1.65: real time    1.69
       DOS:  cpu time    0.00: real time    0.00
    CHARGE:  cpu time    1.05: real time    1.06
    MIXING:  cpu time    0.01: real time    0.01
    --------------------------------------------
      LOOP:  cpu time   15.37: real time   15.50

 eigenvalue-minimisations  :  2978
 total energy-change (2. order) : 0.7121502E-02  (-0.2226540E-03)
 number of electron    1085.9999546 magnetization     202.1167792
 augmentation part      617.3015590 magnetization     179.6451673

 Broyden mixing:
  rms(total) = 0.45357E-01    rms(broyden)= 0.45348E-01
  rms(prec ) = 0.59251E-01
  weight for this iteration     100.00

 eigenvalues of (default mixing * dielectric matrix)
  average eigenvalue GAMMA=   0.4540
  1.1847  0.4458  0.1163  0.0691

 Free energy of the ion-electron system (eV)
  ---------------------------------------------------
  alpha Z        PSCENC =      2067.85644204
  Ewald energy   TEWEN  =    423773.27709071
  -1/2 Hartree   DENC   =   -519602.24440663
  -exchange  EXHF       =         0.00000000
  -V(xc)+E(xc)   XCENC  =      1982.15193573
  PAW double counting   =    106757.71473887  -113112.98980085
  entropy T*S    EENTRO =        -0.24677806
  eigenvalues    EBANDS =      -718.56013442
  atomic energy  EATOM  =     98035.95264826
  ---------------------------------------------------
  free energy    TOTEN  =      -817.08826434 eV

  energy without entropy =     -816.84148628  energy(sigma->0) =     -817.02656982


--------------------------------------------------------------------------------------------------------




----------------------------------------- Iteration    3(   6)  ---------------------------------------


    POTLOK:  cpu time    0.37: real time    0.40
    SETDIJ:  cpu time    0.05: real time    0.05
    EDDIAG:  cpu time    4.48: real time    4.49
  RMM-DIIS:  cpu time    7.20: real time    7.27
    ORTHCH:  cpu time    1.73: real time    1.73
       DOS:  cpu time    0.00: real time    0.00
    CHARGE:  cpu time    1.05: real time    1.08
    MIXING:  cpu time    0.01: real time    0.01
    --------------------------------------------
      LOOP:  cpu time   14.90: real time   15.04

 eigenvalue-minimisations  :  2946
 total energy-change (2. order) :-0.2403044E-02  (-0.4453111E-03)
 number of electron    1085.9999548 magnetization     202.1160951
 augmentation part      617.3030221 magnetization     179.6485315

 Broyden mixing:
  rms(total) = 0.89524E-01    rms(broyden)= 0.89521E-01
  rms(prec ) = 0.10047E+00
  weight for this iteration     100.00

 eigenvalues of (default mixing * dielectric matrix)
  average eigenvalue GAMMA=   0.6480
  2.1400  0.7935  0.1290  0.1110  0.0663

 Free energy of the ion-electron system (eV)
  ---------------------------------------------------
  alpha Z        PSCENC =      2067.85644204
  Ewald energy   TEWEN  =    423773.27709071
  -1/2 Hartree   DENC   =   -519601.16798310
  -exchange  EXHF       =         0.00000000
  -V(xc)+E(xc)   XCENC  =      1982.15167840
  PAW double counting   =    106757.55545020  -113112.83640969
  entropy T*S    EENTRO =        -0.24633709
  eigenvalues    EBANDS =      -719.63324712
  atomic energy  EATOM  =     98035.95264826
  ---------------------------------------------------
  free energy    TOTEN  =      -817.09066738 eV

  energy without entropy =     -816.84433030  energy(sigma->0) =     -817.02908311


--------------------------------------------------------------------------------------------------------




----------------------------------------- Iteration    3(   7)  ---------------------------------------


    POTLOK:  cpu time    0.36: real time    0.37
    SETDIJ:  cpu time    0.05: real time    0.05
    EDDIAG:  cpu time    4.41: real time    4.42
  RMM-DIIS:  cpu time    7.22: real time    7.26
    ORTHCH:  cpu time    1.70: real time    1.70
       DOS:  cpu time    0.00: real time    0.00
    CHARGE:  cpu time    1.08: real time    1.08
    MIXING:  cpu time    0.01: real time    0.01
    --------------------------------------------
      LOOP:  cpu time   14.83: real time   14.91

 eigenvalue-minimisations  :  2956
 total energy-change (2. order) : 0.2207999E-02  (-0.2459925E-03)
 number of electron    1085.9999546 magnetization     202.1163813
 augmentation part      617.2947437 magnetization     179.6292511

 Broyden mixing:
  rms(total) = 0.51136E-01    rms(broyden)= 0.51133E-01
  rms(prec ) = 0.59936E-01
  weight for this iteration     100.00

 eigenvalues of (default mixing * dielectric matrix)
  average eigenvalue GAMMA=   0.5808
  2.2303  0.8208  0.1448  0.0664  0.1112  0.1112

 Free energy of the ion-electron system (eV)
  ---------------------------------------------------
  alpha Z        PSCENC =      2067.85644204
  Ewald energy   TEWEN  =    423773.27709071
  -1/2 Hartree   DENC   =   -519603.10750898
  -exchange  EXHF       =         0.00000000
  -V(xc)+E(xc)   XCENC  =      1982.14590246
  PAW double counting   =    106757.51005044  -113112.81393062
  entropy T*S    EENTRO =        -0.24861862
  eigenvalues    EBANDS =      -717.66053508
  atomic energy  EATOM  =     98035.95264826
  ---------------------------------------------------
  free energy    TOTEN  =      -817.08845938 eV

  energy without entropy =     -816.83984076  energy(sigma->0) =     -817.02630473


--------------------------------------------------------------------------------------------------------




----------------------------------------- Iteration    3(   8)  ---------------------------------------


    POTLOK:  cpu time    0.35: real time    0.35
    SETDIJ:  cpu time    0.08: real time    0.10
    EDDIAG:  cpu time    4.37: real time    4.39
  RMM-DIIS:  cpu time    7.22: real time    7.26
    ORTHCH:  cpu time    1.66: real time    1.67
       DOS:  cpu time    0.00: real time    0.00
    CHARGE:  cpu time    1.04: real time    1.05
    MIXING:  cpu time    0.01: real time    0.01
    --------------------------------------------
      LOOP:  cpu time   14.74: real time   14.85

 eigenvalue-minimisations  :  2963
 total energy-change (2. order) : 0.9608230E-03  (-0.8103810E-04)
 number of electron    1085.9999547 magnetization     202.1165277
 augmentation part      617.2977431 magnetization     179.6414028

 Broyden mixing:
  rms(total) = 0.14046E-01    rms(broyden)= 0.14042E-01
  rms(prec ) = 0.16340E-01
  weight for this iteration     100.00

 eigenvalues of (default mixing * dielectric matrix)
  average eigenvalue GAMMA=   0.6019
  2.3398  0.9119  0.5559  0.1327  0.1146  0.0663  0.0920

 Free energy of the ion-electron system (eV)
  ---------------------------------------------------
  alpha Z        PSCENC =      2067.85644204
  Ewald energy   TEWEN  =    423773.27709071
  -1/2 Hartree   DENC   =   -519602.13609752
  -exchange  EXHF       =         0.00000000
  -V(xc)+E(xc)   XCENC  =      1982.14850722
  PAW double counting   =    106757.42600911  -113112.72159860
  entropy T*S    EENTRO =        -0.24735013
  eigenvalues    EBANDS =      -718.64314966
  atomic energy  EATOM  =     98035.95264826
  ---------------------------------------------------
  free energy    TOTEN  =      -817.08749856 eV

  energy without entropy =     -816.84014843  energy(sigma->0) =     -817.02566103


--------------------------------------------------------------------------------------------------------




----------------------------------------- Iteration    3(   9)  ---------------------------------------


    POTLOK:  cpu time    0.35: real time    0.35
    SETDIJ:  cpu time    0.05: real time    0.05
    EDDIAG:  cpu time    4.36: real time    4.39
  RMM-DIIS:  cpu time    7.19: real time    7.27
    ORTHCH:  cpu time    1.67: real time    1.67
       DOS:  cpu time    0.00: real time    0.00
    CHARGE:  cpu time    1.04: real time    1.06
    MIXING:  cpu time    0.01: real time    0.01
    --------------------------------------------
      LOOP:  cpu time   14.68: real time   14.81

 eigenvalue-minimisations  :  2962
 total energy-change (2. order) :-0.2218857E-03  (-0.2908661E-04)
 number of electron    1085.9999547 magnetization     202.1165691
 augmentation part      617.3011605 magnetization     179.6426322

 Broyden mixing:
  rms(total) = 0.25437E-01    rms(broyden)= 0.25437E-01
  rms(prec ) = 0.29106E-01
  weight for this iteration     100.00

 eigenvalues of (default mixing * dielectric matrix)
  average eigenvalue GAMMA=   0.5673
  2.3810  0.9915  0.6505  0.0662  0.1313  0.1219  0.1071  0.0891

 Free energy of the ion-electron system (eV)
  ---------------------------------------------------
  alpha Z        PSCENC =      2067.85644204
  Ewald energy   TEWEN  =    423773.27709071
  -1/2 Hartree   DENC   =   -519601.84020433
  -exchange  EXHF       =         0.00000000
  -V(xc)+E(xc)   XCENC  =      1982.15008399
  PAW double counting   =    106757.33404859  -113112.60898598
  entropy T*S    EENTRO =        -0.24668658
  eigenvalues    EBANDS =      -718.96215714
  atomic energy  EATOM  =     98035.95264826
  ---------------------------------------------------
  free energy    TOTEN  =      -817.08772045 eV

  energy without entropy =     -816.84103387  energy(sigma->0) =     -817.02604880


--------------------------------------------------------------------------------------------------------




----------------------------------------- Iteration    3(  10)  ---------------------------------------


    POTLOK:  cpu time    0.35: real time    0.35
    SETDIJ:  cpu time    0.05: real time    0.05
    EDDIAG:  cpu time    4.36: real time    4.41
  RMM-DIIS:  cpu time    7.26: real time    7.29
    ORTHCH:  cpu time    1.65: real time    1.68
       DOS:  cpu time    0.00: real time    0.00
    CHARGE:  cpu time    1.05: real time    1.06
    MIXING:  cpu time    0.01: real time    0.01
    --------------------------------------------
      LOOP:  cpu time   14.73: real time   14.85

 eigenvalue-minimisations  :  2960
 total energy-change (2. order) : 0.2474438E-03  (-0.1381232E-04)
 number of electron    1085.9999547 magnetization     202.1166015
 augmentation part      617.3014784 magnetization     179.6417987

 Broyden mixing:
  rms(total) = 0.53942E-02    rms(broyden)= 0.53928E-02
  rms(prec ) = 0.61809E-02
  weight for this iteration     100.00

 eigenvalues of (default mixing * dielectric matrix)
  average eigenvalue GAMMA=   0.5333
  2.3801  1.0107  0.6620  0.2359  0.1384  0.0662  0.1127  0.1063  0.0870

 Free energy of the ion-electron system (eV)
  ---------------------------------------------------
  alpha Z        PSCENC =      2067.85644204
  Ewald energy   TEWEN  =    423773.27709071
  -1/2 Hartree   DENC   =   -519602.18452135
  -exchange  EXHF       =         0.00000000
  -V(xc)+E(xc)   XCENC  =      1982.15040846
  PAW double counting   =    106757.33733845  -113112.60691000
  entropy T*S    EENTRO =        -0.24755207
  eigenvalues    EBANDS =      -718.62241751
  atomic energy  EATOM  =     98035.95264826
  ---------------------------------------------------
  free energy    TOTEN  =      -817.08747300 eV

  energy without entropy =     -816.83992093  energy(sigma->0) =     -817.02558498


--------------------------------------------------------------------------------------------------------




----------------------------------------- Iteration    3(  11)  ---------------------------------------


    POTLOK:  cpu time    0.35: real time    0.35
    SETDIJ:  cpu time    0.05: real time    0.05
    EDDIAG:  cpu time    4.35: real time    4.39
  RMM-DIIS:  cpu time    7.19: real time    7.22
    ORTHCH:  cpu time    1.68: real time    1.68
       DOS:  cpu time    0.00: real time    0.00
    CHARGE:  cpu time    1.05: real time    1.06
    MIXING:  cpu time    0.01: real time    0.01
    --------------------------------------------
      LOOP:  cpu time   14.68: real time   14.77

 eigenvalue-minimisations  :  2949
 total energy-change (2. order) :-0.7272407E-05  (-0.2982546E-05)
 number of electron    1085.9999547 magnetization     202.1165763
 augmentation part      617.3012680 magnetization     179.6430108

 Broyden mixing:
  rms(total) = 0.51686E-02    rms(broyden)= 0.51683E-02
  rms(prec ) = 0.58289E-02
  weight for this iteration     100.00

 eigenvalues of (default mixing * dielectric matrix)
  average eigenvalue GAMMA=   0.5617
  2.3774  1.1250  0.8533  0.6386  0.1365  0.0662  0.1206  0.1138  0.0997  0.0864

 Free energy of the ion-electron system (eV)
  ---------------------------------------------------
  alpha Z        PSCENC =      2067.85644204
  Ewald energy   TEWEN  =    423773.27709071
  -1/2 Hartree   DENC   =   -519602.02533414
  -exchange  EXHF       =         0.00000000
  -V(xc)+E(xc)   XCENC  =      1982.15094253
  PAW double counting   =    106757.34417045  -113112.61590795
  entropy T*S    EENTRO =        -0.24725919
  eigenvalues    EBANDS =      -718.78027299
  atomic energy  EATOM  =     98035.95264826
  ---------------------------------------------------
  free energy    TOTEN  =      -817.08748027 eV

  energy without entropy =     -816.84022109  energy(sigma->0) =     -817.02566548


--------------------------------------------------------------------------------------------------------




----------------------------------------- Iteration    3(  12)  ---------------------------------------


    POTLOK:  cpu time    0.35: real time    0.35
    SETDIJ:  cpu time    0.05: real time    0.05
    EDDIAG:  cpu time    4.28: real time    4.40
  RMM-DIIS:  cpu time    7.08: real time    7.14
    ORTHCH:  cpu time    1.67: real time    1.69
       DOS:  cpu time    0.00: real time    0.00
    CHARGE:  cpu time    1.06: real time    1.06
    MIXING:  cpu time    0.01: real time    0.01
    --------------------------------------------
      LOOP:  cpu time   14.50: real time   14.71

 eigenvalue-minimisations  :  2924
 total energy-change (2. order) : 0.3733454E-05  (-0.1312577E-05)
 number of electron    1085.9999547 magnetization     202.1166159
 augmentation part      617.2995657 magnetization     179.6412827

 Broyden mixing:
  rms(total) = 0.36552E-02    rms(broyden)= 0.36550E-02
  rms(prec ) = 0.40972E-02
  weight for this iteration     100.00

 eigenvalues of (default mixing * dielectric matrix)
  average eigenvalue GAMMA=   0.5349
  2.3803  1.1898  0.8897  0.6435  0.1569  0.1441  0.0662  0.1188  0.1125  0.0956
  0.0868

 Free energy of the ion-electron system (eV)
  ---------------------------------------------------
  alpha Z        PSCENC =      2067.85644204
  Ewald energy   TEWEN  =    423773.27709071
  -1/2 Hartree   DENC   =   -519602.17171951
  -exchange  EXHF       =         0.00000000
  -V(xc)+E(xc)   XCENC  =      1982.15100703
  PAW double counting   =    106757.40587601  -113112.68876684
  entropy T*S    EENTRO =        -0.24743183
  eigenvalues    EBANDS =      -718.62262241
  atomic energy  EATOM  =     98035.95264826
  ---------------------------------------------------
  free energy    TOTEN  =      -817.08747654 eV

  energy without entropy =     -816.84004471  energy(sigma->0) =     -817.02561858


--------------------------------------------------------------------------------------------------------




----------------------------------------- Iteration    3(  13)  ---------------------------------------


    POTLOK:  cpu time    0.36: real time    0.37
    SETDIJ:  cpu time    0.05: real time    0.05
    EDDIAG:  cpu time    4.36: real time    4.40
  RMM-DIIS:  cpu time    6.97: real time    7.02
    ORTHCH:  cpu time    1.69: real time    1.69
       DOS:  cpu time    0.00: real time    0.00
    CHARGE:  cpu time    1.09: real time    1.09
    MIXING:  cpu time    0.01: real time    0.01
    --------------------------------------------
      LOOP:  cpu time   14.54: real time   14.63

 eigenvalue-minimisations  :  2844
 total energy-change (2. order) : 0.2884612E-05  (-0.7764399E-06)
 number of electron    1085.9999547 magnetization     202.1167425
 augmentation part      617.2995571 magnetization     179.6417381

 Broyden mixing:
  rms(total) = 0.23376E-02    rms(broyden)= 0.23375E-02
  rms(prec ) = 0.27073E-02
  weight for this iteration     100.00

 eigenvalues of (default mixing * dielectric matrix)
  average eigenvalue GAMMA=   0.5687
  2.4194  1.4654  0.9784  0.6829  0.5432  0.1390  0.0662  0.1222  0.1158  0.1087
  0.0865  0.0962

 Free energy of the ion-electron system (eV)
  ---------------------------------------------------
  alpha Z        PSCENC =      2067.85644204
  Ewald energy   TEWEN  =    423773.27709071
  -1/2 Hartree   DENC   =   -519602.16259465
  -exchange  EXHF       =         0.00000000
  -V(xc)+E(xc)   XCENC  =      1982.15118120
  PAW double counting   =    106757.41398655  -113112.69645832
  entropy T*S    EENTRO =        -0.24747706
  eigenvalues    EBANDS =      -718.63229240
  atomic energy  EATOM  =     98035.95264826
  ---------------------------------------------------
  free energy    TOTEN  =      -817.08747366 eV

  energy without entropy =     -816.83999660  energy(sigma->0) =     -817.02560439


--------------------------------------------------------------------------------------------------------




----------------------------------------- Iteration    3(  14)  ---------------------------------------


    POTLOK:  cpu time    0.37: real time    0.38
    SETDIJ:  cpu time    0.05: real time    0.05
    EDDIAG:  cpu time    4.39: real time    4.43
  RMM-DIIS:  cpu time    6.17: real time    6.20
    ORTHCH:  cpu time    1.69: real time    1.70
       DOS:  cpu time    0.00: real time    0.00
    CHARGE:  cpu time    1.08: real time    1.08
    MIXING:  cpu time    0.01: real time    0.01
    --------------------------------------------
      LOOP:  cpu time   13.77: real time   13.86

 eigenvalue-minimisations  :  2470
 total energy-change (2. order) :-0.2983928E-05  (-0.4835607E-06)
 number of electron    1085.9999547 magnetization     202.1167875
 augmentation part      617.3004952 magnetization     179.6424674

 Broyden mixing:
  rms(total) = 0.35349E-02    rms(broyden)= 0.35348E-02
  rms(prec ) = 0.40911E-02
  weight for this iteration     100.00

 eigenvalues of (default mixing * dielectric matrix)
  average eigenvalue GAMMA=   0.5591
  2.4563  1.6546  1.0102  0.7130  0.5885  0.0662  0.1396  0.1240  0.1240  0.1115
  0.0865  0.0966  0.0966

 Free energy of the ion-electron system (eV)
  ---------------------------------------------------
  alpha Z        PSCENC =      2067.85644204
  Ewald energy   TEWEN  =    423773.27709071
  -1/2 Hartree   DENC   =   -519602.09412770
  -exchange  EXHF       =         0.00000000
  -V(xc)+E(xc)   XCENC  =      1982.15140469
  PAW double counting   =    106757.41744782  -113112.69385825
  entropy T*S    EENTRO =        -0.24737165
  eigenvalues    EBANDS =      -718.70715256
  atomic energy  EATOM  =     98035.95264826
  ---------------------------------------------------
  free energy    TOTEN  =      -817.08747664 eV

  energy without entropy =     -816.84010499  energy(sigma->0) =     -817.02563373


--------------------------------------------------------------------------------------------------------




----------------------------------------- Iteration    3(  15)  ---------------------------------------


    POTLOK:  cpu time    0.36: real time    0.37
    SETDIJ:  cpu time    0.05: real time    0.05
    EDDIAG:  cpu time    4.39: real time    4.43
  RMM-DIIS:  cpu time    4.78: real time    4.80
    ORTHCH:  cpu time    1.70: real time    1.71
       DOS:  cpu time    0.00: real time    0.00
    CHARGE:  cpu time    1.08: real time    1.08
    MIXING:  cpu time    0.01: real time    0.01
    --------------------------------------------
      LOOP:  cpu time   12.38: real time   12.45

 eigenvalue-minimisations  :  1869
 total energy-change (2. order) : 0.4633039E-05  (-0.2891436E-06)
 number of electron    1085.9999547 magnetization     202.1168237
 augmentation part      617.3006938 magnetization     179.6424290

 Broyden mixing:
  rms(total) = 0.10317E-02    rms(broyden)= 0.10315E-02
  rms(prec ) = 0.11596E-02
  weight for this iteration     100.00

 eigenvalues of (default mixing * dielectric matrix)
  average eigenvalue GAMMA=   0.5563
  2.4832  1.7580  1.0141  0.7462  0.6176  0.3327  0.0662  0.1392  0.1309  0.1130
  0.1130  0.0983  0.0864  0.0887

 Free energy of the ion-electron system (eV)
  ---------------------------------------------------
  alpha Z        PSCENC =      2067.85644204
  Ewald energy   TEWEN  =    423773.27709071
  -1/2 Hartree   DENC   =   -519602.10307265
  -exchange  EXHF       =         0.00000000
  -V(xc)+E(xc)   XCENC  =      1982.15140739
  PAW double counting   =    106757.42388137  -113112.69869578
  entropy T*S    EENTRO =        -0.24738315
  eigenvalues    EBANDS =      -718.69979020
  atomic energy  EATOM  =     98035.95264826
  ---------------------------------------------------
  free energy    TOTEN  =      -817.08747201 eV

  energy without entropy =     -816.84008886  energy(sigma->0) =     -817.02562622


--------------------------------------------------------------------------------------------------------




----------------------------------------- Iteration    3(  16)  ---------------------------------------


    POTLOK:  cpu time    0.35: real time    0.35
    SETDIJ:  cpu time    0.05: real time    0.05
    EDDIAG:  cpu time    4.37: real time    4.41
  RMM-DIIS:  cpu time    4.00: real time    4.08
    ORTHCH:  cpu time    1.72: real time    1.72
       DOS:  cpu time    0.00: real time    0.00
    --------------------------------------------
      LOOP:  cpu time   10.50: real time   10.62

 eigenvalue-minimisations  :  1568
 total energy-change (2. order) :-0.8343195E-06  (-0.1187692E-06)
 number of electron    1085.9999547 magnetization     202.1168237
 augmentation part      617.3006938 magnetization     179.6424290

 Free energy of the ion-electron system (eV)
  ---------------------------------------------------
  alpha Z        PSCENC =      2067.85644204
  Ewald energy   TEWEN  =    423773.27709071
  -1/2 Hartree   DENC   =   -519602.10544301
  -exchange  EXHF       =         0.00000000
  -V(xc)+E(xc)   XCENC  =      1982.15142600
  PAW double counting   =    106757.43635059  -113112.71205459
  entropy T*S    EENTRO =        -0.24742028
  eigenvalues    EBANDS =      -718.69651257
  atomic energy  EATOM  =     98035.95264826
  ---------------------------------------------------
  free energy    TOTEN  =      -817.08747284 eV

  energy without entropy =     -816.84005257  energy(sigma->0) =     -817.02561777


--------------------------------------------------------------------------------------------------------




 average (electrostatic) potential at core
  the test charge radii are     1.0452  0.7215
  (the norm of the test charge is              1.0000)
       1 -86.7454       2 -86.7449       3 -86.7487       4 -86.7482       5 -86.7461
       6 -86.7463       7 -86.7460       8 -86.7476       9 -86.7449      10 -86.7497
      11 -86.7485      12 -86.7429      13 -86.7427      14 -86.7505      15 -86.7495
      16 -86.7508      17 -86.7465      18 -86.7486      19 -86.7504      20 -86.7468
      21 -86.7467      22 -86.7475      23 -86.7475      24 -86.7504      25 -86.8437
      26 -86.8435      27 -86.8452      28 -86.8491      29 -86.8479      30 -86.8499
      31 -86.8494      32 -86.8494      33 -86.8459      34 -86.8487      35 -86.8455
      36 -86.8481      37 -86.8463      38 -86.8454      39 -86.8462      40 -86.8453
      41 -86.8472      42 -86.8452      43 -86.8481      44 -86.8490      45 -86.8459
      46 -86.8431      47 -86.8454      48 -86.8489      49 -86.8188      50 -86.8217
      51 -86.8216      52 -86.8184      53 -86.8174      54 -86.8175      55 -86.8179
      56 -86.8179      57 -86.8278      58 -86.8132      59 -86.8152      60 -86.8115
      61 -86.8316      62 -86.8299      63 -86.8142      64 -86.8140      65 -86.8267
      66 -86.8216      67 -86.8262      68 -86.8234      69 -86.8169      70 -86.8209
      71 -86.8204      72 -86.8193      73 -86.8589      74 -86.8598      75 -86.8571
      76 -86.8577      77 -86.8546      78 -86.8422      79 -86.8537      80 -86.8475
      81 -86.8580      82 -86.8708      83 -86.8687      84 -86.8577      85 -86.8613
      86 -86.8371      87 -86.8665      88 -86.8401      89 -86.8625      90 -86.8615
      91 -86.8563      92 -86.8592      93 -86.8587      94 -86.8646      95 -86.8601
      96 -86.8562      97 -86.7535      98 -86.7543      99 -86.7504     100 -86.7587
     101 -86.7521     102 -86.7646     103 -86.7657     104 -86.7544     105 -86.7436
     106 -86.7588     107 -86.9023     108 -86.7567     109 -86.7537     110 -86.7565
     111 -86.8995     112 -86.8867     113 -86.7565     114 -86.7531     115 -86.7587
     116 -86.7546     117 -86.7505     118 -86.7471     119 -86.7487     120 -86.7524
     121 -74.3066
 
 
 
 E-fermi :   1.8129     XC(G=0):  -6.7353     alpha+bet : -7.7752


 spin component 1

 k-point   1 :       0.0000    0.0000    0.0000
  band No.  band energies     occupation 
      1     -17.1827      1.00000
      2      -6.8712      1.00000
      3      -5.9887      1.00000
      4      -5.9470      1.00000
      5      -5.9317      1.00000
      6      -5.3033      1.00000
      7      -5.2938      1.00000
      8      -5.1276      1.00000
      9      -5.1041      1.00000
     10      -4.9244      1.00000
     11      -4.9152      1.00000
     12      -4.6844      1.00000
     13      -4.5628      1.00000
     14      -4.5326      1.00000
     15      -4.2793      1.00000
     16      -4.2375      1.00000
     17      -4.2268      1.00000
     18      -4.2160      1.00000
     19      -4.0347      1.00000
     20      -3.9307      1.00000
     21      -3.8725      1.00000
     22      -3.8644      1.00000
     23      -3.8562      1.00000
     24      -3.7590      1.00000
     25      -3.7475      1.00000
     26      -3.6756      1.00000
     27      -3.6206      1.00000
     28      -3.5620      1.00000
     29      -3.4879      1.00000
     30      -3.4440      1.00000
     31      -3.4170      1.00000
     32      -3.4002      1.00000
     33      -3.3608      1.00000
     34      -3.3440      1.00000
     35      -3.3418      1.00000
     36      -3.3280      1.00000
     37      -3.3108      1.00000
     38      -3.2958      1.00000
     39      -3.2573      1.00000
     40      -3.2367      1.00000
     41      -3.2084      1.00000
     42      -3.2065      1.00000
     43      -3.1947      1.00000
     44      -3.0847      1.00000
     45      -3.0824      1.00000
     46      -3.0636      1.00000
     47      -3.0484      1.00000
     48      -3.0191      1.00000
     49      -3.0071      1.00000
     50      -2.9939      1.00000
     51      -2.9831      1.00000
     52      -2.9724      1.00000
     53      -2.9498      1.00000
     54      -2.9388      1.00000
     55      -2.9343      1.00000
     56      -2.9257      1.00000
     57      -2.9179      1.00000
     58      -2.9107      1.00000
     59      -2.8575      1.00000
     60      -2.8556      1.00000
     61      -2.8512      1.00000
     62      -2.8493      1.00000
     63      -2.8018      1.00000
     64      -2.7927      1.00000
     65      -2.7762      1.00000
     66      -2.7730      1.00000
     67      -2.7497      1.00000
     68      -2.7430      1.00000
     69      -2.7392      1.00000
     70      -2.7337      1.00000
     71      -2.7261      1.00000
     72      -2.7150      1.00000
     73      -2.7011      1.00000
     74      -2.6960      1.00000
     75      -2.6882      1.00000
     76      -2.6753      1.00000
     77      -2.6690      1.00000
     78      -2.6642      1.00000
     79      -2.6615      1.00000
     80      -2.6583      1.00000
     81      -2.6304      1.00000
     82      -2.6269      1.00000
     83      -2.6262      1.00000
     84      -2.6182      1.00000
     85      -2.6169      1.00000
     86      -2.5977      1.00000
     87      -2.5812      1.00000
     88      -2.5674      1.00000
     89      -2.5572      1.00000
     90      -2.5504      1.00000
     91      -2.5239      1.00000
     92      -2.5128      1.00000
     93      -2.5012      1.00000
     94      -2.5002      1.00000
     95      -2.4985      1.00000
     96      -2.4850      1.00000
     97      -2.4840      1.00000
     98      -2.4797      1.00000
     99      -2.4749      1.00000
    100      -2.4626      1.00000
    101      -2.4617      1.00000
    102      -2.4596      1.00000
    103      -2.4535      1.00000
    104      -2.4455      1.00000
    105      -2.4403      1.00000
    106      -2.4313      1.00000
    107      -2.4268      1.00000
    108      -2.4238      1.00000
    109      -2.4176      1.00000
    110      -2.4164      1.00000
    111      -2.4153      1.00000
    112      -2.4068      1.00000
    113      -2.4020      1.00000
    114      -2.4009      1.00000
    115      -2.4005      1.00000
    116      -2.3952      1.00000
    117      -2.3801      1.00000
    118      -2.3541      1.00000
    119      -2.3344      1.00000
    120      -2.2886      1.00000
    121      -2.2776      1.00000
    122      -2.2392      1.00000
    123      -2.2313      1.00000
    124      -2.2249      1.00000
    125      -2.2186      1.00000
    126      -2.2100      1.00000
    127      -2.2061      1.00000
    128      -2.1967      1.00000
    129      -2.1526      1.00000
    130      -2.1501      1.00000
    131      -2.1491      1.00000
    132      -2.1459      1.00000
    133      -2.1443      1.00000
    134      -2.1386      1.00000
    135      -2.1291      1.00000
    136      -2.1118      1.00000
    137      -2.0793      1.00000
    138      -2.0747      1.00000
    139      -2.0710      1.00000
    140      -2.0688      1.00000
    141      -2.0664      1.00000
    142      -2.0555      1.00000
    143      -2.0358      1.00000
    144      -2.0337      1.00000
    145      -2.0205      1.00000
    146      -2.0179      1.00000
    147      -2.0149      1.00000
    148      -2.0103      1.00000
    149      -2.0077      1.00000
    150      -1.9861      1.00000
    151      -1.9805      1.00000
    152      -1.9465      1.00000
    153      -1.9096      1.00000
    154      -1.9036      1.00000
    155      -1.8783      1.00000
    156      -1.8774      1.00000
    157      -1.8758      1.00000
    158      -1.8713      1.00000
    159      -1.8665      1.00000
    160      -1.8578      1.00000
    161      -1.8560      1.00000
    162      -1.8523      1.00000
    163      -1.8497      1.00000
    164      -1.8413      1.00000
    165      -1.8268      1.00000
    166      -1.8203      1.00000
    167      -1.8117      1.00000
    168      -1.7941      1.00000
    169      -1.7892      1.00000
    170      -1.7673      1.00000
    171      -1.7625      1.00000
    172      -1.7593      1.00000
    173      -1.7391      1.00000
    174      -1.7242      1.00000
    175      -1.7173      1.00000
    176      -1.7051      1.00000
    177      -1.6965      1.00000
    178      -1.6934      1.00000
    179      -1.6831      1.00000
    180      -1.6796      1.00000
    181      -1.6740      1.00000
    182      -1.6545      1.00000
    183      -1.6352      1.00000
    184      -1.6346      1.00000
    185      -1.6308      1.00000
    186      -1.6252      1.00000
    187      -1.6103      1.00000
    188      -1.6017      1.00000
    189      -1.5901      1.00000
    190      -1.5589      1.00000
    191      -1.5553      1.00000
    192      -1.5463      1.00000
    193      -1.5450      1.00000
    194      -1.5400      1.00000
    195      -1.5363      1.00000
    196      -1.5319      1.00000
    197      -1.5298      1.00000
    198      -1.5025      1.00000
    199      -1.4959      1.00000
    200      -1.4760      1.00000
    201      -1.4721      1.00000
    202      -1.4701      1.00000
    203      -1.4633      1.00000
    204      -1.4554      1.00000
    205      -1.4526      1.00000
    206      -1.4366      1.00000
    207      -1.4271      1.00000
    208      -1.4241      1.00000
    209      -1.4183      1.00000
    210      -1.4142      1.00000
    211      -1.4060      1.00000
    212      -1.3745      1.00000
    213      -1.3621      1.00000
    214      -1.3586      1.00000
    215      -1.3552      1.00000
    216      -1.3508      1.00000
    217      -1.3471      1.00000
    218      -1.3449      1.00000
    219      -1.3377      1.00000
    220      -1.3249      1.00000
    221      -1.3233      1.00000
    222      -1.3220      1.00000
    223      -1.3154      1.00000
    224      -1.3092      1.00000
    225      -1.2844      1.00000
    226      -1.2807      1.00000
    227      -1.2479      1.00000
    228      -1.2440      1.00000
    229      -1.2395      1.00000
    230      -1.2335      1.00000
    231      -1.2139      1.00000
    232      -1.2058      1.00000
    233      -1.1782      1.00000
    234      -1.1750      1.00000
    235      -1.1530      1.00000
    236      -1.1340      1.00000
    237      -1.1329      1.00000
    238      -1.1264      1.00000
    239      -1.1161      1.00000
    240      -1.1122      1.00000
    241      -1.1114      1.00000
    242      -1.1079      1.00000
    243      -1.1056      1.00000
    244      -1.0918      1.00000
    245      -1.0896      1.00000
    246      -1.0840      1.00000
    247      -1.0774      1.00000
    248      -1.0770      1.00000
    249      -1.0767      1.00000
    250      -1.0712      1.00000
    251      -1.0664      1.00000
    252      -1.0484      1.00000
    253      -1.0429      1.00000
    254      -1.0427      1.00000
    255      -1.0385      1.00000
    256      -1.0349      1.00000
    257      -1.0299      1.00000
    258      -1.0220      1.00000
    259      -1.0177      1.00000
    260      -1.0152      1.00000
    261      -1.0028      1.00000
    262      -0.9893      1.00000
    263      -0.9866      1.00000
    264      -0.9844      1.00000
    265      -0.9647      1.00000
    266      -0.9618      1.00000
    267      -0.9547      1.00000
    268      -0.9536      1.00000
    269      -0.9482      1.00000
    270      -0.9377      1.00000
    271      -0.9356      1.00000
    272      -0.9345      1.00000
    273      -0.9308      1.00000
    274      -0.9304      1.00000
    275      -0.9279      1.00000
    276      -0.9271      1.00000
    277      -0.9267      1.00000
    278      -0.9253      1.00000
    279      -0.9233      1.00000
    280      -0.9057      1.00000
    281      -0.8920      1.00000
    282      -0.8857      1.00000
    283      -0.8834      1.00000
    284      -0.8794      1.00000
    285      -0.8701      1.00000
    286      -0.8669      1.00000
    287      -0.8631      1.00000
    288      -0.8593      1.00000
    289      -0.8525      1.00000
    290      -0.8514      1.00000
    291      -0.8493      1.00000
    292      -0.8439      1.00000
    293      -0.8392      1.00000
    294      -0.8373      1.00000
    295      -0.8366      1.00000
    296      -0.8341      1.00000
    297      -0.8299      1.00000
    298      -0.8257      1.00000
    299      -0.8238      1.00000
    300      -0.8232      1.00000
    301      -0.8210      1.00000
    302      -0.8174      1.00000
    303      -0.8157      1.00000
    304      -0.8123      1.00000
    305      -0.8098      1.00000
    306      -0.8075      1.00000
    307      -0.8052      1.00000
    308      -0.8039      1.00000
    309      -0.7852      1.00000
    310      -0.7807      1.00000
    311      -0.7722      1.00000
    312      -0.7656      1.00000
    313      -0.7478      1.00000
    314      -0.7457      1.00000
    315      -0.7444      1.00000
    316      -0.7274      1.00000
    317      -0.7220      1.00000
    318      -0.7157      1.00000
    319      -0.7082      1.00000
    320      -0.7001      1.00000
    321      -0.6995      1.00000
    322      -0.6972      1.00000
    323      -0.6918      1.00000
    324      -0.6881      1.00000
    325      -0.6850      1.00000
    326      -0.6828      1.00000
    327      -0.6810      1.00000
    328      -0.6734      1.00000
    329      -0.6720      1.00000
    330      -0.6680      1.00000
    331      -0.6661      1.00000
    332      -0.6613      1.00000
    333      -0.6575      1.00000
    334      -0.6563      1.00000
    335      -0.6529      1.00000
    336      -0.6511      1.00000
    337      -0.6475      1.00000
    338      -0.6454      1.00000
    339      -0.6425      1.00000
    340      -0.6408      1.00000
    341      -0.6391      1.00000
    342      -0.6360      1.00000
    343      -0.6322      1.00000
    344      -0.6290      1.00000
    345      -0.6269      1.00000
    346      -0.6241      1.00000
    347      -0.6119      1.00000
    348      -0.6067      1.00000
    349      -0.5979      1.00000
    350      -0.5963      1.00000
    351      -0.5936      1.00000
    352      -0.5914      1.00000
    353      -0.5899      1.00000
    354      -0.5852      1.00000
    355      -0.5789      1.00000
    356      -0.5776      1.00000
    357      -0.5731      1.00000
    358      -0.5664      1.00000
    359      -0.5626      1.00000
    360      -0.5470      1.00000
    361      -0.5403      1.00000
    362      -0.5314      1.00000
    363      -0.5205      1.00000
    364      -0.5105      1.00000
    365      -0.4982      1.00000
    366      -0.4827      1.00000
    367      -0.4774      1.00000
    368      -0.4720      1.00000
    369      -0.4673      1.00000
    370      -0.4624      1.00000
    371      -0.4586      1.00000
    372      -0.4568      1.00000
    373      -0.4507      1.00000
    374      -0.4475      1.00000
    375      -0.4429      1.00000
    376      -0.4391      1.00000
    377      -0.4356      1.00000
    378      -0.4336      1.00000
    379      -0.4269      1.00000
    380      -0.4210      1.00000
    381      -0.4190      1.00000
    382      -0.4138      1.00000
    383      -0.3812      1.00000
    384      -0.3667      1.00000
    385      -0.3656      1.00000
    386      -0.3509      1.00000
    387      -0.3421      1.00000
    388      -0.3364      1.00000
    389      -0.3330      1.00000
    390      -0.3273      1.00000
    391      -0.3213      1.00000
    392      -0.3121      1.00000
    393      -0.3025      1.00000
    394      -0.2938      1.00000
    395      -0.2918      1.00000
    396      -0.2864      1.00000
    397      -0.2520      1.00000
    398      -0.2479      1.00000
    399      -0.2460      1.00000
    400      -0.2375      1.00000
    401      -0.2345      1.00000
    402      -0.2316      1.00000
    403      -0.2272      1.00000
    404      -0.2193      1.00000
    405      -0.2123      1.00000
    406      -0.2070      1.00000
    407      -0.2025      1.00000
    408      -0.1952      1.00000
    409      -0.1934      1.00000
    410      -0.1921      1.00000
    411      -0.1840      1.00000
    412      -0.1792      1.00000
    413      -0.1695      1.00000
    414      -0.1367      1.00000
    415      -0.1077      1.00000
    416      -0.0938      1.00000
    417      -0.0810      1.00000
    418      -0.0763      1.00000
    419      -0.0738      1.00000
    420      -0.0660      1.00000
    421      -0.0623      1.00000
    422      -0.0589      1.00000
    423      -0.0468      1.00000
    424      -0.0398      1.00000
    425      -0.0358      1.00000
    426      -0.0325      1.00000
    427      -0.0302      1.00000
    428      -0.0270      1.00000
    429      -0.0214      1.00000
    430      -0.0201      1.00000
    431      -0.0181      1.00000
    432      -0.0152      1.00000
    433      -0.0120      1.00000
    434      -0.0098      1.00000
    435      -0.0070      1.00000
    436      -0.0045      1.00000
    437       0.0065      1.00000
    438       0.0111      1.00000
    439       0.0132      1.00000
    440       0.0189      1.00000
    441       0.0207      1.00000
    442       0.0383      1.00000
    443       0.0450      1.00000
    444       0.0527      1.00000
    445       0.0606      1.00000
    446       0.0632      1.00000
    447       0.0643      1.00000
    448       0.0694      1.00000
    449       0.0809      1.00000
    450       0.0877      1.00000
    451       0.1001      1.00000
    452       0.1147      1.00000
    453       0.1154      1.00000
    454       0.1187      1.00000
    455       0.1194      1.00000
    456       0.1278      1.00000
    457       0.1288      1.00000
    458       0.1411      1.00000
    459       0.1421      1.00000
    460       0.1433      1.00000
    461       0.1477      1.00000
    462       0.1512      1.00000
    463       0.1566      1.00000
    464       0.1588      1.00000
    465       0.1647      1.00000
    466       0.1679      1.00000
    467       0.1714      1.00000
    468       0.1746      1.00000
    469       0.1795      1.00000
    470       0.1805      1.00000
    471       0.1860      1.00000
    472       0.1881      1.00000
    473       0.1921      1.00000
    474       0.2024      1.00000
    475       0.2086      1.00000
    476       0.2179      1.00000
    477       0.2253      1.00000
    478       0.2263      1.00000
    479       0.2289      1.00000
    480       0.2442      1.00000
    481       0.2491      1.00000
    482       0.2591      1.00000
    483       0.2657      1.00000
    484       0.2819      1.00000
    485       0.2989      1.00000
    486       0.3061      1.00000
    487       0.3146      1.00000
    488       0.3178      1.00000
    489       0.3197      1.00000
    490       0.3225      1.00000
    491       0.3292      1.00000
    492       0.3316      1.00000
    493       0.3392      1.00000
    494       0.3475      1.00000
    495       0.3525      1.00000
    496       0.3616      1.00000
    497       0.3670      1.00000
    498       0.3846      1.00000
    499       0.3890      1.00000
    500       0.3957      1.00000
    501       0.4028      1.00000
    502       0.4094      1.00000
    503       0.4218      1.00000
    504       0.4231      1.00000
    505       0.4271      1.00000
    506       0.4296      1.00000
    507       0.4353      1.00000
    508       0.4385      1.00000
    509       0.4435      1.00000
    510       0.4498      1.00000
    511       0.4671      1.00000
    512       0.4696      1.00000
    513       0.4744      1.00000
    514       0.4791      1.00000
    515       0.4896      1.00000
    516       0.4946      1.00000
    517       0.4970      1.00000
    518       0.5078      1.00000
    519       0.5106      1.00000
    520       0.5139      1.00000
    521       0.5197      1.00000
    522       0.5207      1.00000
    523       0.5240      1.00000
    524       0.5252      1.00000
    525       0.5270      1.00000
    526       0.5328      1.00000
    527       0.5344      1.00000
    528       0.5378      1.00000
    529       0.5429      1.00000
    530       0.5514      1.00000
    531       0.5615      1.00000
    532       0.5644      1.00000
    533       0.5749      1.00000
    534       0.5847      1.00000
    535       0.5863      1.00000
    536       0.5892      1.00000
    537       0.5938      1.00000
    538       0.6050      1.00000
    539       0.6107      1.00000
    540       0.6150      1.00000
    541       0.6174      1.00000
    542       0.6212      1.00000
    543       0.6261      1.00000
    544       0.6287      1.00000
    545       0.6326      1.00000
    546       0.6486      1.00000
    547       0.6547      1.00000
    548       0.6619      1.00000
    549       0.6660      1.00000
    550       0.6773      1.00000
    551       0.6892      1.00000
    552       0.6973      1.00000
    553       0.7011      1.00000
    554       0.7043      1.00000
    555       0.7064      1.00000
    556       0.7066      1.00000
    557       0.7112      1.00000
    558       0.7245      1.00000
    559       0.7385      1.00000
    560       0.7447      1.00000
    561       0.7691      1.00000
    562       0.7926      1.00000
    563       0.8086      1.00000
    564       0.8092      1.00000
    565       0.8138      1.00000
    566       0.8173      1.00000
    567       0.8294      1.00000
    568       0.8395      1.00000
    569       0.8516      1.00000
    570       0.8566      1.00000
    571       0.8620      1.00000
    572       0.8673      1.00000
    573       0.8717      1.00000
    574       0.8731      1.00000
    575       0.8761      1.00000
    576       0.8800      1.00000
    577       0.8963      1.00000
    578       0.9009      1.00000
    579       0.9017      1.00000
    580       0.9071      1.00000
    581       0.9088      1.00000
    582       0.9107      1.00000
    583       0.9152      1.00000
    584       0.9208      1.00000
    585       0.9241      1.00000
    586       0.9278      1.00000
    587       0.9289      1.00000
    588       0.9375      1.00000
    589       0.9430      1.00000
    590       0.9484      1.00000
    591       0.9497      1.00000
    592       0.9529      1.00000
    593       0.9539      1.00000
    594       0.9639      1.00000
    595       0.9694      1.00000
    596       0.9766      1.00000
    597       0.9800      1.00000
    598       0.9840      1.00000
    599       1.0057      1.00000
    600       1.0219      1.00000
    601       1.0241      1.00000
    602       1.0254      1.00000
    603       1.0289      1.00000
    604       1.0363      1.00000
    605       1.0402      1.00000
    606       1.0496      1.00000
    607       1.0518      1.00000
    608       1.0521      1.00000
    609       1.0596      1.00000
    610       1.0643      1.00000
    611       1.0657      1.00000
    612       1.0707      0.99999
    613       1.0738      0.99999
    614       1.0748      0.99999
    615       1.0855      0.99999
    616       1.0970      0.99999
    617       1.1200      0.99997
    618       1.1454      0.99995
    619       1.1557      0.99993
    620       1.1610      0.99992
    621       1.1626      0.99991
    622       1.1657      0.99991
    623       1.1944      0.99981
    624       1.2028      0.99976
    625       1.2068      0.99974
    626       1.2086      0.99973
    627       1.2095      0.99972
    628       1.2125      0.99970
    629       1.2142      0.99969
    630       1.2251      0.99961
    631       1.2353      0.99951
    632       1.2464      0.99938
    633       1.2567      0.99923
    634       1.2751      0.99890
    635       1.3107      0.99799
    636       1.3791      0.99558
    637       1.4390      0.99594
    638       1.4506      0.99689
    639       1.4651      0.99872
    640       1.6095      1.05055
    641       1.6260      1.05142
    642       1.6425      1.04719
    643       1.7019      0.96723
    644       1.7772      0.68388
    645       1.8529      0.29465
    646       1.9180      0.04728
    647       2.0272     -0.04789
    648       2.0647     -0.03216
    649       2.2082      0.00487
    650       2.2324      0.00478
    651       2.2400      0.00460
    652       2.3130      0.00207
    653       2.3763      0.00066
    654       2.5371      0.00001
    655       2.5923      0.00000
    656       2.8454      0.00000
    657       2.8502      0.00000
    658       2.8547      0.00000
    659       2.8611      0.00000
    660       2.8788      0.00000
    661       2.8800      0.00000
    662       2.8964      0.00000
    663       2.9059      0.00000
    664       2.9654      0.00000
    665       3.0142      0.00000
    666       3.2111      0.00000
    667       3.2165      0.00000
    668       3.2205      0.00000
    669       3.2253      0.00000
    670       3.2302      0.00000
    671       3.2510      0.00000
    672       3.2823      0.00000
    673       3.2988      0.00000
    674       3.3674      0.00000
    675       3.3939      0.00000
    676       3.5368      0.00000
    677       3.6807      0.00000
    678       3.7232      0.00000
    679       4.0301      0.00000
    680       4.0314      0.00000
    681       4.0363      0.00000
    682       4.0473      0.00000
    683       4.0494      0.00000
    684       4.0525      0.00000
    685       4.0629      0.00000
    686       4.0810      0.00000
    687       4.1207      0.00000
    688       4.1289      0.00000
    689       4.1359      0.00000
    690       4.1432      0.00000
    691       4.2351      0.00000
    692       4.2641      0.00000
    693       4.3507      0.00000
    694       4.4172      0.00000
    695       4.4302      0.00000
    696       4.4348      0.00000
    697       4.4809      0.00000
    698       4.4923      0.00000
    699       4.6300      0.00000
    700       4.6445      0.00000
    701       4.7871      0.00000
    702       4.9262      0.00000
    703       4.9617      0.00000
    704       5.0585      0.00000
    705       5.0981      0.00000
    706       5.1447      0.00000
    707       5.2162      0.00000
    708       5.3874      0.00000
    709       5.4046      0.00000
    710       5.4970      0.00000
    711       5.4987      0.00000
    712       5.5567      0.00000
    713       5.5902      0.00000
    714       5.6549      0.00000
    715       5.6691      0.00000
    716       5.8003      0.00000
    717       5.9059      0.00000
    718       6.0261      0.00000
    719       6.0638      0.00000
    720       6.1975      0.00000
    721       6.4043      0.00000
    722       6.4822      0.00000
    723       6.6895      0.00000
    724       6.7549      0.00000
    725       6.7984      0.00000
    726       6.9816      0.00000
    727       7.0206      0.00000
    728       7.1063      0.00000
    729       7.1079      0.00000
    730       7.1876      0.00000
    731       7.2096      0.00000
    732       7.2600      0.00000
    733       7.3006      0.00000
    734       7.3677      0.00000
    735       7.4520      0.00000
    736       7.5935      0.00000

 spin component 2

 k-point   1 :       0.0000    0.0000    0.0000
  band No.  band energies     occupation 
      1     -16.8491      1.00000
      2      -6.8703      1.00000
      3      -5.9716      1.00000
      4      -5.9353      1.00000
      5      -5.9191      1.00000
      6      -5.2681      1.00000
      7      -5.2604      1.00000
      8      -5.0863      1.00000
      9      -5.0631      1.00000
     10      -4.8568      1.00000
     11      -4.8512      1.00000
     12      -4.5696      1.00000
     13      -4.4710      1.00000
     14      -4.4481      1.00000
     15      -4.1158      1.00000
     16      -4.0870      1.00000
     17      -4.0844      1.00000
     18      -4.0745      1.00000
     19      -3.7927      1.00000
     20      -3.7457      1.00000
     21      -3.6262      1.00000
     22      -3.6044      1.00000
     23      -3.5077      1.00000
     24      -3.4221      1.00000
     25      -3.3474      1.00000
     26      -3.2717      1.00000
     27      -3.2601      1.00000
     28      -3.2109      1.00000
     29      -3.1036      1.00000
     30      -3.0628      1.00000
     31      -3.0502      1.00000
     32      -3.0220      1.00000
     33      -2.9674      1.00000
     34      -2.9262      1.00000
     35      -2.8173      1.00000
     36      -2.7588      1.00000
     37      -2.5796      1.00000
     38      -2.5417      1.00000
     39      -2.5178      1.00000
     40      -2.4391      1.00000
     41      -2.4355      1.00000
     42      -2.3917      1.00000
     43      -2.3489      1.00000
     44      -2.2968      1.00000
     45      -2.2910      1.00000
     46      -2.2800      1.00000
     47      -2.2734      1.00000
     48      -2.2299      1.00000
     49      -2.1469      1.00000
     50      -2.1432      1.00000
     51      -2.1416      1.00000
     52      -2.0949      1.00000
     53      -2.0913      1.00000
     54      -2.0755      1.00000
     55      -2.0750      1.00000
     56      -2.0126      1.00000
     57      -2.0096      1.00000
     58      -1.9665      1.00000
     59      -1.9513      1.00000
     60      -1.9303      1.00000
     61      -1.9088      1.00000
     62      -1.9075      1.00000
     63      -1.8942      1.00000
     64      -1.8938      1.00000
     65      -1.8923      1.00000
     66      -1.8852      1.00000
     67      -1.8838      1.00000
     68      -1.8820      1.00000
     69      -1.8704      1.00000
     70      -1.8645      1.00000
     71      -1.7944      1.00000
     72      -1.7786      1.00000
     73      -1.7751      1.00000
     74      -1.7611      1.00000
     75      -1.6873      1.00000
     76      -1.6845      1.00000
     77      -1.6775      1.00000
     78      -1.6763      1.00000
     79      -1.6455      1.00000
     80      -1.6082      1.00000
     81      -1.5991      1.00000
     82      -1.5783      1.00000
     83      -1.5501      1.00000
     84      -1.5177      1.00000
     85      -1.5041      1.00000
     86      -1.4628      1.00000
     87      -1.4597      1.00000
     88      -1.4548      1.00000
     89      -1.4476      1.00000
     90      -1.4364      1.00000
     91      -1.4297      1.00000
     92      -1.4288      1.00000
     93      -1.4098      1.00000
     94      -1.4092      1.00000
     95      -1.3842      1.00000
     96      -1.3782      1.00000
     97      -1.3675      1.00000
     98      -1.3632      1.00000
     99      -1.3538      1.00000
    100      -1.3374      1.00000
    101      -1.3341      1.00000
    102      -1.3181      1.00000
    103      -1.3122      1.00000
    104      -1.3036      1.00000
    105      -1.2959      1.00000
    106      -1.2770      1.00000
    107      -1.2716      1.00000
    108      -1.2586      1.00000
    109      -1.2521      1.00000
    110      -1.2382      1.00000
    111      -1.2107      1.00000
    112      -1.1715      1.00000
    113      -1.1688      1.00000
    114      -1.1206      1.00000
    115      -1.1034      1.00000
    116      -1.0992      1.00000
    117      -1.0964      1.00000
    118      -1.0932      1.00000
    119      -1.0850      1.00000
    120      -1.0751      1.00000
    121      -1.0663      1.00000
    122      -1.0638      1.00000
    123      -1.0597      1.00000
    124      -1.0217      1.00000
    125      -1.0101      1.00000
    126      -1.0006      1.00000
    127      -0.9850      1.00000
    128      -0.9687      1.00000
    129      -0.8845      1.00000
    130      -0.8793      1.00000
    131      -0.8690      1.00000
    132      -0.8672      1.00000
    133      -0.8650      1.00000
    134      -0.8615      1.00000
    135      -0.8525      1.00000
    136      -0.8399      1.00000
    137      -0.8333      1.00000
    138      -0.8215      1.00000
    139      -0.8155      1.00000
    140      -0.8134      1.00000
    141      -0.7972      1.00000
    142      -0.7912      1.00000
    143      -0.7570      1.00000
    144      -0.7553      1.00000
    145      -0.7497      1.00000
    146      -0.7398      1.00000
    147      -0.7278      1.00000
    148      -0.7206      1.00000
    149      -0.7202      1.00000
    150      -0.6819      1.00000
    151      -0.6453      1.00000
    152      -0.6423      1.00000
    153      -0.6378      1.00000
    154      -0.6344      1.00000
    155      -0.6136      1.00000
    156      -0.6065      1.00000
    157      -0.6003      1.00000
    158      -0.5923      1.00000
    159      -0.5757      1.00000
    160      -0.5610      1.00000
    161      -0.5555      1.00000
    162      -0.5230      1.00000
    163      -0.5158      1.00000
    164      -0.5072      1.00000
    165      -0.5027      1.00000
    166      -0.4886      1.00000
    167      -0.4858      1.00000
    168      -0.4687      1.00000
    169      -0.4635      1.00000
    170      -0.4555      1.00000
    171      -0.4536      1.00000
    172      -0.4516      1.00000
    173      -0.4237      1.00000
    174      -0.3989      1.00000
    175      -0.3982      1.00000
    176      -0.3915      1.00000
    177      -0.3770      1.00000
    178      -0.3639      1.00000
    179      -0.3532      1.00000
    180      -0.3485      1.00000
    181      -0.3409      1.00000
    182      -0.2969      1.00000
    183      -0.2928      1.00000
    184      -0.2840      1.00000
    185      -0.2827      1.00000
    186      -0.2784      1.00000
    187      -0.2720      1.00000
    188      -0.2578      1.00000
    189      -0.2517      1.00000
    190      -0.2259      1.00000
    191      -0.2220      1.00000
    192      -0.2193      1.00000
    193      -0.2157      1.00000
    194      -0.1616      1.00000
    195      -0.1570      1.00000
    196      -0.1479      1.00000
    197      -0.1419      1.00000
    198      -0.1372      1.00000
    199      -0.1346      1.00000
    200      -0.1333      1.00000
    201      -0.1266      1.00000
    202      -0.0792      1.00000
    203      -0.0742      1.00000
    204      -0.0518      1.00000
    205      -0.0463      1.00000
    206      -0.0389      1.00000
    207      -0.0325      1.00000
    208      -0.0210      1.00000
    209      -0.0156      1.00000
    210      -0.0086      1.00000
    211      -0.0039      1.00000
    212       0.0090      1.00000
    213       0.0220      1.00000
    214       0.0447      1.00000
    215       0.0498      1.00000
    216       0.0803      1.00000
    217       0.0858      1.00000
    218       0.1275      1.00000
    219       0.1297      1.00000
    220       0.1334      1.00000
    221       0.1364      1.00000
    222       0.1394      1.00000
    223       0.1459      1.00000
    224       0.1502      1.00000
    225       0.1511      1.00000
    226       0.1540      1.00000
    227       0.2021      1.00000
    228       0.2103      1.00000
    229       0.2198      1.00000
    230       0.2240      1.00000
    231       0.2252      1.00000
    232       0.2263      1.00000
    233       0.2326      1.00000
    234       0.2345      1.00000
    235       0.2358      1.00000
    236       0.2402      1.00000
    237       0.2432      1.00000
    238       0.2484      1.00000
    239       0.2622      1.00000
    240       0.2667      1.00000
    241       0.2679      1.00000
    242       0.2778      1.00000
    243       0.2798      1.00000
    244       0.2910      1.00000
    245       0.3220      1.00000
    246       0.3309      1.00000
    247       0.3366      1.00000
    248       0.3397      1.00000
    249       0.3441      1.00000
    250       0.3500      1.00000
    251       0.3597      1.00000
    252       0.3684      1.00000
    253       0.3794      1.00000
    254       0.3874      1.00000
    255       0.4089      1.00000
    256       0.4275      1.00000
    257       0.4337      1.00000
    258       0.4426      1.00000
    259       0.4461      1.00000
    260       0.4522      1.00000
    261       0.4723      1.00000
    262       0.4762      1.00000
    263       0.4897      1.00000
    264       0.4911      1.00000
    265       0.4957      1.00000
    266       0.5073      1.00000
    267       0.5128      1.00000
    268       0.5293      1.00000
    269       0.5349      1.00000
    270       0.5378      1.00000
    271       0.5396      1.00000
    272       0.5406      1.00000
    273       0.5451      1.00000
    274       0.5522      1.00000
    275       0.5575      1.00000
    276       0.5612      1.00000
    277       0.5642      1.00000
    278       0.5683      1.00000
    279       0.5711      1.00000
    280       0.5762      1.00000
    281       0.5801      1.00000
    282       0.5865      1.00000
    283       0.6024      1.00000
    284       0.6047      1.00000
    285       0.6139      1.00000
    286       0.6397      1.00000
    287       0.6502      1.00000
    288       0.6566      1.00000
    289       0.6665      1.00000
    290       0.6791      1.00000
    291       0.6868      1.00000
    292       0.6928      1.00000
    293       0.6980      1.00000
    294       0.7090      1.00000
    295       0.7185      1.00000
    296       0.7250      1.00000
    297       0.7258      1.00000
    298       0.7318      1.00000
    299       0.7375      1.00000
    300       0.7395      1.00000
    301       0.7446      1.00000
    302       0.7473      1.00000
    303       0.7572      1.00000
    304       0.7676      1.00000
    305       0.7729      1.00000
    306       0.7806      1.00000
    307       0.7868      1.00000
    308       0.7909      1.00000
    309       0.7916      1.00000
    310       0.7962      1.00000
    311       0.8029      1.00000
    312       0.8062      1.00000
    313       0.8072      1.00000
    314       0.8081      1.00000
    315       0.8170      1.00000
    316       0.8189      1.00000
    317       0.8230      1.00000
    318       0.8278      1.00000
    319       0.8299      1.00000
    320       0.8433      1.00000
    321       0.8477      1.00000
    322       0.8530      1.00000
    323       0.8553      1.00000
    324       0.8569      1.00000
    325       0.8599      1.00000
    326       0.8634      1.00000
    327       0.8669      1.00000
    328       0.8693      1.00000
    329       0.8725      1.00000
    330       0.8797      1.00000
    331       0.8843      1.00000
    332       0.8898      1.00000
    333       0.8959      1.00000
    334       0.9291      1.00000
    335       0.9473      1.00000
    336       0.9640      1.00000
    337       0.9676      1.00000
    338       0.9715      1.00000
    339       0.9737      1.00000
    340       0.9759      1.00000
    341       0.9790      1.00000
    342       0.9801      1.00000
    343       0.9845      1.00000
    344       0.9885      1.00000
    345       0.9967      1.00000
    346       0.9971      1.00000
    347       1.0000      1.00000
    348       1.0085      1.00000
    349       1.0115      1.00000
    350       1.0125      1.00000
    351       1.0164      1.00000
    352       1.0206      1.00000
    353       1.0338      1.00000
    354       1.0360      1.00000
    355       1.0386      1.00000
    356       1.0405      1.00000
    357       1.0447      1.00000
    358       1.0533      1.00000
    359       1.0566      1.00000
    360       1.0585      1.00000
    361       1.0620      1.00000
    362       1.0661      1.00000
    363       1.0676      0.99999
    364       1.0701      0.99999
    365       1.0764      0.99999
    366       1.0859      0.99999
    367       1.0887      0.99999
    368       1.1110      0.99998
    369       1.1179      0.99998
    370       1.1321      0.99996
    371       1.1559      0.99993
    372       1.1621      0.99992
    373       1.1673      0.99990
    374       1.1747      0.99988
    375       1.1828      0.99986
    376       1.1918      0.99982
    377       1.1932      0.99981
    378       1.1983      0.99979
    379       1.2096      0.99972
    380       1.2195      0.99965
    381       1.2317      0.99954
    382       1.2407      0.99945
    383       1.2481      0.99935
    384       1.2627      0.99913
    385       1.2802      0.99880
    386       1.2977      0.99837
    387       1.3032      0.99822
    388       1.3113      0.99797
    389       1.3259      0.99749
    390       1.3354      0.99715
    391       1.3365      0.99711
    392       1.3402      0.99698
    393       1.3562      0.99638
    394       1.3625      0.99614
    395       1.3728      0.99578
    396       1.3733      0.99577
    397       1.3801      0.99555
    398       1.3856      0.99540
    399       1.3891      0.99532
    400       1.3918      0.99526
    401       1.3953      0.99519
    402       1.4016      0.99510
    403       1.4218      0.99521
    404       1.4347      0.99569
    405       1.4567      0.99756
    406       1.4636      0.99849
    407       1.4885      1.00343
    408       1.4938      1.00483
    409       1.4982      1.00610
    410       1.5104      1.01005
    411       1.5146      1.01156
    412       1.5168      1.01238
    413       1.5388      1.02161
    414       1.5416      1.02290
    415       1.5447      1.02434
    416       1.5579      1.03066
    417       1.5595      1.03143
    418       1.5685      1.03571
    419       1.5700      1.03641
    420       1.5895      1.04481
    421       1.5939      1.04642
    422       1.6050      1.04963
    423       1.6401      1.04818
    424       1.6435      1.04674
    425       1.6486      1.04401
    426       1.6649      1.03055
    427       1.6952      0.98251
    428       1.7000      0.97188
    429       1.7360      0.86329
    430       1.7469      0.82125
    431       1.7484      0.81482
    432       1.7503      0.80719
    433       1.7657      0.73895
    434       1.7718      0.71033
    435       1.7842      0.64912
    436       1.7923      0.60807
    437       1.7959      0.58933
    438       1.7978      0.57953
    439       1.8038      0.54780
    440       1.8108      0.51097
    441       1.8136      0.49634
    442       1.8189      0.46826
    443       1.8269      0.42590
    444       1.8286      0.41721
    445       1.8306      0.40678
    446       1.8354      0.38216
    447       1.8386      0.36576
    448       1.8402      0.35744
    449       1.8412      0.35248
    450       1.8425      0.34618
    451       1.8449      0.33373
    452       1.8544      0.28751
    453       1.8554      0.28270
    454       1.8590      0.26590
    455       1.8629      0.24795
    456       1.8866      0.14853
    457       1.8929      0.12497
    458       1.9149      0.05566
    459       1.9235      0.03358
    460       1.9328      0.01276
    461       1.9365      0.00548
    462       1.9422     -0.00485
    463       1.9504     -0.01759
    464       1.9572     -0.02637
    465       1.9809     -0.04609
    466       1.9845     -0.04773
    467       1.9955     -0.05088
    468       2.0098     -0.05140
    469       2.0351     -0.04523
    470       2.0390     -0.04376
    471       2.0426     -0.04229
    472       2.0481     -0.03994
    473       2.0576     -0.03555
    474       2.0621     -0.03342
    475       2.0691     -0.03007
    476       2.0758     -0.02685
    477       2.0938     -0.01856
    478       2.0944     -0.01831
    479       2.1004     -0.01576
    480       2.1038     -0.01438
    481       2.1050     -0.01391
    482       2.1107     -0.01174
    483       2.1117     -0.01135
    484       2.1154     -0.01001
    485       2.1222     -0.00774
    486       2.1334     -0.00444
    487       2.1350     -0.00400
    488       2.1711      0.00267
    489       2.1732      0.00291
    490       2.1839      0.00386
    491       2.1871      0.00408
    492       2.2074      0.00486
    493       2.2122      0.00492
    494       2.2141      0.00493
    495       2.2192      0.00493
    496       2.2211      0.00492
    497       2.2257      0.00488
    498       2.2283      0.00485
    499       2.2339      0.00475
    500       2.2373      0.00467
    501       2.2425      0.00454
    502       2.2463      0.00443
    503       2.2513      0.00427
    504       2.2527      0.00422
    505       2.2622      0.00389
    506       2.2785      0.00329
    507       2.2833      0.00311
    508       2.2863      0.00300
    509       2.2947      0.00269
    510       2.2953      0.00267
    511       2.2980      0.00257
    512       2.3029      0.00240
    513       2.3045      0.00235
    514       2.3099      0.00217
    515       2.3144      0.00203
    516       2.3233      0.00176
    517       2.3324      0.00152
    518       2.3407      0.00131
    519       2.3430      0.00126
    520       2.3570      0.00097
    521       2.3600      0.00092
    522       2.3691      0.00077
    523       2.3702      0.00075
    524       2.3777      0.00065
    525       2.3804      0.00061
    526       2.3873      0.00053
    527       2.3928      0.00047
    528       2.4011      0.00039
    529       2.4084      0.00033
    530       2.4177      0.00027
    531       2.4202      0.00025
    532       2.4261      0.00022
    533       2.4326      0.00019
    534       2.4392      0.00016
    535       2.4421      0.00015
    536       2.4459      0.00013
    537       2.4528      0.00011
    538       2.4714      0.00007
    539       2.4728      0.00007
    540       2.4825      0.00005
    541       2.4863      0.00005
    542       2.5001      0.00003
    543       2.5041      0.00003
    544       2.5125      0.00002
    545       2.5144      0.00002
    546       2.5193      0.00002
    547       2.5198      0.00002
    548       2.5229      0.00002
    549       2.5293      0.00001
    550       2.5305      0.00001
    551       2.5387      0.00001
    552       2.5578      0.00001
    553       2.5594      0.00000
    554       2.5781      0.00000
    555       2.5866      0.00000
    556       2.6151      0.00000
    557       2.6241      0.00000
    558       2.6339      0.00000
    559       2.6441      0.00000
    560       2.6558      0.00000
    561       2.6597      0.00000
    562       2.6625      0.00000
    563       2.6705      0.00000
    564       2.6791      0.00000
    565       2.6838      0.00000
    566       2.6869      0.00000
    567       2.6921      0.00000
    568       2.6944      0.00000
    569       2.6952      0.00000
    570       2.7101      0.00000
    571       2.7171      0.00000
    572       2.7513      0.00000
    573       2.7604      0.00000
    574       2.7660      0.00000
    575       2.7719      0.00000
    576       2.7755      0.00000
    577       2.7848      0.00000
    578       2.7960      0.00000
    579       2.8015      0.00000
    580       2.8055      0.00000
    581       2.8074      0.00000
    582       2.8211      0.00000
    583       2.8259      0.00000
    584       2.8306      0.00000
    585       2.8339      0.00000
    586       2.8380      0.00000
    587       2.8395      0.00000
    588       2.8414      0.00000
    589       2.8460      0.00000
    590       2.8478      0.00000
    591       2.8494      0.00000
    592       2.8501      0.00000
    593       2.8505      0.00000
    594       2.8525      0.00000
    595       2.8589      0.00000
    596       2.8626      0.00000
    597       2.8659      0.00000
    598       2.8693      0.00000
    599       2.8760      0.00000
    600       2.8786      0.00000
    601       2.8801      0.00000
    602       2.8830      0.00000
    603       2.8872      0.00000
    604       2.8893      0.00000
    605       2.8904      0.00000
    606       2.9042      0.00000
    607       2.9168      0.00000
    608       2.9238      0.00000
    609       2.9301      0.00000
    610       2.9332      0.00000
    611       2.9361      0.00000
    612       2.9379      0.00000
    613       2.9415      0.00000
    614       2.9441      0.00000
    615       2.9446      0.00000
    616       2.9478      0.00000
    617       2.9487      0.00000
    618       2.9535      0.00000
    619       2.9546      0.00000
    620       2.9571      0.00000
    621       2.9736      0.00000
    622       2.9773      0.00000
    623       2.9792      0.00000
    624       2.9819      0.00000
    625       2.9837      0.00000
    626       2.9854      0.00000
    627       3.0205      0.00000
    628       3.0224      0.00000
    629       3.0262      0.00000
    630       3.0349      0.00000
    631       3.0355      0.00000
    632       3.0508      0.00000
    633       3.0523      0.00000
    634       3.0535      0.00000
    635       3.0596      0.00000
    636       3.0797      0.00000
    637       3.1027      0.00000
    638       3.1175      0.00000
    639       3.1322      0.00000
    640       3.1560      0.00000
    641       3.1584      0.00000
    642       3.1610      0.00000
    643       3.1767      0.00000
    644       3.2148      0.00000
    645       3.3094      0.00000
    646       3.3237      0.00000
    647       3.3681      0.00000
    648       3.3861      0.00000
    649       3.4026      0.00000
    650       3.4543      0.00000
    651       3.4970      0.00000
    652       3.5912      0.00000
    653       3.6304      0.00000
    654       3.7547      0.00000
    655       3.7993      0.00000
    656       3.9725      0.00000
    657       3.9854      0.00000
    658       4.0633      0.00000
    659       4.0728      0.00000
    660       4.1371      0.00000
    661       4.1403      0.00000
    662       4.1490      0.00000
    663       4.1545      0.00000
    664       4.1576      0.00000
    665       4.1798      0.00000
    666       4.1892      0.00000
    667       4.2932      0.00000
    668       4.3125      0.00000
    669       4.3312      0.00000
    670       4.3484      0.00000
    671       4.4122      0.00000
    672       4.4179      0.00000
    673       4.4277      0.00000
    674       4.4772      0.00000
    675       4.5212      0.00000
    676       4.5468      0.00000
    677       4.6411      0.00000
    678       4.6581      0.00000
    679       4.7168      0.00000
    680       4.7209      0.00000
    681       4.7994      0.00000
    682       4.8395      0.00000
    683       4.8545      0.00000
    684       4.9457      0.00000
    685       4.9502      0.00000
    686       4.9538      0.00000
    687       4.9563      0.00000
    688       4.9682      0.00000
    689       4.9820      0.00000
    690       5.0051      0.00000
    691       5.0130      0.00000
    692       5.0188      0.00000
    693       5.0871      0.00000
    694       5.1368      0.00000
    695       5.1678      0.00000
    696       5.1777      0.00000
    697       5.1894      0.00000
    698       5.1999      0.00000
    699       5.5676      0.00000
    700       5.6872      0.00000
    701       5.6967      0.00000
    702       5.7073      0.00000
    703       5.7266      0.00000
    704       5.7753      0.00000
    705       5.8658      0.00000
    706       6.0580      0.00000
    707       6.0673      0.00000
    708       6.0842      0.00000
    709       6.1221      0.00000
    710       6.1456      0.00000
    711       6.1499      0.00000
    712       6.2154      0.00000
    713       6.2617      0.00000
    714       6.3285      0.00000
    715       6.3644      0.00000
    716       6.4876      0.00000
    717       6.5109      0.00000
    718       6.6107      0.00000
    719       6.7554      0.00000
    720       6.7728      0.00000
    721       6.7943      0.00000
    722       6.8712      0.00000
    723       7.1019      0.00000
    724       7.2662      0.00000
    725       7.3450      0.00000
    726       7.3458      0.00000
    727       7.3870      0.00000
    728       7.6385      0.00000
    729       7.6496      0.00000
    730       7.6573      0.00000
    731       7.6634      0.00000
    732       7.7130      0.00000
    733       7.7170      0.00000
    734       7.7455      0.00000
    735       7.8128      0.00000
    736       7.8677      0.00000


--------------------------------------------------------------------------------------------------------


 soft charge-density along one line, spin component           1
         0         1         2         3         4         5         6         7         8         9
 total charge-density along one line
 
 soft charge-density along one line, spin component           2
         0         1         2         3         4         5         6         7         8         9
 total charge-density along one line
 
 pseudopotential strength for first ion, spin component:           1
 -6.358  -0.003  -0.000  -0.024   0.002  -6.785  -0.003  -0.000
 -0.003  -6.415  -0.004  -0.002  -0.026  -0.003  -6.840  -0.004
 -0.000  -0.004  -6.417  -0.002  -0.007  -0.000  -0.004  -6.842
 -0.024  -0.002  -0.002  -6.426  -0.006  -0.023  -0.002  -0.002
  0.002  -0.026  -0.007  -0.006  -6.372   0.002  -0.025  -0.007
 -6.785  -0.003  -0.000  -0.023   0.002  -7.159  -0.003  -0.000
 -0.003  -6.840  -0.004  -0.002  -0.025  -0.003  -7.213  -0.004
 -0.000  -0.004  -6.842  -0.002  -0.007  -0.000  -0.004  -7.215
 -0.023  -0.002  -0.002  -6.850  -0.006  -0.022  -0.002  -0.002
  0.002  -0.025  -0.007  -0.006  -6.798   0.001  -0.024  -0.006
  0.000   0.000   0.005   0.001  -0.000   0.000   0.000   0.005
  0.001   0.000   0.009   0.002  -0.001   0.001   0.000   0.009
 -0.000  -0.001  -0.000  -0.000  -0.001  -0.000  -0.001  -0.000
 -0.000   0.000   0.007  -0.000   0.000  -0.000   0.000   0.007
 -0.000  -0.000   0.000  -0.001  -0.000  -0.000  -0.000   0.000
 -0.000   0.001  -0.000  -0.000  -0.002  -0.000   0.001  -0.000
 -0.000   0.000   0.011  -0.000   0.000  -0.000   0.000   0.011
 -0.000  -0.000   0.000   0.001  -0.000  -0.000  -0.000   0.000
 pseudopotential strength for first ion, spin component:           2
 -4.994  -0.004  -0.003   0.020  -0.001  -5.479  -0.004  -0.003
 -0.004  -4.976   0.003   0.002   0.021  -0.004  -5.461   0.003
 -0.003   0.003  -4.999  -0.002   0.010  -0.003   0.003  -5.483
  0.020   0.002  -0.002  -4.974  -0.002   0.019   0.002  -0.002
 -0.001   0.021   0.010  -0.002  -4.995  -0.001   0.021   0.010
 -5.479  -0.004  -0.003   0.019  -0.001  -5.910  -0.004  -0.003
 -0.004  -5.461   0.003   0.002   0.021  -0.004  -5.892   0.003
 -0.003   0.003  -5.483  -0.002   0.010  -0.003   0.003  -5.914
  0.019   0.002  -0.002  -5.459  -0.001   0.019   0.002  -0.002
 -0.001   0.021   0.010  -0.001  -5.480  -0.001   0.020   0.009
 -0.001  -0.000  -0.002   0.001   0.001  -0.001  -0.000  -0.002
 -0.001  -0.000  -0.003   0.001   0.002  -0.001  -0.000  -0.003
 -0.000  -0.006  -0.000   0.000  -0.000  -0.000  -0.006  -0.000
  0.000   0.000  -0.009  -0.000  -0.000   0.000   0.000  -0.008
  0.000   0.000   0.000  -0.006  -0.000   0.000   0.000   0.000
 -0.000  -0.006  -0.000   0.000   0.000  -0.000  -0.005  -0.000
  0.000   0.000  -0.010  -0.000  -0.000   0.000   0.000  -0.010
  0.001   0.000   0.000  -0.006  -0.000   0.001   0.000   0.000
 total augmentation occupancy for first ion, spin component:           1
  2.701  -0.007  -0.037   0.054  -0.010  -1.327   0.006   0.027  -0.031   0.011   0.001   0.000  -0.000   0.004   0.024   0.000
 -0.007   2.734  -0.005  -0.002   0.053   0.007  -1.164  -0.002  -0.001  -0.034  -0.003  -0.001  -0.180  -0.001  -0.000   0.009
 -0.037  -0.005   2.818  -0.004   0.046   0.027  -0.002  -1.311   0.003  -0.038   0.339   0.018  -0.003  -0.121   0.001   0.000
  0.054  -0.002  -0.004   2.713  -0.008  -0.032  -0.001   0.003  -1.158   0.004   0.000   0.001  -0.002  -0.000  -0.178   0.000
 -0.010   0.053   0.046  -0.008   2.516   0.011  -0.033  -0.037   0.004  -1.208  -0.039  -0.007   0.026  -0.005  -0.001  -0.001
 -1.327   0.007   0.027  -0.032   0.011   1.529  -0.006  -0.021  -0.018  -0.009  -0.001  -0.000   0.000  -0.003  -0.032  -0.000
  0.006  -1.164  -0.002  -0.001  -0.033  -0.006   1.135   0.003   0.001  -0.016   0.002   0.000   0.190   0.001   0.001  -0.021
  0.027  -0.002  -1.311   0.003  -0.037  -0.021   0.003   1.357  -0.002   0.024  -0.430   0.018   0.001   0.232  -0.001  -0.000
 -0.031  -0.001   0.003  -1.158   0.004  -0.018   0.001  -0.002   1.133  -0.004  -0.001  -0.001   0.001   0.000   0.190  -0.000
  0.011  -0.034  -0.038   0.004  -1.208  -0.009  -0.016   0.024  -0.004   1.445   0.029   0.006  -0.034   0.004   0.001   0.002
  0.001  -0.003   0.339   0.000  -0.039  -0.001   0.002  -0.430  -0.001   0.029   2.052  -0.192  -0.001   0.189  -0.000   0.000
  0.000  -0.001   0.018   0.001  -0.007  -0.000   0.000   0.018  -0.001   0.006  -0.192   0.028  -0.000  -0.033  -0.000  -0.000
 -0.000  -0.180  -0.003  -0.002   0.026   0.000   0.190   0.001   0.001  -0.034  -0.001  -0.000   0.268   0.000   0.000  -0.024
  0.004  -0.001  -0.121  -0.000  -0.005  -0.003   0.001   0.232   0.000   0.004   0.189  -0.033   0.000   0.174   0.001  -0.000
  0.024  -0.000   0.001  -0.178  -0.001  -0.032   0.001  -0.001   0.190   0.001  -0.000  -0.000   0.000   0.001   0.259   0.000
  0.000   0.009   0.000   0.000  -0.001  -0.000  -0.021  -0.000  -0.000   0.002   0.000  -0.000  -0.024  -0.000   0.000   0.002
  0.000   0.000  -0.008   0.000   0.000  -0.000  -0.000  -0.015   0.000  -0.000  -0.031   0.004  -0.000  -0.017   0.000  -0.000
 -0.001   0.000  -0.000   0.008   0.000   0.002  -0.000   0.000  -0.021   0.000  -0.000  -0.000   0.000   0.000  -0.023   0.000
 total augmentation occupancy for first ion, spin component:           2
  2.008  -0.008  -0.038   0.059  -0.016  -0.950   0.005   0.028  -0.015   0.012  -0.002   0.000  -0.001   0.004   0.003   0.000
 -0.008   2.011   0.015   0.007   0.068   0.005  -0.914  -0.006  -0.002  -0.019  -0.005  -0.001   0.003   0.000  -0.002  -0.009
 -0.038   0.015   2.031  -0.002   0.063   0.027  -0.006  -0.940   0.002  -0.035   0.023   0.050   0.003  -0.049  -0.000  -0.000
  0.059   0.007  -0.002   2.023   0.004  -0.015  -0.002   0.002  -0.914  -0.000   0.002   0.002  -0.000  -0.000   0.002  -0.000
 -0.016   0.068   0.063   0.004   1.891   0.012  -0.018  -0.035  -0.000  -0.849  -0.022  -0.007   0.005  -0.004  -0.001  -0.000
 -0.950   0.005   0.027  -0.015   0.012   0.248  -0.003  -0.019   0.006  -0.010  -0.000  -0.001   0.000  -0.003   0.002  -0.000
  0.005  -0.914  -0.006  -0.002  -0.018  -0.003   0.245   0.003   0.001   0.007   0.004   0.000  -0.006  -0.001   0.001   0.006
  0.028  -0.006  -0.940   0.002  -0.035  -0.019   0.003   0.259  -0.002   0.021   0.017  -0.031  -0.001  -0.004  -0.000   0.000
 -0.015  -0.002   0.002  -0.914  -0.000   0.006   0.001  -0.002   0.242  -0.000  -0.001  -0.001   0.001   0.000  -0.006   0.000
  0.012  -0.019  -0.035  -0.000  -0.849  -0.010   0.007   0.021  -0.000   0.175   0.016   0.004   0.001   0.002   0.000  -0.000
 -0.002  -0.005   0.023   0.002  -0.022  -0.000   0.004   0.017  -0.001   0.016  -0.275   0.083   0.000  -0.021  -0.001  -0.000
  0.000  -0.001   0.050   0.002  -0.007  -0.001   0.000  -0.031  -0.001   0.004   0.083  -0.011  -0.000   0.006  -0.000   0.000
 -0.001   0.003   0.003  -0.000   0.005   0.000  -0.006  -0.001   0.001   0.001   0.000  -0.000  -0.025   0.000  -0.000   0.004
  0.004   0.000  -0.049  -0.000  -0.004  -0.003  -0.001  -0.004   0.000   0.002  -0.021   0.006   0.000  -0.021   0.001  -0.000
  0.003  -0.002  -0.000   0.002  -0.001   0.002   0.001  -0.000  -0.006   0.000  -0.001  -0.000  -0.000   0.001  -0.031   0.000
  0.000  -0.009  -0.000  -0.000  -0.000  -0.000   0.006   0.000   0.000  -0.000  -0.000   0.000   0.004  -0.000   0.000  -0.000
  0.000   0.000  -0.014   0.000  -0.000  -0.000  -0.000   0.009  -0.000   0.000   0.003  -0.002  -0.000   0.003  -0.000   0.000
  0.000   0.000   0.000  -0.009   0.000  -0.000  -0.000  -0.000   0.006  -0.000   0.000  -0.000   0.000  -0.000   0.004  -0.000


------------------------ aborting loop because EDIFF is reached ----------------------------------------


    CHARGE:  cpu time    1.06: real time    1.06
    FORLOC:  cpu time    0.08: real time    0.08
    FORNL :  cpu time    3.02: real time    3.03
    STRESS:  cpu time    8.80: real time    8.85
    FORCOR:  cpu time    0.39: real time    0.39
    FORHAR:  cpu time    0.11: real time    0.11
    MIXING:  cpu time    0.01: real time    0.01

  FORCE on cell =-STRESS in cart. coord.  units (eV):
  Direction    XX          YY          ZZ          XY          YZ          ZX
  --------------------------------------------------------------------------------------
  Alpha Z  2067.85644  2067.85644  2067.85644
  Ewald  484374.74371484380.95341************    -0.12235     6.96332     6.15147
  Hartree508646.44067508649.22779************     5.01913    -1.38007    -0.43499
  E(xc)   -5564.32277 -5564.09040 -5570.93568    -0.16817     0.43060     0.28191
  Local  ************************************   -14.86045     8.44671     4.36826
  n-local  -668.44479  -629.96625  -703.27800     6.10388     3.09983     2.29573
  augment 18701.08523 18692.64060 18674.48081     4.16457   -10.83073    -8.16534
  Kinetic  9176.40721  9190.71201  9252.48024     3.62162    -8.06980    -4.73891
  Fock        0.00000     0.00000     0.00000     0.00000     0.00000     0.00000
  -------------------------------------------------------------------------------------
  Total     -62.21250   -30.81132   -13.36566     3.75822    -1.34014    -0.24186
  in kB     -33.46806   -16.57537    -7.19024     2.02179    -0.72094    -0.13011
  external pressure =      -19.08 kB  Pullay stress =        0.00 kB


 VOLUME and BASIS-vectors are now :
 -----------------------------------------------------------------------------
  energy-cutoff  :      450.00
  volume of cell :     2978.23
      direct lattice vectors                 reciprocal lattice vectors
     9.956100464  0.000000000  0.000000000     0.100440931  0.057989601  0.000000000
    -7.467050076 12.933309555  0.000000000     0.000000000  0.077319730  0.000000000
     0.000000000  0.000000000 23.129100800     0.000000000  0.000000000  0.043235576

  length of vectors
     9.956100464 14.934099667 23.129100800     0.115979198  0.077319730  0.043235576


 FORCES acting on ions
    electron-ion (+dipol)            ewald-force                    non-local-force                 convergence-correction
 -----------------------------------------------------------------------------------------------
   -.277E-01 0.100E+00 0.306E+04   0.101E-01 -.141E+00 -.306E+04   0.184E-01 0.285E-01 -.135E+01   0.363E-02 0.120E-01 0.161E-02
   -.405E-02 0.114E+00 0.306E+04   -.273E-01 -.157E+00 -.306E+04   0.163E-01 0.464E-01 -.137E+01   0.446E-02 0.888E-02 0.526E-02
   -.159E-01 0.178E+00 0.306E+04   -.152E-02 -.203E+00 -.306E+04   0.225E-01 0.221E-01 -.129E+01   -.330E-02 0.688E-02 0.283E-02
   -.236E-01 0.105E+00 0.306E+04   0.283E-01 -.186E+00 -.306E+04   0.101E-01 0.726E-01 -.126E+01   -.479E-02 0.104E-01 -.137E-03
   -.933E-01 0.160E+00 0.306E+04   0.863E-01 -.191E+00 -.306E+04   0.600E-04 0.401E-01 -.138E+01   0.352E-03 0.344E-02 0.699E-03
   0.246E-01 0.113E+00 0.306E+04   -.315E-01 -.136E+00 -.306E+04   0.138E-01 0.297E-01 -.138E+01   0.203E-02 0.261E-03 0.393E-02
   0.483E-01 0.179E+00 0.306E+04   -.944E-01 -.203E+00 -.306E+04   0.424E-01 0.391E-01 -.139E+01   -.262E-03 -.185E-02 0.558E-02
   -.353E-01 0.265E+00 0.306E+04   0.233E-01 -.258E+00 -.306E+04   0.204E-01 0.444E-02 -.132E+01   -.214E-02 0.110E-02 0.258E-02
   -.152E+00 0.119E+00 0.306E+04   0.129E+00 -.110E+00 -.306E+04   0.175E-01 0.251E-01 -.132E+01   -.153E-02 -.805E-02 -.222E-02
   -.554E-01 0.119E+00 0.306E+04   0.906E-01 -.839E-01 -.306E+04   -.238E-01 -.222E-01 -.132E+01   -.890E-03 -.104E-01 -.234E-02
   0.929E-01 0.679E-01 0.306E+04   -.137E+00 -.888E-01 -.306E+04   0.304E-01 0.587E-01 -.135E+01   0.146E-02 -.960E-02 0.104E-02
   0.533E-01 0.120E+00 0.306E+04   -.817E-01 -.113E+00 -.306E+04   0.273E-01 -.178E-02 -.137E+01   0.974E-03 -.714E-02 0.857E-03
   -.105E+00 -.134E+00 0.306E+04   0.344E-01 0.106E+00 -.306E+04   0.651E-01 0.514E-01 -.140E+01   -.176E-02 -.101E-01 -.493E-02
   -.134E+00 -.890E-01 0.306E+04   0.123E+00 0.407E-01 -.306E+04   0.152E-01 0.673E-01 -.131E+01   -.184E-02 -.885E-02 -.790E-02
   0.170E-02 -.393E-01 0.306E+04   -.321E-01 -.153E-01 -.306E+04   0.336E-01 0.625E-01 -.130E+01   0.248E-03 -.954E-02 -.543E-02
   0.166E+00 -.546E-01 0.306E+04   -.116E+00 0.502E-01 -.306E+04   -.445E-01 0.227E-01 -.131E+01   0.334E-02 -.101E-01 -.123E-02
   0.865E-02 -.380E+00 0.306E+04   -.948E-02 0.321E+00 -.306E+04   0.105E-01 0.622E-01 -.129E+01   0.303E-02 -.369E-03 -.310E-02
   -.698E-01 -.256E+00 0.306E+04   0.309E-01 0.305E+00 -.306E+04   0.314E-01 -.617E-01 -.131E+01   -.205E-02 0.114E-02 -.714E-02
   -.227E-01 -.257E+00 0.306E+04   0.107E-01 0.232E+00 -.306E+04   0.187E-01 0.343E-01 -.130E+01   -.280E-02 -.195E-02 -.861E-02
   0.459E-01 -.245E+00 0.306E+04   -.477E-01 0.252E+00 -.306E+04   -.764E-02 0.825E-02 -.125E+01   0.183E-02 -.317E-02 -.377E-02
   -.426E-01 -.197E+00 0.306E+04   -.421E-02 0.156E+00 -.306E+04   0.394E-01 0.665E-01 -.130E+01   0.700E-02 0.924E-02 0.591E-03
   -.558E-01 -.254E+00 0.306E+04   0.593E-02 0.141E+00 -.306E+04   0.385E-01 0.911E-01 -.139E+01   0.941E-03 0.105E-01 -.135E-02
   0.116E-01 -.144E+00 0.306E+04   0.536E-03 0.130E+00 -.306E+04   -.789E-02 0.306E-01 -.138E+01   -.638E-02 0.970E-02 -.432E-02
   0.258E-01 -.114E+00 0.306E+04   -.113E-02 0.143E+00 -.306E+04   -.145E-01 -.338E-01 -.125E+01   -.157E-02 0.754E-02 -.422E-02
   -.399E-01 0.485E-01 0.155E+04   0.359E-01 -.771E-01 -.155E+04   -.314E-02 0.120E-01 -.468E+00   0.370E-02 0.135E-01 -.401E-02
   0.484E-01 0.348E-01 0.155E+04   -.633E-01 -.716E-01 -.155E+04   0.657E-02 0.704E-02 -.399E+00   0.929E-02 0.138E-01 0.428E-02
   0.271E-01 0.196E+00 0.155E+04   -.823E-02 -.221E+00 -.155E+04   -.153E-02 0.388E-01 -.413E+00   -.271E-02 0.142E-01 0.434E-02
   -.345E-01 0.147E+00 0.155E+04   0.316E-01 -.143E+00 -.155E+04   0.236E-01 0.495E-02 -.433E+00   -.103E-01 0.141E-01 -.379E-02
   -.201E+00 0.596E+00 0.155E+04   0.168E+00 -.641E+00 -.155E+04   0.355E-01 0.444E-01 -.478E+00   -.380E-02 0.437E-02 -.543E-02
   -.109E+00 0.262E+00 0.155E+04   0.118E+00 -.267E+00 -.155E+04   -.243E-01 0.430E-02 -.408E+00   0.805E-02 0.391E-02 -.198E-03
   0.252E+00 0.282E+00 0.155E+04   -.258E+00 -.290E+00 -.155E+04   0.852E-02 0.242E-01 -.423E+00   0.329E-02 -.295E-03 0.550E-02
   0.375E-01 0.620E+00 0.155E+04   -.127E-01 -.662E+00 -.155E+04   -.727E-02 0.484E-01 -.511E+00   -.753E-02 0.173E-02 0.297E-02
   -.104E+00 0.415E+00 0.155E+04   0.975E-01 -.428E+00 -.155E+04   0.167E-01 0.351E-01 -.525E+00   -.652E-02 -.927E-02 -.570E-02
   -.726E+00 0.134E+00 0.155E+04   0.705E+00 -.117E+00 -.155E+04   0.183E-01 0.787E-02 -.449E+00   0.118E-02 -.109E-01 -.874E-02
   0.131E+00 -.211E+00 0.155E+04   -.141E+00 0.191E+00 -.155E+04   0.987E-02 0.611E-01 -.446E+00   0.452E-02 -.137E-01 -.302E-02
   0.710E+00 0.154E+00 0.155E+04   -.679E+00 -.144E+00 -.155E+04   -.260E-01 0.167E-01 -.519E+00   0.817E-03 -.115E-01 0.744E-03
   0.281E+00 -.554E-01 0.155E+04   -.290E+00 0.495E-01 -.155E+04   0.802E-02 0.494E-01 -.537E+00   -.449E-02 -.116E-01 -.663E-02
   -.488E+00 -.638E-01 0.155E+04   0.491E+00 0.717E-01 -.155E+04   0.106E-01 0.256E-01 -.543E+00   -.534E-02 -.132E-01 -.133E-01
   -.521E+00 0.369E+00 0.155E+04   0.499E+00 -.341E+00 -.155E+04   0.204E-01 0.543E-02 -.463E+00   0.315E-02 -.143E-01 -.117E-01
   0.719E+00 0.368E+00 0.155E+04   -.700E+00 -.329E+00 -.155E+04   -.334E-01 -.265E-01 -.466E+00   0.670E-02 -.112E-01 -.346E-02
   0.162E+00 -.416E+00 0.155E+04   -.187E+00 0.393E+00 -.155E+04   0.332E-01 0.385E-01 -.456E+00   0.220E-02 -.594E-02 -.374E-02
   -.940E-01 -.647E+00 0.155E+04   0.115E+00 0.637E+00 -.155E+04   -.423E-02 0.560E-01 -.615E+00   -.628E-02 -.977E-03 -.848E-02
   -.153E+00 -.265E+00 0.155E+04   0.164E+00 0.265E+00 -.155E+04   -.624E-02 0.138E-01 -.482E+00   -.253E-02 -.750E-03 -.128E-01
   0.733E-01 0.570E-01 0.155E+04   -.772E-01 -.730E-01 -.155E+04   -.429E-02 0.332E-01 -.380E+00   0.661E-02 -.513E-02 -.791E-02
   -.349E-02 -.601E+00 0.155E+04   -.289E-01 0.584E+00 -.155E+04   0.195E-01 0.297E-01 -.419E+00   0.768E-02 0.824E-02 -.376E-02
   -.922E-01 -.621E+00 0.155E+04   0.713E-01 0.575E+00 -.155E+04   0.301E-01 0.464E-01 -.444E+00   0.221E-02 0.126E-01 -.201E-02
   0.840E-01 -.531E+00 0.155E+04   -.614E-01 0.508E+00 -.155E+04   -.178E-01 0.384E-02 -.456E+00   -.701E-02 0.141E-01 -.415E-02
   0.186E-01 -.548E+00 0.155E+04   0.344E-02 0.525E+00 -.155E+04   -.157E-01 0.162E-01 -.403E+00   -.288E-02 0.821E-02 -.856E-02
   0.137E+00 0.239E+01 0.230E+02   -.136E+00 -.239E+01 -.230E+02   -.135E-01 -.491E-01 0.334E-01   0.807E-02 0.106E-01 -.208E-02
   0.825E+00 0.153E+01 0.229E+02   -.848E+00 -.146E+01 -.228E+02   -.732E-02 -.838E-01 0.396E-02   0.120E-01 0.661E-02 -.272E-02
   -.267E+00 0.230E+01 0.238E+02   0.268E+00 -.235E+01 -.238E+02   0.517E-02 0.210E-01 0.443E-01   -.494E-02 0.445E-02 -.515E-02
   -.366E+00 0.185E+01 0.219E+02   0.371E+00 -.189E+01 -.220E+02   0.206E-01 0.370E-02 0.132E+00   -.152E-01 0.872E-02 -.419E-02
   -.403E+00 0.190E+01 0.256E+02   0.430E+00 -.191E+01 -.257E+02   -.717E-02 0.193E-01 0.745E-01   -.403E-02 -.770E-02 -.130E-02
   -.122E+01 -.301E+01 0.227E+02   0.119E+01 0.298E+01 -.228E+02   0.314E-01 0.616E-01 0.894E-01   0.846E-02 -.109E-01 0.103E-02
   0.208E+01 -.290E+01 0.235E+02   -.206E+01 0.292E+01 -.235E+02   -.257E-01 0.190E-01 0.927E-01   0.373E-02 -.136E-01 -.330E-02
   -.145E+00 0.173E+01 0.257E+02   0.133E+00 -.170E+01 -.257E+02   0.155E-01 -.163E-01 0.902E-01   -.817E-02 -.983E-02 -.401E-02
   -.197E+00 -.170E+00 0.265E+02   0.204E+00 0.189E+00 -.266E+02   -.631E-02 -.312E-01 0.651E-01   -.116E-01 -.159E-01 -.242E-02
   -.498E+01 0.144E+01 0.238E+02   0.498E+01 -.140E+01 -.238E+02   0.551E-01 -.485E-01 0.994E-01   0.200E-02 -.199E-01 -.149E-02
   0.794E+00 0.114E+01 0.185E+02   -.804E+00 -.114E+01 -.184E+02   -.678E-02 -.130E-01 0.894E-01   0.101E-01 -.166E-01 0.262E-02
   0.476E+01 0.189E+01 0.248E+02   -.476E+01 -.188E+01 -.248E+02   -.525E-01 -.233E-01 0.694E-01   -.514E-03 -.118E-01 0.158E-02
   -.830E+00 -.202E+01 0.261E+02   0.756E+00 0.199E+01 -.261E+02   0.449E-01 0.288E-01 0.666E-01   -.954E-02 -.788E-02 0.138E-02
   0.816E-02 -.168E+01 0.249E+02   0.814E-01 0.162E+01 -.249E+02   -.462E-01 0.129E-01 0.887E-01   -.834E-02 -.353E-02 -.514E-02
   -.223E+01 0.267E+01 0.244E+02   0.220E+01 -.269E+01 -.245E+02   0.354E-01 -.464E-02 0.725E-01   0.831E-02 -.666E-02 -.118E-02
   0.328E+01 0.206E+01 0.250E+02   -.325E+01 -.206E+01 -.250E+02   -.423E-01 -.439E-01 0.321E-01   0.956E-02 -.121E-01 0.368E-02
   -.636E+00 -.239E+01 0.238E+02   0.634E+00 0.237E+01 -.239E+02   -.589E-02 -.121E-01 0.679E-01   0.597E-02 0.395E-02 -.278E-02
   -.367E+00 -.195E+01 0.220E+02   0.381E+00 0.193E+01 -.221E+02   -.957E-02 -.414E-01 0.138E+00   -.504E-02 0.145E-01 -.407E-02
   0.142E+01 -.151E+01 0.239E+02   -.145E+01 0.153E+01 -.239E+02   0.103E-01 -.548E-01 0.658E-01   -.680E-02 0.134E-01 -.233E-02
   -.181E+00 -.214E+01 0.241E+02   0.186E+00 0.211E+01 -.242E+02   -.545E-02 -.403E-02 0.257E-01   0.588E-02 0.313E-02 -.194E-03
   0.303E+00 -.168E+00 0.212E+02   -.308E+00 0.149E+00 -.213E+02   -.122E-01 -.145E-01 0.575E-01   0.120E-01 0.174E-01 -.370E-02
   -.365E+00 0.425E+00 0.217E+02   0.345E+00 -.456E+00 -.217E+02   -.185E-02 0.182E-02 0.151E-01   0.610E-02 0.221E-01 -.513E-02
   0.477E+00 0.165E-01 0.216E+02   -.461E+00 -.278E-01 -.216E+02   0.672E-02 -.161E-01 0.376E-01   -.117E-01 0.183E-01 -.297E-02
   -.379E+00 -.603E+00 0.216E+02   0.382E+00 0.618E+00 -.216E+02   -.310E-02 -.425E-01 0.502E-01   -.646E-02 0.132E-01 -.125E-02
   -.911E-02 0.441E+01 -.150E+04   -.442E-03 -.441E+01 0.150E+04   0.158E-02 -.202E-01 0.465E+00   0.686E-02 0.148E-01 -.457E-02
   -.468E+00 0.517E+01 -.150E+04   0.449E+00 -.521E+01 0.150E+04   0.163E-01 0.296E-01 0.467E+00   0.186E-02 0.110E-01 -.166E-01
   -.101E+01 0.309E+01 -.150E+04   0.108E+01 -.306E+01 0.150E+04   -.626E-01 -.323E-01 0.400E+00   -.754E-02 0.844E-02 -.131E-01
   0.625E+00 0.274E+01 -.150E+04   -.649E+00 -.269E+01 0.150E+04   0.266E-01 -.610E-01 0.402E+00   -.122E-02 0.106E-01 -.108E-02
   0.173E+01 0.819E+01 -.149E+04   -.177E+01 -.818E+01 0.148E+04   0.294E-01 -.183E-01 0.445E+00   0.725E-02 0.657E-02 0.675E-02
   0.150E+00 0.469E+01 -.149E+04   -.140E+00 -.431E+01 0.149E+04   -.640E-02 -.388E+00 0.679E-01   -.196E-02 0.338E-02 -.190E-02
   -.195E+01 0.862E+01 -.149E+04   0.200E+01 -.863E+01 0.148E+04   -.425E-01 0.825E-02 0.443E+00   -.256E-02 -.174E-02 -.141E-01
   -.376E+00 0.686E+01 -.150E+04   0.369E+00 -.692E+01 0.150E+04   0.895E-02 0.571E-01 0.514E+00   -.271E-02 0.209E-02 -.526E-02
   0.292E+01 0.776E+00 -.148E+04   -.284E+01 -.748E+00 0.148E+04   -.852E-01 -.157E-01 0.412E+00   0.271E-02 -.146E-01 0.130E-01
   -.406E+00 0.435E+00 -.149E+04   0.421E+00 -.414E+00 0.149E+04   -.228E-01 -.903E-02 0.471E+00   0.713E-02 -.154E-01 0.201E-01
   0.941E+00 0.160E+01 -.150E+04   -.983E+00 -.155E+01 0.150E+04   0.453E-01 -.501E-01 0.536E+00   -.331E-02 -.227E-04 0.123E-01
   -.372E+01 0.160E+01 -.148E+04   0.369E+01 -.160E+01 0.148E+04   0.397E-01 0.105E-01 0.468E+00   -.687E-02 -.564E-02 -.281E-02
   -.153E+01 -.410E+01 -.149E+04   0.161E+01 0.417E+01 0.149E+04   -.629E-01 -.636E-01 0.571E+00   -.126E-01 -.103E-01 0.759E-02
   -.365E+00 -.172E+01 -.148E+04   0.636E+00 0.156E+01 0.148E+04   -.278E+00 0.175E+00 0.186E-01   0.549E-02 -.162E-01 0.190E-01
   0.969E+00 -.337E+00 -.149E+04   -.969E+00 0.299E+00 0.149E+04   -.172E-01 0.535E-01 0.417E+00   0.157E-01 -.151E-01 0.226E-01
   0.460E+00 -.178E+01 -.148E+04   -.775E+00 0.161E+01 0.148E+04   0.320E+00 0.181E+00 0.188E-01   -.864E-02 -.108E-01 0.918E-02
   -.390E+01 -.682E+01 -.150E+04   0.390E+01 0.684E+01 0.150E+04   0.387E-02 -.790E-02 0.476E+00   -.630E-02 -.586E-02 0.130E-02
   0.280E+01 -.666E+01 -.150E+04   -.277E+01 0.667E+01 0.150E+04   -.181E-01 -.166E-01 0.447E+00   -.479E-02 0.466E-02 0.409E-02
   0.274E+01 -.816E+01 -.149E+04   -.276E+01 0.815E+01 0.149E+04   0.159E-01 0.105E-01 0.471E+00   0.747E-02 0.161E-02 0.139E-01
   -.197E+01 -.958E+01 -.149E+04   0.196E+01 0.959E+01 0.149E+04   -.104E-02 -.765E-02 0.488E+00   0.359E-02 -.119E-01 0.920E-02
   -.606E+00 -.295E+01 -.150E+04   0.606E+00 0.298E+01 0.150E+04   -.589E-02 -.435E-01 0.411E+00   0.380E-02 0.106E-01 -.439E-02
   0.314E+00 -.934E+00 -.151E+04   -.298E+00 0.951E+00 0.151E+04   -.112E-01 -.330E-01 0.406E+00   -.201E-02 0.160E-01 -.101E-01
   0.137E+01 -.342E+01 -.150E+04   -.138E+01 0.350E+01 0.150E+04   0.196E-01 -.896E-01 0.363E+00   -.245E-02 0.115E-01 -.166E-02
   -.851E+00 -.409E+01 -.150E+04   0.854E+00 0.413E+01 0.150E+04   -.416E-02 -.472E-01 0.448E+00   0.647E-03 0.683E-02 0.602E-02
   0.156E+01 0.232E+01 -.307E+04   -.153E+01 -.219E+01 0.307E+04   -.273E-01 -.139E+00 0.142E+01   0.185E-02 0.686E-02 0.223E-02
   -.233E+01 0.841E+01 -.306E+04   0.229E+01 -.845E+01 0.306E+04   0.449E-01 0.284E-01 0.133E+01   -.122E-02 0.103E-01 -.181E-02
   0.108E+01 0.497E+01 -.307E+04   -.103E+01 -.497E+01 0.307E+04   -.500E-01 -.131E-01 0.140E+01   -.102E-02 0.887E-02 -.349E-02
   0.121E+00 0.155E+01 -.307E+04   -.877E-01 -.154E+01 0.307E+04   -.355E-01 -.183E-01 0.142E+01   0.373E-03 0.573E-02 -.792E-03
   0.727E+01 0.137E+02 -.306E+04   -.726E+01 -.136E+02 0.306E+04   -.159E-01 -.942E-01 0.141E+01   0.792E-02 0.137E-01 -.101E-02
   0.117E+02 0.335E+02 -.305E+04   -.116E+02 -.334E+02 0.304E+04   -.890E-01 -.147E+00 0.145E+01   -.842E-03 0.196E-01 -.210E-02
   -.136E+02 0.328E+02 -.304E+04   0.136E+02 -.327E+02 0.304E+04   0.937E-01 -.127E+00 0.144E+01   -.771E-02 0.111E-01 -.452E-02
   -.506E+01 0.145E+02 -.306E+04   0.511E+01 -.144E+02 0.306E+04   -.511E-01 -.513E-01 0.139E+01   0.533E-03 0.456E-02 -.379E-02
   0.277E+00 0.115E+02 -.306E+04   -.267E+00 -.114E+02 0.305E+04   -.218E-01 -.123E+00 0.127E+01   0.947E-02 -.603E-03 -.137E-04
   0.354E+02 0.239E+02 -.303E+04   -.361E+02 -.243E+02 0.302E+04   0.712E+00 0.419E+00 0.211E+01   0.114E-01 0.878E-03 0.322E-02
   -.368E+01 0.149E+03 -.296E+04   0.371E+01 -.150E+03 0.296E+04   -.226E-01 0.111E+01 0.827E+00   -.544E-02 0.128E-01 0.237E-02
   -.313E+02 0.235E+02 -.303E+04   0.321E+02 -.239E+02 0.303E+04   -.781E+00 0.426E+00 0.206E+01   -.147E-01 0.111E-01 0.127E-02
   -.266E+02 -.808E+01 -.304E+04   0.265E+02 0.817E+01 0.304E+04   0.129E+00 -.884E-01 0.147E+01   -.138E-01 -.505E-02 0.163E-02
   0.257E+02 -.974E+01 -.304E+04   -.256E+02 0.985E+01 0.304E+04   -.144E+00 -.989E-01 0.149E+01   0.877E-02 -.144E-01 0.104E-01
   0.127E+03 -.772E+02 -.296E+04   -.128E+03 0.779E+02 0.296E+04   0.885E+00 -.569E+00 0.844E+00   0.150E-01 -.172E-01 0.102E-01
   -.122E+03 -.707E+02 -.296E+04   0.122E+03 0.713E+02 0.295E+04   -.102E+01 -.618E+00 0.907E+00   -.109E-01 -.940E-02 0.487E-02
   -.204E+02 -.294E+02 -.305E+04   0.204E+02 0.292E+02 0.304E+04   -.439E-01 0.190E+00 0.147E+01   -.113E-01 -.181E-01 0.210E-02
   -.483E+00 -.150E+02 -.307E+04   0.537E+00 0.151E+02 0.307E+04   -.491E-01 -.743E-01 0.143E+01   -.278E-02 -.941E-02 0.737E-02
   0.193E+02 -.289E+02 -.305E+04   -.194E+02 0.288E+02 0.305E+04   0.570E-01 0.132E+00 0.149E+01   0.894E-02 -.112E-01 0.145E-01
   0.119E+01 -.438E+02 -.303E+04   -.117E+01 0.446E+02 0.303E+04   -.234E-01 -.780E+00 0.205E+01   0.494E-02 -.188E-01 0.101E-01
   -.376E+01 -.136E+02 -.306E+04   0.385E+01 0.136E+02 0.306E+04   -.833E-01 0.500E-01 0.134E+01   -.523E-02 -.313E-02 0.549E-02
   -.540E+01 -.499E+01 -.307E+04   0.534E+01 0.492E+01 0.307E+04   0.622E-01 0.590E-01 0.144E+01   -.205E-02 0.794E-03 0.277E-02
   0.495E+01 -.323E+01 -.307E+04   -.488E+01 0.327E+01 0.307E+04   -.740E-01 -.458E-01 0.142E+01   0.246E-02 0.347E-02 0.489E-02
   0.435E+01 -.128E+02 -.306E+04   -.440E+01 0.129E+02 0.306E+04   0.434E-01 -.667E-01 0.132E+01   0.487E-02 -.171E-02 0.579E-02
   -.401E+01 -.122E+01 -.237E+04   0.444E+01 0.157E+01 0.240E+04   -.300E+00 -.346E+00 -.267E+02   0.711E-02 -.904E-03 -.133E-01
 -----------------------------------------------------------------------------------------------
   0.479E+00 0.317E+00 0.244E+02   -.409E-13 -.215E-13 -.236E-10   -.451E+00 -.357E+00 -.243E+02   0.622E-02 0.362E-03 -.487E-01
 
 
 POSITION                                       TOTAL-FORCE (eV/Angst)
 -----------------------------------------------------------------------------------
      1.24451      0.71857      0.00000         0.004035     -0.000407      0.280228
      3.73354      0.71857      0.00000        -0.010889      0.011928      0.291349
      6.22256      0.71857      0.00000         0.001559      0.004894      0.287160
      8.71159      0.71857      0.00000         0.009742      0.002430      0.280044
      0.00006      2.87404      0.00000        -0.006871      0.012945      0.286390
      2.48908      2.87404      0.00000         0.008585      0.007166      0.277664
      4.97812      2.87404      0.00000        -0.004134      0.013371      0.281162
      7.46714      2.87404      0.00000         0.005918      0.012847      0.295849
     -1.24448      5.02963      0.00000        -0.007556      0.026593      0.299934
      1.24455      5.02963      0.00000         0.010170      0.003201      0.272300
      3.73357      5.02963      0.00000        -0.012564      0.028585      0.278142
      6.22260      5.02963      0.00000        -0.000356     -0.000842      0.278566
     -2.48901      7.18523      0.00000        -0.007729      0.014267      0.273667
      0.00001      7.18523      0.00000         0.002225      0.010499      0.263108
      2.48904      7.18523      0.00000         0.003124     -0.001294      0.273339
      4.97806      7.18523      0.00000         0.008259      0.008507      0.277562
     -3.73347      9.34069      0.00000         0.012425      0.003487      0.287545
     -1.24445      9.34069      0.00000        -0.009806     -0.010908      0.286629
      1.24458      9.34069      0.00000         0.003589      0.008387      0.280181
      3.73361      9.34069      0.00000        -0.007900      0.011982      0.294391
     -4.97800     11.49629      0.00000        -0.000693      0.035405      0.292086
     -2.48898     11.49629      0.00000        -0.010753     -0.010736      0.281626
      0.00005     11.49629      0.00000        -0.002422      0.027052      0.296408
      2.48907     11.49629      0.00000         0.008325      0.002989      0.280744
      0.00000      0.00000      2.03235        -0.003666     -0.002754     -0.316939
      2.48903      0.00000      2.03235         0.000617     -0.015591     -0.338755
      4.97805      0.00000      2.03235         0.014366      0.028004     -0.302799
      7.46708      0.00000      2.03235         0.010127      0.023260     -0.321766
     -1.24453      2.15559      2.03235        -0.001542      0.004310     -0.337373
      1.24449      2.15559      2.03235        -0.007147      0.003450     -0.308245
      3.73352      2.15559      2.03235         0.005699      0.016402     -0.312806
      6.22254      2.15559      2.03235         0.009769      0.007942     -0.327905
     -2.48899      4.31106      2.03235         0.003791      0.012789     -0.359571
      0.00003      4.31106      2.03235        -0.002180      0.014408     -0.305278
      2.48906      4.31106      2.03235         0.004060      0.027633     -0.323976
      4.97809      4.31106      2.03235         0.006301      0.015785     -0.323318
     -3.73352      6.46665      2.03235        -0.005514      0.032288     -0.335522
     -1.24450      6.46665      2.03235         0.007570      0.020668     -0.347009
      1.24452      6.46665      2.03235         0.001595      0.019513     -0.299324
      3.73355      6.46665      2.03235        -0.007517      0.001814     -0.327791
     -4.97806      8.62225      2.03235         0.010866      0.010125     -0.319893
     -2.48903      8.62225      2.03235         0.009853      0.044579     -0.392438
     -0.00001      8.62225      2.03235         0.002101      0.012651     -0.313816
      2.48902      8.62225      2.03235        -0.001899      0.012410     -0.311035
     -6.22251     10.77771      2.03235        -0.005546      0.020842     -0.317819
     -3.73349     10.77771      2.03235         0.011110      0.012705     -0.332293
     -1.24447     10.77771      2.03235        -0.002472     -0.005134     -0.324799
      1.24456     10.77771      2.03235         0.003157      0.001566     -0.316529
     -0.00002      1.43702      4.06448        -0.005209     -0.031284      0.013267
      2.48900      1.43702      4.06448        -0.018978     -0.005883      0.074215
      4.97803      1.43702      4.06448         0.000905     -0.026456      0.000661
      7.46706      1.43702      4.06448         0.010164     -0.034977      0.045205
     -1.24456      3.59261      4.06448         0.015723     -0.001432      0.025941
      1.24447      3.59261      4.06448         0.004651      0.020022      0.070684
      3.73349      3.59261      4.06448        -0.004398      0.020393      0.085988
      6.22252      3.59261      4.06448        -0.005338      0.006707      0.021683
     -2.48901      5.74808      4.06448        -0.010699     -0.027823      0.027120
      0.00001      5.74808      4.06448         0.051838     -0.024357      0.060866
      2.48904      5.74808      4.06448        -0.006819     -0.024582      0.159675
      4.97806      5.74808      4.06448        -0.053433     -0.024145      0.063674
     -3.73355      7.90367      4.06448        -0.039250     -0.015093      0.070200
     -1.24452      7.90367      4.06448         0.034732     -0.057239      0.084089
      1.24450      7.90367      4.06448         0.010749     -0.028450      0.054115
      3.73353      7.90367      4.06448        -0.007756     -0.050466      0.054623
     -4.97808     10.05927      4.06448        -0.002544     -0.027089      0.030062
     -2.48906     10.05927      4.06448        -0.000849     -0.046227      0.037150
     -0.00003     10.05927      4.06448        -0.023936     -0.023259      0.005964
      2.48899     10.05927      4.06448         0.005208     -0.026152     -0.000719
     -6.22254     12.21474      4.06448        -0.005160     -0.015008      0.001896
     -3.73352     12.21473      4.06448        -0.016023     -0.006994      0.014917
     -1.24449     12.21474      4.06448         0.010302     -0.008817      0.006087
      1.24453     12.21474      4.06448        -0.006833     -0.013923      0.009814
      1.23648      0.70406      6.11531        -0.001410     -0.002868      0.000425
      3.72983      0.70999      6.10998        -0.001246     -0.003859      0.000260
      6.21753      0.70930      6.11353        -0.001412     -0.001765     -0.002506
      8.70520      0.70326      6.11610         0.001326      0.000110      0.000486
     -0.00607      2.85953      6.10711        -0.001803     -0.000945     -0.001414
      2.48362      2.86922      6.11105         0.001627      0.000515      0.001755
      4.97191      2.86656      6.10463         0.001297     -0.001392      0.000343
      7.46259      2.86500      6.11516        -0.000417     -0.002542      0.004591
     -1.24800      5.02141      6.10679        -0.000222     -0.002356      0.000633
      1.23987      5.02092      6.15200        -0.000933     -0.003268     -0.003176
      3.72739      5.02436      6.14779        -0.000279     -0.002343      0.003113
      6.21461      5.02331      6.10980         0.002137     -0.000912      0.002071
     -2.49488      7.18130      6.11428         0.003210     -0.001447      0.003799
     -0.00555      7.17767      6.11164        -0.001574      0.002156     -0.010517
      2.48496      7.18054      6.14165        -0.001922      0.000850     -0.004892
      4.97809      7.18110      6.10586        -0.004244     -0.001950      0.009318
     -3.73447      9.33846      6.11485         0.001307     -0.001481     -0.003206
     -1.25178      9.33222      6.11847         0.000750     -0.001957      0.001954
      1.23628      9.32996      6.10496         0.004117     -0.002572     -0.003598
      3.73460      9.33112      6.10737        -0.002849     -0.002418      0.000624
     -4.97687     11.48876      6.11358        -0.002645     -0.000568      0.002833
     -2.49040     11.48968      6.11781         0.002173      0.000379      0.001461
     -0.00610     11.48429      6.11047         0.000303     -0.000210      0.003246
      2.48395     11.48433      6.11769        -0.000987     -0.000894      0.002708
      2.48364     12.91697      8.08822        -0.001299     -0.001516     -0.001410
     -4.97871     12.93049      8.08002         0.000425     -0.000198      0.000667
     -2.48642     12.92422      8.08091        -0.002103     -0.004396     -0.000222
     -0.00951     12.91852      8.08324        -0.001984     -0.005209     -0.000938
      8.70385      2.12998      8.08148         0.001100      0.001183     -0.000300
      1.23892      2.13717      8.07506        -0.000962     -0.002666     -0.000032
      3.72800      2.14120      8.07294         0.000257      0.003307      0.001763
      6.22552      2.13873      8.07849        -0.003473     -0.003510      0.002362
      7.46435      4.30874      8.07190        -0.002576     -0.003244     -0.000257
     -0.03950      4.27226      8.07126        -0.004538     -0.006513      0.000271
      2.47570      4.26450      8.18900         0.001668     -0.005420     -0.007245
      5.01035      4.27504      8.07274        -0.001204     -0.000852     -0.000034
      6.21863      6.45567      8.07134         0.001941     -0.003534      0.001074
     -1.24558      6.44994      8.07267        -0.004229     -0.004114     -0.001698
      1.21755      6.47526      8.18409        -0.056878      0.036505     -0.047614
      3.76831      6.49238      8.17540        -0.061367     -0.041026      0.044382
     -4.97762      8.62380      8.07209         0.002493      0.001067      0.001238
     -2.49280      8.60420      8.08460         0.001265      0.000491      0.000614
     -0.00615      8.61463      8.07440        -0.000045      0.001702     -0.001689
      2.48562      8.66946      8.06865         0.002462      0.001950     -0.001149
     -6.21642     10.78264      8.07882         0.001344     -0.002871     -0.001606
     -3.73581     10.77549      8.08537        -0.000731     -0.001093     -0.000052
     -1.24774     10.77154      8.08334        -0.001095     -0.000840      0.002293
      1.23307     10.77875      8.07680        -0.001621      0.000543     -0.000128
      2.49135      5.73795      9.32935         0.138016      0.002512      0.003149
 -----------------------------------------------------------------------------------
    total drift:                                0.034927     -0.040375      0.051228


--------------------------------------------------------------------------------------------------------



  FREE ENERGIE OF THE ION-ELECTRON SYSTEM (eV)
  ---------------------------------------------------
  free  energy   TOTEN  =      -817.087473 eV

  energy  without entropy=     -816.840053  energy(sigma->0) =     -817.025618
 
 d Force = 0.2531192E-04[-0.552E-02, 0.557E-02]  d Energy = 0.6164995E-04-0.363E-04
 d Force =-0.9225649E-01[-0.178E+00,-0.683E-02]  d Ewald  =-0.9224071E-01-0.158E-04


--------------------------------------------------------------------------------------------------------


    POTLOK:  cpu time    0.44: real time    0.45


--------------------------------------------------------------------------------------------------------


 stress matrix after NEB project (eV)
    -62.21250      3.75789     -0.24186
      3.75822    -30.81132     -1.34048
     -0.24195     -1.34014    -13.36566
  FORCES: max atom, RMS     0.138075    0.012552
  FORCE total and by dimension    0.138075    0.138016
  Stress total and by dimension   70.924818   62.212503
 Finite differences progress:
  Degree of freedom:   1/  3
  Displacement:        2/  2
  Total:               2/  6
  LATTYP: Found a simple monoclinic cell.
 ALAT       =    17.9486009422
 B/A-ratio  =     1.2886297308
 C/A-ratio  =     1.4411545266
 COS(beta)  =    -0.9607691321
  
  Lattice vectors:
  
 A1 = ( -12.4451508522, -12.9333095551,   0.0000000000)
 A2 = (   0.0000000000,   0.0000000000, -23.1291007996)
 A3 = (  22.4012513161,  12.9333095551,   0.0000000000)
 Subroutine PRICEL returns:
 Original cell was already a primitive cell.
 

Analysis of symmetry for initial positions (statically):

 Routine SETGRP: Setting up the symmetry group for a 
 simple monoclinic supercell.


 Subroutine GETGRP returns: Found  1 space group operations
 (whereof  1 operations were pure point group operations)
 out of a pool of  4 trial point group operations.


The static configuration has the point symmetry C_1 .

Analysis of symmetry for dynamics (positions and initial velocities):

 Subroutine DYNSYM returns: Found  1 space group operations
 (whereof  1 operations were pure point group operations)
 out of a pool of  1 trial space group operations
 (whereof  1 operations were pure point group operations)
 and found also     1 'primitive' translations


The dynamic configuration has the point symmetry C_1 .

Analysis of constrained symmetry for selective dynamics:

 Subroutine DYNSYM returns: Found  1 space group operations
 (whereof  1 operations were pure point group operations)
 out of a pool of  1 trial space group operations
 (whereof  1 operations were pure point group operations)
 and found also     1 'primitive' translations


The constrained configuration has the point symmetry C_1 .

Analysis of magnetic symmetry:

 Subroutine MAGSYM returns: Found  1 space group operations
 (whereof  1 operations were pure point group operations)
 out of a pool of  1 trial space group operations
 (whereof  1 operations were pure point group operations)
 and found also     1 'primitive' translations


The magnetic configuration has the point symmetry C_1 .
 
 KPOINTS: k-points                                

Automatic generation of k-mesh.
 
 Subroutine IBZKPT returns following result:
 ===========================================
 
 Found      1 irreducible k-points:
 
 Following reciprocal coordinates:
            Coordinates               Weight
  0.000000  0.000000  0.000000      1.000000
 
 Following cartesian coordinates:
            Coordinates               Weight
  0.000000  0.000000  0.000000      1.000000
 
    WAVPRE:  cpu time    0.07: real time    0.07
    FEWALD:  cpu time    0.07: real time    0.07
    ORTHCH:  cpu time    2.54: real time    2.56
     LOOP+:  cpu time  253.08: real time  255.16


----------------------------------------- Iteration    4(   1)  ---------------------------------------


    POTLOK:  cpu time    0.37: real time    0.37
    SETDIJ:  cpu time    0.06: real time    0.06
     EDDAV:  cpu time   20.72: real time   20.94
       DOS:  cpu time    0.00: real time    0.00
    CHARGE:  cpu time    1.02: real time    1.06
    MIXING:  cpu time    0.01: real time    0.01
    --------------------------------------------
      LOOP:  cpu time   22.17: real time   22.43

 eigenvalue-minimisations  :  2944
 total energy-change (2. order) : 0.6462168E-02  (-0.4392790E+00)
 number of electron    1085.9999552 magnetization     202.1185522
 augmentation part      617.2999648 magnetization     179.6373440

 Broyden mixing:
  rms(total) = 0.39436E-01    rms(broyden)= 0.39406E-01
  rms(prec ) = 0.39992E-01
  weight for this iteration     100.00

 Free energy of the ion-electron system (eV)
  ---------------------------------------------------
  alpha Z        PSCENC =      2067.85644204
  Ewald energy   TEWEN  =    423773.20222880
  -1/2 Hartree   DENC   =   -519602.03851877
  -exchange  EXHF       =         0.00000000
  -V(xc)+E(xc)   XCENC  =      1982.15029982
  PAW double counting   =    106757.45456690  -113112.73225679
  entropy T*S    EENTRO =        -0.24697928
  eigenvalues    EBANDS =      -718.67944082
  atomic energy  EATOM  =     98035.95264826
  ---------------------------------------------------
  free energy    TOTEN  =      -817.08100984 eV

  energy without entropy =     -816.83403056  energy(sigma->0) =     -817.01926502


--------------------------------------------------------------------------------------------------------




----------------------------------------- Iteration    4(   2)  ---------------------------------------


    POTLOK:  cpu time    0.35: real time    0.35
    SETDIJ:  cpu time    0.05: real time    0.05
    EDDIAG:  cpu time    4.37: real time    4.40
  RMM-DIIS:  cpu time    7.21: real time    7.25
    ORTHCH:  cpu time    1.94: real time    1.94
       DOS:  cpu time    0.00: real time    0.00
    CHARGE:  cpu time    1.05: real time    1.05
    MIXING:  cpu time    0.01: real time    0.01
    --------------------------------------------
      LOOP:  cpu time   14.98: real time   15.06

 eigenvalue-minimisations  :  2961
 total energy-change (2. order) :-0.8970486E-02  (-0.6911835E-02)
 number of electron    1085.9999552 magnetization     202.1185644
 augmentation part      617.3009488 magnetization     179.6445767

 Broyden mixing:
  rms(total) = 0.88198E-01    rms(broyden)= 0.88194E-01
  rms(prec ) = 0.95068E-01
  weight for this iteration     100.00

 eigenvalues of (default mixing * dielectric matrix)
  average eigenvalue GAMMA=   0.0656
  0.0656

 Free energy of the ion-electron system (eV)
  ---------------------------------------------------
  alpha Z        PSCENC =      2067.85644204
  Ewald energy   TEWEN  =    423773.20222880
  -1/2 Hartree   DENC   =   -519601.78909810
  -exchange  EXHF       =         0.00000000
  -V(xc)+E(xc)   XCENC  =      1982.15855232
  PAW double counting   =    106757.27966592  -113112.56058752
  entropy T*S    EENTRO =        -0.24689966
  eigenvalues    EBANDS =      -718.94293239
  atomic energy  EATOM  =     98035.95264826
  ---------------------------------------------------
  free energy    TOTEN  =      -817.08998033 eV

  energy without entropy =     -816.84308067  energy(sigma->0) =     -817.02825541


--------------------------------------------------------------------------------------------------------




----------------------------------------- Iteration    4(   3)  ---------------------------------------


    POTLOK:  cpu time    0.35: real time    0.35
    SETDIJ:  cpu time    0.05: real time    0.05
    EDDIAG:  cpu time    4.39: real time    4.43
  RMM-DIIS:  cpu time    7.22: real time    7.28
    ORTHCH:  cpu time    1.68: real time    1.68
       DOS:  cpu time    0.00: real time    0.00
    CHARGE:  cpu time    1.04: real time    1.05
    MIXING:  cpu time    0.01: real time    0.01
    --------------------------------------------
      LOOP:  cpu time   14.75: real time   14.86

 eigenvalue-minimisations  :  2960
 total energy-change (2. order) : 0.2427177E-02  (-0.5068776E-03)
 number of electron    1085.9999552 magnetization     202.1202304
 augmentation part      617.2990205 magnetization     179.6391145

 Broyden mixing:
  rms(total) = 0.27270E-01    rms(broyden)= 0.27265E-01
  rms(prec ) = 0.29509E-01
  weight for this iteration     100.00

 eigenvalues of (default mixing * dielectric matrix)
  average eigenvalue GAMMA=   0.4876
  0.8600  0.1151

 Free energy of the ion-electron system (eV)
  ---------------------------------------------------
  alpha Z        PSCENC =      2067.85644204
  Ewald energy   TEWEN  =    423773.20222880
  -1/2 Hartree   DENC   =   -519601.97471937
  -exchange  EXHF       =         0.00000000
  -V(xc)+E(xc)   XCENC  =      1982.15708060
  PAW double counting   =    106757.27194054  -113112.55466585
  entropy T*S    EENTRO =        -0.24719725
  eigenvalues    EBANDS =      -718.75131091
  atomic energy  EATOM  =     98035.95264826
  ---------------------------------------------------
  free energy    TOTEN  =      -817.08755315 eV

  energy without entropy =     -816.84035589  energy(sigma->0) =     -817.02575384


--------------------------------------------------------------------------------------------------------




----------------------------------------- Iteration    4(   4)  ---------------------------------------


    POTLOK:  cpu time    0.35: real time    0.35
    SETDIJ:  cpu time    0.05: real time    0.05
    EDDIAG:  cpu time    4.38: real time    4.40
  RMM-DIIS:  cpu time    7.23: real time    7.28
    ORTHCH:  cpu time    1.67: real time    1.68
       DOS:  cpu time    0.00: real time    0.00
    CHARGE:  cpu time    1.05: real time    1.06
    MIXING:  cpu time    0.01: real time    0.01
    --------------------------------------------
      LOOP:  cpu time   14.75: real time   14.84

 eigenvalue-minimisations  :  2972
 total energy-change (2. order) :-0.7158318E-02  (-0.2631911E-03)
 number of electron    1085.9999550 magnetization     202.1205722
 augmentation part      617.3005121 magnetization     179.6539696

 Broyden mixing:
  rms(total) = 0.11428E+00    rms(broyden)= 0.11427E+00
  rms(prec ) = 0.16177E+00
  weight for this iteration     100.00

 eigenvalues of (default mixing * dielectric matrix)
  average eigenvalue GAMMA=   0.4064
  1.0199  0.1208  0.0785

 Free energy of the ion-electron system (eV)
  ---------------------------------------------------
  alpha Z        PSCENC =      2067.85644204
  Ewald energy   TEWEN  =    423773.20222880
  -1/2 Hartree   DENC   =   -519601.75192661
  -exchange  EXHF       =         0.00000000
  -V(xc)+E(xc)   XCENC  =      1982.15866811
  PAW double counting   =    106757.26234065  -113112.54282095
  entropy T*S    EENTRO =        -0.24451536
  eigenvalues    EBANDS =      -718.98777640
  atomic energy  EATOM  =     98035.95264826
  ---------------------------------------------------
  free energy    TOTEN  =      -817.09471147 eV

  energy without entropy =     -816.85019610  energy(sigma->0) =     -817.03358263


--------------------------------------------------------------------------------------------------------




----------------------------------------- Iteration    4(   5)  ---------------------------------------


    POTLOK:  cpu time    0.35: real time    0.35
    SETDIJ:  cpu time    0.05: real time    0.05
    EDDIAG:  cpu time    4.38: real time    4.44
  RMM-DIIS:  cpu time    7.21: real time    7.28
    ORTHCH:  cpu time    1.68: real time    1.68
       DOS:  cpu time    0.00: real time    0.00
    CHARGE:  cpu time    1.05: real time    1.06
    MIXING:  cpu time    0.01: real time    0.01
    --------------------------------------------
      LOOP:  cpu time   14.73: real time   14.88

 eigenvalue-minimisations  :  2968
 total energy-change (2. order) : 0.7073706E-02  (-0.1631120E-03)
 number of electron    1085.9999552 magnetization     202.1213001
 augmentation part      617.2996607 magnetization     179.6413856

 Broyden mixing:
  rms(total) = 0.28955E-01    rms(broyden)= 0.28945E-01
  rms(prec ) = 0.36128E-01
  weight for this iteration     100.00

 eigenvalues of (default mixing * dielectric matrix)
  average eigenvalue GAMMA=   0.4499
  1.2197  0.3971  0.1148  0.0682

 Free energy of the ion-electron system (eV)
  ---------------------------------------------------
  alpha Z        PSCENC =      2067.85644204
  Ewald energy   TEWEN  =    423773.20222880
  -1/2 Hartree   DENC   =   -519601.75959878
  -exchange  EXHF       =         0.00000000
  -V(xc)+E(xc)   XCENC  =      1982.15591728
  PAW double counting   =    106757.20832850  -113112.48837757
  entropy T*S    EENTRO =        -0.24709476
  eigenvalues    EBANDS =      -718.96813153
  atomic energy  EATOM  =     98035.95264826
  ---------------------------------------------------
  free energy    TOTEN  =      -817.08763776 eV

  energy without entropy =     -816.84054300  energy(sigma->0) =     -817.02586407


--------------------------------------------------------------------------------------------------------




----------------------------------------- Iteration    4(   6)  ---------------------------------------


    POTLOK:  cpu time    0.35: real time    0.35
    SETDIJ:  cpu time    0.05: real time    0.05
    EDDIAG:  cpu time    4.33: real time    4.37
  RMM-DIIS:  cpu time    7.13: real time    7.23
    ORTHCH:  cpu time    1.67: real time    1.67
       DOS:  cpu time    0.00: real time    0.00
    CHARGE:  cpu time    1.02: real time    1.06
    MIXING:  cpu time    0.01: real time    0.01
    --------------------------------------------
      LOOP:  cpu time   14.56: real time   14.76

 eigenvalue-minimisations  :  2952
 total energy-change (2. order) :-0.1337910E-02  (-0.1979761E-03)
 number of electron    1085.9999551 magnetization     202.1233971
 augmentation part      617.2989911 magnetization     179.6376831

 Broyden mixing:
  rms(total) = 0.62303E-01    rms(broyden)= 0.62301E-01
  rms(prec ) = 0.71371E-01
  weight for this iteration     100.00

 eigenvalues of (default mixing * dielectric matrix)
  average eigenvalue GAMMA=   0.6249
  2.0568  0.7731  0.1222  0.1059  0.0666

 Free energy of the ion-electron system (eV)
  ---------------------------------------------------
  alpha Z        PSCENC =      2067.85644204
  Ewald energy   TEWEN  =    423773.20222880
  -1/2 Hartree   DENC   =   -519602.59942125
  -exchange  EXHF       =         0.00000000
  -V(xc)+E(xc)   XCENC  =      1982.15478480
  PAW double counting   =    106757.26015814  -113112.54188249
  entropy T*S    EENTRO =        -0.24741555
  eigenvalues    EBANDS =      -718.12651843
  atomic energy  EATOM  =     98035.95264826
  ---------------------------------------------------
  free energy    TOTEN  =      -817.08897567 eV

  energy without entropy =     -816.84156013  energy(sigma->0) =     -817.02712178


--------------------------------------------------------------------------------------------------------




----------------------------------------- Iteration    4(   7)  ---------------------------------------


    POTLOK:  cpu time    0.35: real time    0.35
    SETDIJ:  cpu time    0.05: real time    0.05
    EDDIAG:  cpu time    4.41: real time    4.48
  RMM-DIIS:  cpu time    7.20: real time    7.25
    ORTHCH:  cpu time    1.72: real time    1.72
       DOS:  cpu time    0.00: real time    0.00
    CHARGE:  cpu time    1.07: real time    1.07
    MIXING:  cpu time    0.01: real time    0.01
    --------------------------------------------
      LOOP:  cpu time   14.82: real time   14.94

 eigenvalue-minimisations  :  2960
 total energy-change (2. order) : 0.9886885E-03  (-0.1060541E-03)
 number of electron    1085.9999552 magnetization     202.1236576
 augmentation part      617.3010368 magnetization     179.6477480

 Broyden mixing:
  rms(total) = 0.39646E-01    rms(broyden)= 0.39644E-01
  rms(prec ) = 0.45604E-01
  weight for this iteration     100.00

 eigenvalues of (default mixing * dielectric matrix)
  average eigenvalue GAMMA=   0.5685
  2.1808  0.8083  0.1413  0.0664  0.1109  0.1030

 Free energy of the ion-electron system (eV)
  ---------------------------------------------------
  alpha Z        PSCENC =      2067.85644204
  Ewald energy   TEWEN  =    423773.20222880
  -1/2 Hartree   DENC   =   -519601.49037092
  -exchange  EXHF       =         0.00000000
  -V(xc)+E(xc)   XCENC  =      1982.15901999
  PAW double counting   =    106757.26370386  -113112.54321265
  entropy T*S    EENTRO =        -0.24634874
  eigenvalues    EBANDS =      -719.24209762
  atomic energy  EATOM  =     98035.95264826
  ---------------------------------------------------
  free energy    TOTEN  =      -817.08798698 eV

  energy without entropy =     -816.84163824  energy(sigma->0) =     -817.02639980


--------------------------------------------------------------------------------------------------------




----------------------------------------- Iteration    4(   8)  ---------------------------------------


    POTLOK:  cpu time    0.35: real time    0.37
    SETDIJ:  cpu time    0.05: real time    0.05
    EDDIAG:  cpu time    4.42: real time    4.43
  RMM-DIIS:  cpu time    7.19: real time    7.24
    ORTHCH:  cpu time    1.69: real time    1.69
       DOS:  cpu time    0.00: real time    0.00
    CHARGE:  cpu time    1.06: real time    1.06
    MIXING:  cpu time    0.01: real time    0.01
    --------------------------------------------
      LOOP:  cpu time   14.78: real time   14.86

 eigenvalue-minimisations  :  2958
 total energy-change (2. order) : 0.5611956E-03  (-0.4721889E-04)
 number of electron    1085.9999552 magnetization     202.1241561
 augmentation part      617.3003633 magnetization     179.6447156

 Broyden mixing:
  rms(total) = 0.97817E-02    rms(broyden)= 0.97789E-02
  rms(prec ) = 0.11294E-01
  weight for this iteration     100.00

 eigenvalues of (default mixing * dielectric matrix)
  average eigenvalue GAMMA=   0.5879
  2.2887  0.9043  0.5257  0.0665  0.1261  0.1128  0.0913

 Free energy of the ion-electron system (eV)
  ---------------------------------------------------
  alpha Z        PSCENC =      2067.85644204
  Ewald energy   TEWEN  =    423773.20222880
  -1/2 Hartree   DENC   =   -519601.93132330
  -exchange  EXHF       =         0.00000000
  -V(xc)+E(xc)   XCENC  =      1982.15815263
  PAW double counting   =    106757.30446606  -113112.58722777
  entropy T*S    EENTRO =        -0.24685876
  eigenvalues    EBANDS =      -718.79595375
  atomic energy  EATOM  =     98035.95264826
  ---------------------------------------------------
  free energy    TOTEN  =      -817.08742579 eV

  energy without entropy =     -816.84056703  energy(sigma->0) =     -817.02571110


--------------------------------------------------------------------------------------------------------




----------------------------------------- Iteration    4(   9)  ---------------------------------------


    POTLOK:  cpu time    0.36: real time    0.37
    SETDIJ:  cpu time    0.05: real time    0.05
    EDDIAG:  cpu time    4.49: real time    4.53
  RMM-DIIS:  cpu time    7.26: real time    7.30
    ORTHCH:  cpu time    1.98: real time    1.99
       DOS:  cpu time    0.00: real time    0.00
    CHARGE:  cpu time    1.05: real time    1.06
    MIXING:  cpu time    0.01: real time    0.01
    --------------------------------------------
      LOOP:  cpu time   15.22: real time   15.32

 eigenvalue-minimisations  :  2957
 total energy-change (2. order) :-0.1365426E-03  (-0.1644677E-04)
 number of electron    1085.9999552 magnetization     202.1246738
 augmentation part      617.2989778 magnetization     179.6417410

 Broyden mixing:
  rms(total) = 0.18984E-01    rms(broyden)= 0.18984E-01
  rms(prec ) = 0.21562E-01
  weight for this iteration     100.00

 eigenvalues of (default mixing * dielectric matrix)
  average eigenvalue GAMMA=   0.5640
  2.3522  1.0111  0.6430  0.0665  0.1263  0.1209  0.1035  0.0885

 Free energy of the ion-electron system (eV)
  ---------------------------------------------------
  alpha Z        PSCENC =      2067.85644204
  Ewald energy   TEWEN  =    423773.20222880
  -1/2 Hartree   DENC   =   -519602.12798905
  -exchange  EXHF       =         0.00000000
  -V(xc)+E(xc)   XCENC  =      1982.15692419
  PAW double counting   =    106757.35100009  -113112.63890859
  entropy T*S    EENTRO =        -0.24709337
  eigenvalues    EBANDS =      -718.59281470
  atomic energy  EATOM  =     98035.95264826
  ---------------------------------------------------
  free energy    TOTEN  =      -817.08756233 eV

  energy without entropy =     -816.84046896  energy(sigma->0) =     -817.02578899


--------------------------------------------------------------------------------------------------------




----------------------------------------- Iteration    4(  10)  ---------------------------------------


    POTLOK:  cpu time    0.35: real time    0.35
    SETDIJ:  cpu time    0.05: real time    0.05
    EDDIAG:  cpu time    4.33: real time    4.38
  RMM-DIIS:  cpu time    7.18: real time    7.24
    ORTHCH:  cpu time    1.67: real time    1.67
       DOS:  cpu time    0.00: real time    0.00
    CHARGE:  cpu time    1.06: real time    1.06
    MIXING:  cpu time    0.01: real time    0.01
    --------------------------------------------
      LOOP:  cpu time   14.65: real time   14.77

 eigenvalue-minimisations  :  2948
 total energy-change (2. order) : 0.1316858E-03  (-0.7530286E-05)
 number of electron    1085.9999552 magnetization     202.1248786
 augmentation part      617.2992115 magnetization     179.6448911

 Broyden mixing:
  rms(total) = 0.42105E-02    rms(broyden)= 0.42095E-02
  rms(prec ) = 0.47457E-02
  weight for this iteration     100.00

 eigenvalues of (default mixing * dielectric matrix)
  average eigenvalue GAMMA=   0.5238
  2.3521  1.0267  0.6484  0.1826  0.1364  0.0664  0.1099  0.1041  0.0873

 Free energy of the ion-electron system (eV)
  ---------------------------------------------------
  alpha Z        PSCENC =      2067.85644204
  Ewald energy   TEWEN  =    423773.20222880
  -1/2 Hartree   DENC   =   -519601.87949644
  -exchange  EXHF       =         0.00000000
  -V(xc)+E(xc)   XCENC  =      1982.15726339
  PAW double counting   =    106757.36608200  -113112.65513172
  entropy T*S    EENTRO =        -0.24672183
  eigenvalues    EBANDS =      -718.84074513
  atomic energy  EATOM  =     98035.95264826
  ---------------------------------------------------
  free energy    TOTEN  =      -817.08743064 eV

  energy without entropy =     -816.84070881  energy(sigma->0) =     -817.02575019


--------------------------------------------------------------------------------------------------------




----------------------------------------- Iteration    4(  11)  ---------------------------------------


    POTLOK:  cpu time    0.35: real time    0.35
    SETDIJ:  cpu time    0.05: real time    0.05
    EDDIAG:  cpu time    4.44: real time    4.48
  RMM-DIIS:  cpu time    7.18: real time    7.21
    ORTHCH:  cpu time    1.87: real time    1.88
       DOS:  cpu time    0.00: real time    0.00
    CHARGE:  cpu time    1.06: real time    1.08
    MIXING:  cpu time    0.01: real time    0.01
    --------------------------------------------
      LOOP:  cpu time   14.97: real time   15.08

 eigenvalue-minimisations  :  2938
 total energy-change (2. order) :-0.1669599E-05  (-0.1378932E-05)
 number of electron    1085.9999552 magnetization     202.1259485
 augmentation part      617.2991944 magnetization     179.6449460

 Broyden mixing:
  rms(total) = 0.27576E-02    rms(broyden)= 0.27574E-02
  rms(prec ) = 0.30992E-02
  weight for this iteration     100.00

 eigenvalues of (default mixing * dielectric matrix)
  average eigenvalue GAMMA=   0.5626
  2.3611  1.1618  0.8441  0.6414  0.0665  0.1331  0.1189  0.1120  0.0997  0.0869

 Free energy of the ion-electron system (eV)
  ---------------------------------------------------
  alpha Z        PSCENC =      2067.85644204
  Ewald energy   TEWEN  =    423773.20222880
  -1/2 Hartree   DENC   =   -519601.98475595
  -exchange  EXHF       =         0.00000000
  -V(xc)+E(xc)   XCENC  =      1982.15702111
  PAW double counting   =    106757.37604003  -113112.66435142
  entropy T*S    EENTRO =        -0.24690012
  eigenvalues    EBANDS =      -718.73580506
  atomic energy  EATOM  =     98035.95264826
  ---------------------------------------------------
  free energy    TOTEN  =      -817.08743231 eV

  energy without entropy =     -816.84053219  energy(sigma->0) =     -817.02570728


--------------------------------------------------------------------------------------------------------




----------------------------------------- Iteration    4(  12)  ---------------------------------------


    POTLOK:  cpu time    0.37: real time    0.37
    SETDIJ:  cpu time    0.05: real time    0.05
    EDDIAG:  cpu time    4.38: real time    4.42
  RMM-DIIS:  cpu time    6.61: real time    6.66
    ORTHCH:  cpu time    1.66: real time    1.69
       DOS:  cpu time    0.00: real time    0.00
    CHARGE:  cpu time    1.07: real time    1.07
    MIXING:  cpu time    0.01: real time    0.01
    --------------------------------------------
      LOOP:  cpu time   14.14: real time   14.28

 eigenvalue-minimisations  :  2688
 total energy-change (2. order) :-0.7589930E-05  (-0.6226796E-06)
 number of electron    1085.9999552 magnetization     202.1263371
 augmentation part      617.3001013 magnetization     179.6461003

 Broyden mixing:
  rms(total) = 0.31095E-02    rms(broyden)= 0.31094E-02
  rms(prec ) = 0.34871E-02
  weight for this iteration     100.00

 eigenvalues of (default mixing * dielectric matrix)
  average eigenvalue GAMMA=   0.5416
  2.3678  1.2774  0.9072  0.6456  0.0664  0.1418  0.1418  0.1179  0.1098  0.0952
  0.0869

 Free energy of the ion-electron system (eV)
  ---------------------------------------------------
  alpha Z        PSCENC =      2067.85644204
  Ewald energy   TEWEN  =    423773.20222880
  -1/2 Hartree   DENC   =   -519601.88212703
  -exchange  EXHF       =         0.00000000
  -V(xc)+E(xc)   XCENC  =      1982.15736155
  PAW double counting   =    106757.39364285  -113112.67658501
  entropy T*S    EENTRO =        -0.24675016
  eigenvalues    EBANDS =      -718.84430119
  atomic energy  EATOM  =     98035.95264826
  ---------------------------------------------------
  free energy    TOTEN  =      -817.08743990 eV

  energy without entropy =     -816.84068974  energy(sigma->0) =     -817.02575236


--------------------------------------------------------------------------------------------------------




----------------------------------------- Iteration    4(  13)  ---------------------------------------


    POTLOK:  cpu time    0.36: real time    0.37
    SETDIJ:  cpu time    0.05: real time    0.05
    EDDIAG:  cpu time    4.41: real time    4.46
  RMM-DIIS:  cpu time    6.01: real time    6.10
    ORTHCH:  cpu time    1.68: real time    1.68
       DOS:  cpu time    0.00: real time    0.00
    CHARGE:  cpu time    1.08: real time    1.09
    MIXING:  cpu time    0.01: real time    0.01
    --------------------------------------------
      LOOP:  cpu time   13.61: real time   13.77

 eigenvalue-minimisations  :  2432
 total energy-change (2. order) : 0.1168388E-05  (-0.4383047E-06)
 number of electron    1085.9999552 magnetization     202.1271407
 augmentation part      617.3000625 magnetization     179.6468323

 Broyden mixing:
  rms(total) = 0.14966E-02    rms(broyden)= 0.14965E-02
  rms(prec ) = 0.17287E-02
  weight for this iteration     100.00

 eigenvalues of (default mixing * dielectric matrix)
  average eigenvalue GAMMA=   0.5694
  2.4103  1.4979  0.9593  0.6664  0.5667  0.0665  0.1374  0.1223  0.1150  0.1075
  0.0869  0.0967

 Free energy of the ion-electron system (eV)
  ---------------------------------------------------
  alpha Z        PSCENC =      2067.85644204
  Ewald energy   TEWEN  =    423773.20222880
  -1/2 Hartree   DENC   =   -519601.91275896
  -exchange  EXHF       =         0.00000000
  -V(xc)+E(xc)   XCENC  =      1982.15737178
  PAW double counting   =    106757.40781376  -113112.69079279
  entropy T*S    EENTRO =        -0.24683091
  eigenvalues    EBANDS =      -718.81356071
  atomic energy  EATOM  =     98035.95264826
  ---------------------------------------------------
  free energy    TOTEN  =      -817.08743873 eV

  energy without entropy =     -816.84060782  energy(sigma->0) =     -817.02573101


--------------------------------------------------------------------------------------------------------




----------------------------------------- Iteration    4(  14)  ---------------------------------------


    POTLOK:  cpu time    0.37: real time    0.37
    SETDIJ:  cpu time    0.05: real time    0.05
    EDDIAG:  cpu time    4.41: real time    4.42
  RMM-DIIS:  cpu time    4.42: real time    4.44
    ORTHCH:  cpu time    1.71: real time    1.72
       DOS:  cpu time    0.00: real time    0.00
    CHARGE:  cpu time    1.06: real time    1.06
    MIXING:  cpu time    0.02: real time    0.02
    --------------------------------------------
      LOOP:  cpu time   12.04: real time   12.09

 eigenvalue-minimisations  :  1728
 total energy-change (2. order) :-0.5340145E-05  (-0.2383105E-06)
 number of electron    1085.9999552 magnetization     202.1276072
 augmentation part      617.2995043 magnetization     179.6463884

 Broyden mixing:
  rms(total) = 0.26891E-02    rms(broyden)= 0.26890E-02
  rms(prec ) = 0.31258E-02
  weight for this iteration     100.00

 eigenvalues of (default mixing * dielectric matrix)
  average eigenvalue GAMMA=   0.5627
  2.4520  1.6947  0.9891  0.7215  0.6244  0.0665  0.1370  0.1223  0.1223  0.1091
  0.0869  0.0946  0.0946

 Free energy of the ion-electron system (eV)
  ---------------------------------------------------
  alpha Z        PSCENC =      2067.85644204
  Ewald energy   TEWEN  =    423773.20222880
  -1/2 Hartree   DENC   =   -519601.94014818
  -exchange  EXHF       =         0.00000000
  -V(xc)+E(xc)   XCENC  =      1982.15725255
  PAW double counting   =    106757.44027926  -113112.72671762
  entropy T*S    EENTRO =        -0.24683038
  eigenvalues    EBANDS =      -718.78259881
  atomic energy  EATOM  =     98035.95264826
  ---------------------------------------------------
  free energy    TOTEN  =      -817.08744407 eV

  energy without entropy =     -816.84061370  energy(sigma->0) =     -817.02573648


--------------------------------------------------------------------------------------------------------




----------------------------------------- Iteration    4(  15)  ---------------------------------------


    POTLOK:  cpu time    0.36: real time    0.37
    SETDIJ:  cpu time    0.05: real time    0.05
    EDDIAG:  cpu time    4.42: real time    4.45
  RMM-DIIS:  cpu time    4.16: real time    4.21
    ORTHCH:  cpu time    1.67: real time    1.70
       DOS:  cpu time    0.00: real time    0.00
    CHARGE:  cpu time    1.04: real time    1.04
    MIXING:  cpu time    0.01: real time    0.01
    --------------------------------------------
      LOOP:  cpu time   11.72: real time   11.84

 eigenvalue-minimisations  :  1621
 total energy-change (2. order) : 0.1116685E-05  (-0.1618687E-06)
 number of electron    1085.9999552 magnetization     202.1279343
 augmentation part      617.2993920 magnetization     179.6468297

 Broyden mixing:
  rms(total) = 0.81089E-03    rms(broyden)= 0.81077E-03
  rms(prec ) = 0.90591E-03
  weight for this iteration     100.00

 eigenvalues of (default mixing * dielectric matrix)
  average eigenvalue GAMMA=   0.5530
  2.4764  1.7651  0.9952  0.7540  0.6329  0.2882  0.0665  0.1388  0.1280  0.1123
  0.1097  0.0986  0.0867  0.0890

 Free energy of the ion-electron system (eV)
  ---------------------------------------------------
  alpha Z        PSCENC =      2067.85644204
  Ewald energy   TEWEN  =    423773.20222880
  -1/2 Hartree   DENC   =   -519601.93569577
  -exchange  EXHF       =         0.00000000
  -V(xc)+E(xc)   XCENC  =      1982.15728122
  PAW double counting   =    106757.45477869  -113112.74246364
  entropy T*S    EENTRO =        -0.24684693
  eigenvalues    EBANDS =      -718.78581563
  atomic energy  EATOM  =     98035.95264826
  ---------------------------------------------------
  free energy    TOTEN  =      -817.08744296 eV

  energy without entropy =     -816.84059603  energy(sigma->0) =     -817.02573123


--------------------------------------------------------------------------------------------------------




----------------------------------------- Iteration    4(  16)  ---------------------------------------


    POTLOK:  cpu time    0.36: real time    0.38
    SETDIJ:  cpu time    0.05: real time    0.05
    EDDIAG:  cpu time    4.42: real time    4.44
  RMM-DIIS:  cpu time    3.99: real time    4.07
    ORTHCH:  cpu time    1.69: real time    1.72
       DOS:  cpu time    0.00: real time    0.00
    CHARGE:  cpu time    1.07: real time    1.07
    MIXING:  cpu time    0.02: real time    0.02
    --------------------------------------------
      LOOP:  cpu time   11.60: real time   11.76

 eigenvalue-minimisations  :  1549
 total energy-change (2. order) :-0.1026958E-05  (-0.6102578E-07)
 number of electron    1085.9999552 magnetization     202.1285263
 augmentation part      617.2994408 magnetization     179.6472898

 Broyden mixing:
  rms(total) = 0.98689E-03    rms(broyden)= 0.98686E-03
  rms(prec ) = 0.10957E-02
  weight for this iteration     100.00

 eigenvalues of (default mixing * dielectric matrix)
  average eigenvalue GAMMA=   0.5663
  2.5192  1.8843  0.9895  0.9160  0.6661  0.5731  0.0665  0.1401  0.1290  0.1167
  0.1167  0.1071  0.0971  0.0870  0.0862

 Free energy of the ion-electron system (eV)
  ---------------------------------------------------
  alpha Z        PSCENC =      2067.85644204
  Ewald energy   TEWEN  =    423773.20222880
  -1/2 Hartree   DENC   =   -519601.94199615
  -exchange  EXHF       =         0.00000000
  -V(xc)+E(xc)   XCENC  =      1982.15725835
  PAW double counting   =    106757.45679496  -113112.74386039
  entropy T*S    EENTRO =        -0.24686503
  eigenvalues    EBANDS =      -718.78009483
  atomic energy  EATOM  =     98035.95264826
  ---------------------------------------------------
  free energy    TOTEN  =      -817.08744399 eV

  energy without entropy =     -816.84057895  energy(sigma->0) =     -817.02572773


--------------------------------------------------------------------------------------------------------




----------------------------------------- Iteration    4(  17)  ---------------------------------------


    POTLOK:  cpu time    0.36: real time    0.37
    SETDIJ:  cpu time    0.05: real time    0.05
    EDDIAG:  cpu time    4.40: real time    4.41
  RMM-DIIS:  cpu time    4.05: real time    4.07
    ORTHCH:  cpu time    1.70: real time    1.71
       DOS:  cpu time    0.00: real time    0.00
    --------------------------------------------
      LOOP:  cpu time   10.57: real time   10.61

 eigenvalue-minimisations  :  1557
 total energy-change (2. order) :-0.9874057E-06  (-0.3168549E-07)
 number of electron    1085.9999552 magnetization     202.1285263
 augmentation part      617.2994408 magnetization     179.6472898

 Free energy of the ion-electron system (eV)
  ---------------------------------------------------
  alpha Z        PSCENC =      2067.85644204
  Ewald energy   TEWEN  =    423773.20222880
  -1/2 Hartree   DENC   =   -519601.92149492
  -exchange  EXHF       =         0.00000000
  -V(xc)+E(xc)   XCENC  =      1982.15726119
  PAW double counting   =    106757.45551746  -113112.74106755
  entropy T*S    EENTRO =        -0.24683198
  eigenvalues    EBANDS =      -718.80214827
  atomic energy  EATOM  =     98035.95264826
  ---------------------------------------------------
  free energy    TOTEN  =      -817.08744497 eV

  energy without entropy =     -816.84061300  energy(sigma->0) =     -817.02573698


--------------------------------------------------------------------------------------------------------




 average (electrostatic) potential at core
  the test charge radii are     1.0452  0.7215
  (the norm of the test charge is              1.0000)
       1 -86.7456       2 -86.7450       3 -86.7488       4 -86.7484       5 -86.7463
       6 -86.7464       7 -86.7460       8 -86.7478       9 -86.7452      10 -86.7499
      11 -86.7486      12 -86.7433      13 -86.7429      14 -86.7507      15 -86.7496
      16 -86.7511      17 -86.7465      18 -86.7487      19 -86.7506      20 -86.7470
      21 -86.7466      22 -86.7477      23 -86.7476      24 -86.7506      25 -86.8438
      26 -86.8438      27 -86.8453      28 -86.8494      29 -86.8482      30 -86.8500
      31 -86.8496      32 -86.8496      33 -86.8461      34 -86.8489      35 -86.8456
      36 -86.8483      37 -86.8466      38 -86.8456      39 -86.8461      40 -86.8455
      41 -86.8475      42 -86.8453      43 -86.8483      44 -86.8491      45 -86.8460
      46 -86.8434      47 -86.8456      48 -86.8489      49 -86.8187      50 -86.8217
      51 -86.8218      52 -86.8184      53 -86.8174      54 -86.8178      55 -86.8180
      56 -86.8181      57 -86.8280      58 -86.8134      59 -86.8153      60 -86.8119
      61 -86.8323      62 -86.8298      63 -86.8139      64 -86.8141      65 -86.8268
      66 -86.8219      67 -86.8264      68 -86.8234      69 -86.8169      70 -86.8212
      71 -86.8205      72 -86.8194      73 -86.8591      74 -86.8600      75 -86.8571
      76 -86.8576      77 -86.8549      78 -86.8434      79 -86.8536      80 -86.8477
      81 -86.8583      82 -86.8699      83 -86.8690      84 -86.8579      85 -86.8612
      86 -86.8370      87 -86.8670      88 -86.8394      89 -86.8627      90 -86.8613
      91 -86.8557      92 -86.8595      93 -86.8587      94 -86.8646      95 -86.8604
      96 -86.8564      97 -86.7536      98 -86.7540      99 -86.7504     100 -86.7585
     101 -86.7516     102 -86.7642     103 -86.7659     104 -86.7545     105 -86.7433
     106 -86.7595     107 -86.8949     108 -86.7571     109 -86.7539     110 -86.7562
     111 -86.8966     112 -86.8979     113 -86.7564     114 -86.7531     115 -86.7589
     116 -86.7543     117 -86.7506     118 -86.7469     119 -86.7483     120 -86.7526
     121 -74.3049
 
 
 
 E-fermi :   1.8128     XC(G=0):  -6.7349     alpha+bet : -7.7752


 spin component 1

 k-point   1 :       0.0000    0.0000    0.0000
  band No.  band energies     occupation 
      1     -17.1815      1.00000
      2      -6.8713      1.00000
      3      -5.9888      1.00000
      4      -5.9470      1.00000
      5      -5.9318      1.00000
      6      -5.3034      1.00000
      7      -5.2939      1.00000
      8      -5.1274      1.00000
      9      -5.1041      1.00000
     10      -4.9248      1.00000
     11      -4.9153      1.00000
     12      -4.6844      1.00000
     13      -4.5630      1.00000
     14      -4.5327      1.00000
     15      -4.2813      1.00000
     16      -4.2368      1.00000
     17      -4.2266      1.00000
     18      -4.2160      1.00000
     19      -4.0310      1.00000
     20      -3.9313      1.00000
     21      -3.8719      1.00000
     22      -3.8647      1.00000
     23      -3.8566      1.00000
     24      -3.7625      1.00000
     25      -3.7451      1.00000
     26      -3.6757      1.00000
     27      -3.6208      1.00000
     28      -3.5616      1.00000
     29      -3.4879      1.00000
     30      -3.4441      1.00000
     31      -3.4170      1.00000
     32      -3.4003      1.00000
     33      -3.3604      1.00000
     34      -3.3439      1.00000
     35      -3.3422      1.00000
     36      -3.3282      1.00000
     37      -3.3108      1.00000
     38      -3.2957      1.00000
     39      -3.2576      1.00000
     40      -3.2370      1.00000
     41      -3.2084      1.00000
     42      -3.2065      1.00000
     43      -3.1955      1.00000
     44      -3.0848      1.00000
     45      -3.0825      1.00000
     46      -3.0631      1.00000
     47      -3.0486      1.00000
     48      -3.0193      1.00000
     49      -3.0074      1.00000
     50      -2.9941      1.00000
     51      -2.9835      1.00000
     52      -2.9724      1.00000
     53      -2.9496      1.00000
     54      -2.9389      1.00000
     55      -2.9344      1.00000
     56      -2.9259      1.00000
     57      -2.9179      1.00000
     58      -2.9103      1.00000
     59      -2.8576      1.00000
     60      -2.8559      1.00000
     61      -2.8514      1.00000
     62      -2.8494      1.00000
     63      -2.8019      1.00000
     64      -2.7927      1.00000
     65      -2.7763      1.00000
     66      -2.7730      1.00000
     67      -2.7498      1.00000
     68      -2.7430      1.00000
     69      -2.7390      1.00000
     70      -2.7341      1.00000
     71      -2.7265      1.00000
     72      -2.7148      1.00000
     73      -2.7012      1.00000
     74      -2.6963      1.00000
     75      -2.6883      1.00000
     76      -2.6753      1.00000
     77      -2.6692      1.00000
     78      -2.6644      1.00000
     79      -2.6615      1.00000
     80      -2.6580      1.00000
     81      -2.6304      1.00000
     82      -2.6269      1.00000
     83      -2.6263      1.00000
     84      -2.6185      1.00000
     85      -2.6169      1.00000
     86      -2.5978      1.00000
     87      -2.5813      1.00000
     88      -2.5675      1.00000
     89      -2.5575      1.00000
     90      -2.5506      1.00000
     91      -2.5239      1.00000
     92      -2.5136      1.00000
     93      -2.5014      1.00000
     94      -2.5003      1.00000
     95      -2.4987      1.00000
     96      -2.4846      1.00000
     97      -2.4838      1.00000
     98      -2.4799      1.00000
     99      -2.4749      1.00000
    100      -2.4628      1.00000
    101      -2.4618      1.00000
    102      -2.4597      1.00000
    103      -2.4536      1.00000
    104      -2.4457      1.00000
    105      -2.4405      1.00000
    106      -2.4310      1.00000
    107      -2.4270      1.00000
    108      -2.4239      1.00000
    109      -2.4178      1.00000
    110      -2.4165      1.00000
    111      -2.4154      1.00000
    112      -2.4067      1.00000
    113      -2.4023      1.00000
    114      -2.4013      1.00000
    115      -2.4003      1.00000
    116      -2.3951      1.00000
    117      -2.3805      1.00000
    118      -2.3541      1.00000
    119      -2.3357      1.00000
    120      -2.2889      1.00000
    121      -2.2778      1.00000
    122      -2.2388      1.00000
    123      -2.2312      1.00000
    124      -2.2249      1.00000
    125      -2.2187      1.00000
    126      -2.2098      1.00000
    127      -2.2061      1.00000
    128      -2.1972      1.00000
    129      -2.1527      1.00000
    130      -2.1503      1.00000
    131      -2.1492      1.00000
    132      -2.1464      1.00000
    133      -2.1444      1.00000
    134      -2.1389      1.00000
    135      -2.1289      1.00000
    136      -2.1117      1.00000
    137      -2.0794      1.00000
    138      -2.0747      1.00000
    139      -2.0711      1.00000
    140      -2.0690      1.00000
    141      -2.0666      1.00000
    142      -2.0550      1.00000
    143      -2.0359      1.00000
    144      -2.0337      1.00000
    145      -2.0211      1.00000
    146      -2.0178      1.00000
    147      -2.0151      1.00000
    148      -2.0105      1.00000
    149      -2.0076      1.00000
    150      -1.9862      1.00000
    151      -1.9804      1.00000
    152      -1.9472      1.00000
    153      -1.9099      1.00000
    154      -1.9037      1.00000
    155      -1.8783      1.00000
    156      -1.8776      1.00000
    157      -1.8756      1.00000
    158      -1.8715      1.00000
    159      -1.8669      1.00000
    160      -1.8580      1.00000
    161      -1.8563      1.00000
    162      -1.8521      1.00000
    163      -1.8500      1.00000
    164      -1.8422      1.00000
    165      -1.8268      1.00000
    166      -1.8204      1.00000
    167      -1.8112      1.00000
    168      -1.7947      1.00000
    169      -1.7896      1.00000
    170      -1.7673      1.00000
    171      -1.7628      1.00000
    172      -1.7601      1.00000
    173      -1.7389      1.00000
    174      -1.7239      1.00000
    175      -1.7176      1.00000
    176      -1.7054      1.00000
    177      -1.6967      1.00000
    178      -1.6934      1.00000
    179      -1.6834      1.00000
    180      -1.6797      1.00000
    181      -1.6741      1.00000
    182      -1.6545      1.00000
    183      -1.6355      1.00000
    184      -1.6348      1.00000
    185      -1.6308      1.00000
    186      -1.6255      1.00000
    187      -1.6103      1.00000
    188      -1.6018      1.00000
    189      -1.5909      1.00000
    190      -1.5590      1.00000
    191      -1.5557      1.00000
    192      -1.5464      1.00000
    193      -1.5452      1.00000
    194      -1.5402      1.00000
    195      -1.5368      1.00000
    196      -1.5322      1.00000
    197      -1.5298      1.00000
    198      -1.5026      1.00000
    199      -1.4960      1.00000
    200      -1.4761      1.00000
    201      -1.4722      1.00000
    202      -1.4700      1.00000
    203      -1.4633      1.00000
    204      -1.4555      1.00000
    205      -1.4528      1.00000
    206      -1.4368      1.00000
    207      -1.4271      1.00000
    208      -1.4243      1.00000
    209      -1.4184      1.00000
    210      -1.4143      1.00000
    211      -1.4064      1.00000
    212      -1.3747      1.00000
    213      -1.3628      1.00000
    214      -1.3590      1.00000
    215      -1.3554      1.00000
    216      -1.3508      1.00000
    217      -1.3472      1.00000
    218      -1.3449      1.00000
    219      -1.3378      1.00000
    220      -1.3249      1.00000
    221      -1.3233      1.00000
    222      -1.3220      1.00000
    223      -1.3152      1.00000
    224      -1.3094      1.00000
    225      -1.2843      1.00000
    226      -1.2808      1.00000
    227      -1.2479      1.00000
    228      -1.2442      1.00000
    229      -1.2398      1.00000
    230      -1.2338      1.00000
    231      -1.2141      1.00000
    232      -1.2058      1.00000
    233      -1.1784      1.00000
    234      -1.1753      1.00000
    235      -1.1532      1.00000
    236      -1.1341      1.00000
    237      -1.1330      1.00000
    238      -1.1266      1.00000
    239      -1.1163      1.00000
    240      -1.1122      1.00000
    241      -1.1115      1.00000
    242      -1.1081      1.00000
    243      -1.1055      1.00000
    244      -1.0919      1.00000
    245      -1.0899      1.00000
    246      -1.0840      1.00000
    247      -1.0775      1.00000
    248      -1.0771      1.00000
    249      -1.0768      1.00000
    250      -1.0713      1.00000
    251      -1.0664      1.00000
    252      -1.0485      1.00000
    253      -1.0430      1.00000
    254      -1.0430      1.00000
    255      -1.0386      1.00000
    256      -1.0352      1.00000
    257      -1.0300      1.00000
    258      -1.0222      1.00000
    259      -1.0176      1.00000
    260      -1.0153      1.00000
    261      -1.0030      1.00000
    262      -0.9894      1.00000
    263      -0.9867      1.00000
    264      -0.9848      1.00000
    265      -0.9648      1.00000
    266      -0.9619      1.00000
    267      -0.9548      1.00000
    268      -0.9536      1.00000
    269      -0.9485      1.00000
    270      -0.9379      1.00000
    271      -0.9355      1.00000
    272      -0.9348      1.00000
    273      -0.9310      1.00000
    274      -0.9305      1.00000
    275      -0.9281      1.00000
    276      -0.9272      1.00000
    277      -0.9268      1.00000
    278      -0.9255      1.00000
    279      -0.9236      1.00000
    280      -0.9062      1.00000
    281      -0.8920      1.00000
    282      -0.8858      1.00000
    283      -0.8836      1.00000
    284      -0.8798      1.00000
    285      -0.8702      1.00000
    286      -0.8670      1.00000
    287      -0.8633      1.00000
    288      -0.8595      1.00000
    289      -0.8527      1.00000
    290      -0.8514      1.00000
    291      -0.8494      1.00000
    292      -0.8438      1.00000
    293      -0.8393      1.00000
    294      -0.8373      1.00000
    295      -0.8367      1.00000
    296      -0.8341      1.00000
    297      -0.8303      1.00000
    298      -0.8259      1.00000
    299      -0.8240      1.00000
    300      -0.8233      1.00000
    301      -0.8213      1.00000
    302      -0.8175      1.00000
    303      -0.8158      1.00000
    304      -0.8126      1.00000
    305      -0.8100      1.00000
    306      -0.8077      1.00000
    307      -0.8054      1.00000
    308      -0.8040      1.00000
    309      -0.7854      1.00000
    310      -0.7811      1.00000
    311      -0.7722      1.00000
    312      -0.7646      1.00000
    313      -0.7477      1.00000
    314      -0.7458      1.00000
    315      -0.7445      1.00000
    316      -0.7277      1.00000
    317      -0.7221      1.00000
    318      -0.7157      1.00000
    319      -0.7079      1.00000
    320      -0.7002      1.00000
    321      -0.6997      1.00000
    322      -0.6973      1.00000
    323      -0.6918      1.00000
    324      -0.6883      1.00000
    325      -0.6852      1.00000
    326      -0.6830      1.00000
    327      -0.6811      1.00000
    328      -0.6733      1.00000
    329      -0.6721      1.00000
    330      -0.6687      1.00000
    331      -0.6665      1.00000
    332      -0.6617      1.00000
    333      -0.6576      1.00000
    334      -0.6566      1.00000
    335      -0.6531      1.00000
    336      -0.6513      1.00000
    337      -0.6477      1.00000
    338      -0.6456      1.00000
    339      -0.6429      1.00000
    340      -0.6413      1.00000
    341      -0.6391      1.00000
    342      -0.6360      1.00000
    343      -0.6322      1.00000
    344      -0.6291      1.00000
    345      -0.6270      1.00000
    346      -0.6244      1.00000
    347      -0.6118      1.00000
    348      -0.6067      1.00000
    349      -0.5981      1.00000
    350      -0.5964      1.00000
    351      -0.5938      1.00000
    352      -0.5915      1.00000
    353      -0.5900      1.00000
    354      -0.5853      1.00000
    355      -0.5788      1.00000
    356      -0.5776      1.00000
    357      -0.5732      1.00000
    358      -0.5667      1.00000
    359      -0.5629      1.00000
    360      -0.5474      1.00000
    361      -0.5414      1.00000
    362      -0.5322      1.00000
    363      -0.5207      1.00000
    364      -0.5096      1.00000
    365      -0.4984      1.00000
    366      -0.4828      1.00000
    367      -0.4771      1.00000
    368      -0.4719      1.00000
    369      -0.4675      1.00000
    370      -0.4625      1.00000
    371      -0.4586      1.00000
    372      -0.4570      1.00000
    373      -0.4505      1.00000
    374      -0.4477      1.00000
    375      -0.4427      1.00000
    376      -0.4393      1.00000
    377      -0.4357      1.00000
    378      -0.4336      1.00000
    379      -0.4272      1.00000
    380      -0.4210      1.00000
    381      -0.4192      1.00000
    382      -0.4142      1.00000
    383      -0.3807      1.00000
    384      -0.3679      1.00000
    385      -0.3655      1.00000
    386      -0.3518      1.00000
    387      -0.3423      1.00000
    388      -0.3368      1.00000
    389      -0.3329      1.00000
    390      -0.3274      1.00000
    391      -0.3215      1.00000
    392      -0.3121      1.00000
    393      -0.3024      1.00000
    394      -0.2941      1.00000
    395      -0.2918      1.00000
    396      -0.2866      1.00000
    397      -0.2522      1.00000
    398      -0.2480      1.00000
    399      -0.2464      1.00000
    400      -0.2377      1.00000
    401      -0.2349      1.00000
    402      -0.2318      1.00000
    403      -0.2272      1.00000
    404      -0.2201      1.00000
    405      -0.2124      1.00000
    406      -0.2069      1.00000
    407      -0.2026      1.00000
    408      -0.1956      1.00000
    409      -0.1932      1.00000
    410      -0.1922      1.00000
    411      -0.1843      1.00000
    412      -0.1796      1.00000
    413      -0.1697      1.00000
    414      -0.1399      1.00000
    415      -0.1077      1.00000
    416      -0.0931      1.00000
    417      -0.0811      1.00000
    418      -0.0762      1.00000
    419      -0.0740      1.00000
    420      -0.0660      1.00000
    421      -0.0625      1.00000
    422      -0.0585      1.00000
    423      -0.0471      1.00000
    424      -0.0400      1.00000
    425      -0.0362      1.00000
    426      -0.0326      1.00000
    427      -0.0303      1.00000
    428      -0.0273      1.00000
    429      -0.0216      1.00000
    430      -0.0203      1.00000
    431      -0.0182      1.00000
    432      -0.0154      1.00000
    433      -0.0121      1.00000
    434      -0.0100      1.00000
    435      -0.0071      1.00000
    436      -0.0045      1.00000
    437       0.0063      1.00000
    438       0.0109      1.00000
    439       0.0131      1.00000
    440       0.0189      1.00000
    441       0.0206      1.00000
    442       0.0382      1.00000
    443       0.0450      1.00000
    444       0.0529      1.00000
    445       0.0602      1.00000
    446       0.0631      1.00000
    447       0.0643      1.00000
    448       0.0690      1.00000
    449       0.0809      1.00000
    450       0.0872      1.00000
    451       0.0983      1.00000
    452       0.1144      1.00000
    453       0.1150      1.00000
    454       0.1185      1.00000
    455       0.1190      1.00000
    456       0.1278      1.00000
    457       0.1293      1.00000
    458       0.1411      1.00000
    459       0.1418      1.00000
    460       0.1430      1.00000
    461       0.1475      1.00000
    462       0.1506      1.00000
    463       0.1562      1.00000
    464       0.1590      1.00000
    465       0.1644      1.00000
    466       0.1678      1.00000
    467       0.1710      1.00000
    468       0.1743      1.00000
    469       0.1792      1.00000
    470       0.1805      1.00000
    471       0.1860      1.00000
    472       0.1878      1.00000
    473       0.1921      1.00000
    474       0.2021      1.00000
    475       0.2089      1.00000
    476       0.2178      1.00000
    477       0.2252      1.00000
    478       0.2261      1.00000
    479       0.2287      1.00000
    480       0.2442      1.00000
    481       0.2489      1.00000
    482       0.2594      1.00000
    483       0.2656      1.00000
    484       0.2822      1.00000
    485       0.2988      1.00000
    486       0.3060      1.00000
    487       0.3143      1.00000
    488       0.3176      1.00000
    489       0.3196      1.00000
    490       0.3224      1.00000
    491       0.3289      1.00000
    492       0.3314      1.00000
    493       0.3387      1.00000
    494       0.3473      1.00000
    495       0.3524      1.00000
    496       0.3618      1.00000
    497       0.3670      1.00000
    498       0.3848      1.00000
    499       0.3888      1.00000
    500       0.3961      1.00000
    501       0.4025      1.00000
    502       0.4091      1.00000
    503       0.4217      1.00000
    504       0.4231      1.00000
    505       0.4271      1.00000
    506       0.4296      1.00000
    507       0.4351      1.00000
    508       0.4386      1.00000
    509       0.4433      1.00000
    510       0.4498      1.00000
    511       0.4668      1.00000
    512       0.4695      1.00000
    513       0.4745      1.00000
    514       0.4789      1.00000
    515       0.4899      1.00000
    516       0.4944      1.00000
    517       0.4968      1.00000
    518       0.5075      1.00000
    519       0.5104      1.00000
    520       0.5138      1.00000
    521       0.5196      1.00000
    522       0.5205      1.00000
    523       0.5239      1.00000
    524       0.5252      1.00000
    525       0.5268      1.00000
    526       0.5326      1.00000
    527       0.5342      1.00000
    528       0.5376      1.00000
    529       0.5427      1.00000
    530       0.5513      1.00000
    531       0.5618      1.00000
    532       0.5640      1.00000
    533       0.5750      1.00000
    534       0.5847      1.00000
    535       0.5863      1.00000
    536       0.5889      1.00000
    537       0.5935      1.00000
    538       0.6048      1.00000
    539       0.6107      1.00000
    540       0.6149      1.00000
    541       0.6172      1.00000
    542       0.6208      1.00000
    543       0.6259      1.00000
    544       0.6283      1.00000
    545       0.6323      1.00000
    546       0.6488      1.00000
    547       0.6548      1.00000
    548       0.6618      1.00000
    549       0.6659      1.00000
    550       0.6772      1.00000
    551       0.6890      1.00000
    552       0.6970      1.00000
    553       0.7012      1.00000
    554       0.7041      1.00000
    555       0.7063      1.00000
    556       0.7064      1.00000
    557       0.7113      1.00000
    558       0.7244      1.00000
    559       0.7386      1.00000
    560       0.7446      1.00000
    561       0.7686      1.00000
    562       0.7928      1.00000
    563       0.8086      1.00000
    564       0.8093      1.00000
    565       0.8135      1.00000
    566       0.8172      1.00000
    567       0.8292      1.00000
    568       0.8391      1.00000
    569       0.8513      1.00000
    570       0.8564      1.00000
    571       0.8619      1.00000
    572       0.8670      1.00000
    573       0.8716      1.00000
    574       0.8728      1.00000
    575       0.8760      1.00000
    576       0.8801      1.00000
    577       0.8956      1.00000
    578       0.9009      1.00000
    579       0.9017      1.00000
    580       0.9070      1.00000
    581       0.9085      1.00000
    582       0.9105      1.00000
    583       0.9150      1.00000
    584       0.9207      1.00000
    585       0.9239      1.00000
    586       0.9277      1.00000
    587       0.9287      1.00000
    588       0.9373      1.00000
    589       0.9429      1.00000
    590       0.9484      1.00000
    591       0.9495      1.00000
    592       0.9526      1.00000
    593       0.9538      1.00000
    594       0.9640      1.00000
    595       0.9694      1.00000
    596       0.9765      1.00000
    597       0.9799      1.00000
    598       0.9836      1.00000
    599       1.0054      1.00000
    600       1.0218      1.00000
    601       1.0239      1.00000
    602       1.0252      1.00000
    603       1.0288      1.00000
    604       1.0361      1.00000
    605       1.0400      1.00000
    606       1.0494      1.00000
    607       1.0516      1.00000
    608       1.0519      1.00000
    609       1.0595      1.00000
    610       1.0642      1.00000
    611       1.0656      1.00000
    612       1.0706      0.99999
    613       1.0736      0.99999
    614       1.0746      0.99999
    615       1.0853      0.99999
    616       1.0968      0.99999
    617       1.1189      0.99997
    618       1.1453      0.99995
    619       1.1555      0.99993
    620       1.1608      0.99992
    621       1.1621      0.99992
    622       1.1656      0.99991
    623       1.1942      0.99981
    624       1.2027      0.99976
    625       1.2068      0.99974
    626       1.2085      0.99973
    627       1.2094      0.99972
    628       1.2126      0.99970
    629       1.2140      0.99969
    630       1.2244      0.99961
    631       1.2352      0.99951
    632       1.2463      0.99938
    633       1.2562      0.99924
    634       1.2747      0.99891
    635       1.3160      0.99782
    636       1.3786      0.99559
    637       1.4399      0.99601
    638       1.4530      0.99716
    639       1.4647      0.99867
    640       1.6080      1.05030
    641       1.6249      1.05149
    642       1.6403      1.04804
    643       1.6997      0.97230
    644       1.7769      0.68516
    645       1.8524      0.29637
    646       1.9179      0.04723
    647       2.0272     -0.04786
    648       2.0646     -0.03215
    649       2.2078      0.00487
    650       2.2323      0.00478
    651       2.2413      0.00457
    652       2.3142      0.00203
    653       2.3748      0.00068
    654       2.5371      0.00001
    655       2.5927      0.00000
    656       2.8451      0.00000
    657       2.8500      0.00000
    658       2.8544      0.00000
    659       2.8610      0.00000
    660       2.8788      0.00000
    661       2.8799      0.00000
    662       2.8961      0.00000
    663       2.9061      0.00000
    664       2.9633      0.00000
    665       3.0144      0.00000
    666       3.2109      0.00000
    667       3.2165      0.00000
    668       3.2205      0.00000
    669       3.2253      0.00000
    670       3.2300      0.00000
    671       3.2507      0.00000
    672       3.2814      0.00000
    673       3.2986      0.00000
    674       3.3655      0.00000
    675       3.3955      0.00000
    676       3.5368      0.00000
    677       3.6806      0.00000
    678       3.7229      0.00000
    679       4.0299      0.00000
    680       4.0313      0.00000
    681       4.0363      0.00000
    682       4.0472      0.00000
    683       4.0494      0.00000
    684       4.0523      0.00000
    685       4.0626      0.00000
    686       4.0814      0.00000
    687       4.1207      0.00000
    688       4.1292      0.00000
    689       4.1361      0.00000
    690       4.1429      0.00000
    691       4.2352      0.00000
    692       4.2643      0.00000
    693       4.3507      0.00000
    694       4.4171      0.00000
    695       4.4299      0.00000
    696       4.4348      0.00000
    697       4.4821      0.00000
    698       4.4906      0.00000
    699       4.6299      0.00000
    700       4.6444      0.00000
    701       4.7865      0.00000
    702       4.9258      0.00000
    703       4.9622      0.00000
    704       5.0585      0.00000
    705       5.0980      0.00000
    706       5.1447      0.00000
    707       5.2157      0.00000
    708       5.3875      0.00000
    709       5.4039      0.00000
    710       5.4968      0.00000
    711       5.4986      0.00000
    712       5.5564      0.00000
    713       5.5913      0.00000
    714       5.6548      0.00000
    715       5.6695      0.00000
    716       5.8001      0.00000
    717       5.9067      0.00000
    718       6.0263      0.00000
    719       6.0640      0.00000
    720       6.1982      0.00000
    721       6.4074      0.00000
    722       6.4811      0.00000
    723       6.6892      0.00000
    724       6.7578      0.00000
    725       6.8021      0.00000
    726       6.9816      0.00000
    727       7.0208      0.00000
    728       7.1061      0.00000
    729       7.1080      0.00000
    730       7.1869      0.00000
    731       7.2094      0.00000
    732       7.2640      0.00000
    733       7.3027      0.00000
    734       7.3673      0.00000
    735       7.4529      0.00000
    736       7.5933      0.00000

 spin component 2

 k-point   1 :       0.0000    0.0000    0.0000
  band No.  band energies     occupation 
      1     -16.8462      1.00000
      2      -6.8704      1.00000
      3      -5.9717      1.00000
      4      -5.9353      1.00000
      5      -5.9192      1.00000
      6      -5.2682      1.00000
      7      -5.2605      1.00000
      8      -5.0863      1.00000
      9      -5.0631      1.00000
     10      -4.8571      1.00000
     11      -4.8513      1.00000
     12      -4.5696      1.00000
     13      -4.4712      1.00000
     14      -4.4482      1.00000
     15      -4.1169      1.00000
     16      -4.0870      1.00000
     17      -4.0843      1.00000
     18      -4.0746      1.00000
     19      -3.7916      1.00000
     20      -3.7458      1.00000
     21      -3.6254      1.00000
     22      -3.6046      1.00000
     23      -3.5068      1.00000
     24      -3.4217      1.00000
     25      -3.3511      1.00000
     26      -3.2707      1.00000
     27      -3.2575      1.00000
     28      -3.2107      1.00000
     29      -3.1043      1.00000
     30      -3.0629      1.00000
     31      -3.0502      1.00000
     32      -3.0218      1.00000
     33      -2.9660      1.00000
     34      -2.9253      1.00000
     35      -2.8174      1.00000
     36      -2.7596      1.00000
     37      -2.5796      1.00000
     38      -2.5422      1.00000
     39      -2.5173      1.00000
     40      -2.4389      1.00000
     41      -2.4355      1.00000
     42      -2.3918      1.00000
     43      -2.3485      1.00000
     44      -2.2969      1.00000
     45      -2.2908      1.00000
     46      -2.2800      1.00000
     47      -2.2735      1.00000
     48      -2.2296      1.00000
     49      -2.1468      1.00000
     50      -2.1434      1.00000
     51      -2.1416      1.00000
     52      -2.0950      1.00000
     53      -2.0914      1.00000
     54      -2.0761      1.00000
     55      -2.0750      1.00000
     56      -2.0124      1.00000
     57      -2.0097      1.00000
     58      -1.9665      1.00000
     59      -1.9513      1.00000
     60      -1.9304      1.00000
     61      -1.9089      1.00000
     62      -1.9076      1.00000
     63      -1.8943      1.00000
     64      -1.8938      1.00000
     65      -1.8924      1.00000
     66      -1.8853      1.00000
     67      -1.8840      1.00000
     68      -1.8821      1.00000
     69      -1.8703      1.00000
     70      -1.8644      1.00000
     71      -1.7948      1.00000
     72      -1.7790      1.00000
     73      -1.7747      1.00000
     74      -1.7616      1.00000
     75      -1.6873      1.00000
     76      -1.6846      1.00000
     77      -1.6776      1.00000
     78      -1.6762      1.00000
     79      -1.6454      1.00000
     80      -1.6086      1.00000
     81      -1.5992      1.00000
     82      -1.5786      1.00000
     83      -1.5501      1.00000
     84      -1.5172      1.00000
     85      -1.5037      1.00000
     86      -1.4630      1.00000
     87      -1.4597      1.00000
     88      -1.4551      1.00000
     89      -1.4478      1.00000
     90      -1.4365      1.00000
     91      -1.4297      1.00000
     92      -1.4289      1.00000
     93      -1.4098      1.00000
     94      -1.4092      1.00000
     95      -1.3845      1.00000
     96      -1.3776      1.00000
     97      -1.3674      1.00000
     98      -1.3633      1.00000
     99      -1.3535      1.00000
    100      -1.3374      1.00000
    101      -1.3342      1.00000
    102      -1.3182      1.00000
    103      -1.3122      1.00000
    104      -1.3036      1.00000
    105      -1.2959      1.00000
    106      -1.2772      1.00000
    107      -1.2716      1.00000
    108      -1.2595      1.00000
    109      -1.2523      1.00000
    110      -1.2395      1.00000
    111      -1.2104      1.00000
    112      -1.1716      1.00000
    113      -1.1689      1.00000
    114      -1.1206      1.00000
    115      -1.1034      1.00000
    116      -1.0993      1.00000
    117      -1.0964      1.00000
    118      -1.0933      1.00000
    119      -1.0854      1.00000
    120      -1.0751      1.00000
    121      -1.0662      1.00000
    122      -1.0639      1.00000
    123      -1.0597      1.00000
    124      -1.0219      1.00000
    125      -1.0094      1.00000
    126      -1.0006      1.00000
    127      -0.9852      1.00000
    128      -0.9682      1.00000
    129      -0.8845      1.00000
    130      -0.8794      1.00000
    131      -0.8691      1.00000
    132      -0.8672      1.00000
    133      -0.8652      1.00000
    134      -0.8616      1.00000
    135      -0.8525      1.00000
    136      -0.8401      1.00000
    137      -0.8333      1.00000
    138      -0.8215      1.00000
    139      -0.8152      1.00000
    140      -0.8134      1.00000
    141      -0.7972      1.00000
    142      -0.7916      1.00000
    143      -0.7568      1.00000
    144      -0.7553      1.00000
    145      -0.7506      1.00000
    146      -0.7387      1.00000
    147      -0.7280      1.00000
    148      -0.7211      1.00000
    149      -0.7202      1.00000
    150      -0.6822      1.00000
    151      -0.6453      1.00000
    152      -0.6424      1.00000
    153      -0.6381      1.00000
    154      -0.6346      1.00000
    155      -0.6135      1.00000
    156      -0.6065      1.00000
    157      -0.6005      1.00000
    158      -0.5923      1.00000
    159      -0.5767      1.00000
    160      -0.5610      1.00000
    161      -0.5556      1.00000
    162      -0.5230      1.00000
    163      -0.5155      1.00000
    164      -0.5072      1.00000
    165      -0.5028      1.00000
    166      -0.4888      1.00000
    167      -0.4856      1.00000
    168      -0.4688      1.00000
    169      -0.4633      1.00000
    170      -0.4555      1.00000
    171      -0.4534      1.00000
    172      -0.4519      1.00000
    173      -0.4236      1.00000
    174      -0.3986      1.00000
    175      -0.3983      1.00000
    176      -0.3917      1.00000
    177      -0.3768      1.00000
    178      -0.3646      1.00000
    179      -0.3537      1.00000
    180      -0.3489      1.00000
    181      -0.3414      1.00000
    182      -0.2969      1.00000
    183      -0.2927      1.00000
    184      -0.2841      1.00000
    185      -0.2827      1.00000
    186      -0.2783      1.00000
    187      -0.2724      1.00000
    188      -0.2580      1.00000
    189      -0.2519      1.00000
    190      -0.2259      1.00000
    191      -0.2221      1.00000
    192      -0.2194      1.00000
    193      -0.2158      1.00000
    194      -0.1616      1.00000
    195      -0.1568      1.00000
    196      -0.1480      1.00000
    197      -0.1420      1.00000
    198      -0.1373      1.00000
    199      -0.1348      1.00000
    200      -0.1333      1.00000
    201      -0.1265      1.00000
    202      -0.0793      1.00000
    203      -0.0743      1.00000
    204      -0.0520      1.00000
    205      -0.0464      1.00000
    206      -0.0391      1.00000
    207      -0.0324      1.00000
    208      -0.0212      1.00000
    209      -0.0159      1.00000
    210      -0.0087      1.00000
    211      -0.0040      1.00000
    212       0.0088      1.00000
    213       0.0217      1.00000
    214       0.0446      1.00000
    215       0.0498      1.00000
    216       0.0807      1.00000
    217       0.0858      1.00000
    218       0.1275      1.00000
    219       0.1296      1.00000
    220       0.1332      1.00000
    221       0.1363      1.00000
    222       0.1393      1.00000
    223       0.1459      1.00000
    224       0.1502      1.00000
    225       0.1509      1.00000
    226       0.1543      1.00000
    227       0.2022      1.00000
    228       0.2102      1.00000
    229       0.2198      1.00000
    230       0.2242      1.00000
    231       0.2250      1.00000
    232       0.2263      1.00000
    233       0.2325      1.00000
    234       0.2345      1.00000
    235       0.2357      1.00000
    236       0.2401      1.00000
    237       0.2431      1.00000
    238       0.2483      1.00000
    239       0.2621      1.00000
    240       0.2666      1.00000
    241       0.2679      1.00000
    242       0.2779      1.00000
    243       0.2798      1.00000
    244       0.2912      1.00000
    245       0.3220      1.00000
    246       0.3308      1.00000
    247       0.3366      1.00000
    248       0.3396      1.00000
    249       0.3440      1.00000
    250       0.3500      1.00000
    251       0.3595      1.00000
    252       0.3684      1.00000
    253       0.3794      1.00000
    254       0.3874      1.00000
    255       0.4087      1.00000
    256       0.4275      1.00000
    257       0.4336      1.00000
    258       0.4423      1.00000
    259       0.4462      1.00000
    260       0.4521      1.00000
    261       0.4722      1.00000
    262       0.4762      1.00000
    263       0.4902      1.00000
    264       0.4914      1.00000
    265       0.4958      1.00000
    266       0.5073      1.00000
    267       0.5131      1.00000
    268       0.5292      1.00000
    269       0.5349      1.00000
    270       0.5377      1.00000
    271       0.5394      1.00000
    272       0.5405      1.00000
    273       0.5450      1.00000
    274       0.5523      1.00000
    275       0.5574      1.00000
    276       0.5611      1.00000
    277       0.5641      1.00000
    278       0.5683      1.00000
    279       0.5710      1.00000
    280       0.5763      1.00000
    281       0.5801      1.00000
    282       0.5860      1.00000
    283       0.6023      1.00000
    284       0.6046      1.00000
    285       0.6143      1.00000
    286       0.6397      1.00000
    287       0.6499      1.00000
    288       0.6567      1.00000
    289       0.6664      1.00000
    290       0.6786      1.00000
    291       0.6868      1.00000
    292       0.6928      1.00000
    293       0.6978      1.00000
    294       0.7090      1.00000
    295       0.7185      1.00000
    296       0.7250      1.00000
    297       0.7256      1.00000
    298       0.7319      1.00000
    299       0.7374      1.00000
    300       0.7397      1.00000
    301       0.7445      1.00000
    302       0.7471      1.00000
    303       0.7570      1.00000
    304       0.7677      1.00000
    305       0.7727      1.00000
    306       0.7803      1.00000
    307       0.7868      1.00000
    308       0.7909      1.00000
    309       0.7916      1.00000
    310       0.7963      1.00000
    311       0.8026      1.00000
    312       0.8062      1.00000
    313       0.8071      1.00000
    314       0.8081      1.00000
    315       0.8170      1.00000
    316       0.8188      1.00000
    317       0.8229      1.00000
    318       0.8278      1.00000
    319       0.8298      1.00000
    320       0.8433      1.00000
    321       0.8475      1.00000
    322       0.8529      1.00000
    323       0.8553      1.00000
    324       0.8569      1.00000
    325       0.8599      1.00000
    326       0.8633      1.00000
    327       0.8670      1.00000
    328       0.8692      1.00000
    329       0.8726      1.00000
    330       0.8796      1.00000
    331       0.8843      1.00000
    332       0.8898      1.00000
    333       0.8960      1.00000
    334       0.9278      1.00000
    335       0.9478      1.00000
    336       0.9640      1.00000
    337       0.9675      1.00000
    338       0.9714      1.00000
    339       0.9735      1.00000
    340       0.9760      1.00000
    341       0.9789      1.00000
    342       0.9801      1.00000
    343       0.9846      1.00000
    344       0.9881      1.00000
    345       0.9967      1.00000
    346       0.9972      1.00000
    347       1.0001      1.00000
    348       1.0085      1.00000
    349       1.0114      1.00000
    350       1.0124      1.00000
    351       1.0164      1.00000
    352       1.0206      1.00000
    353       1.0337      1.00000
    354       1.0359      1.00000
    355       1.0387      1.00000
    356       1.0405      1.00000
    357       1.0446      1.00000
    358       1.0531      1.00000
    359       1.0571      1.00000
    360       1.0584      1.00000
    361       1.0623      1.00000
    362       1.0660      1.00000
    363       1.0676      0.99999
    364       1.0698      0.99999
    365       1.0764      0.99999
    366       1.0858      0.99999
    367       1.0887      0.99999
    368       1.1114      0.99998
    369       1.1162      0.99998
    370       1.1307      0.99996
    371       1.1560      0.99993
    372       1.1631      0.99991
    373       1.1674      0.99990
    374       1.1748      0.99988
    375       1.1827      0.99986
    376       1.1917      0.99982
    377       1.1939      0.99981
    378       1.1975      0.99979
    379       1.2098      0.99972
    380       1.2194      0.99965
    381       1.2314      0.99955
    382       1.2416      0.99943
    383       1.2482      0.99935
    384       1.2610      0.99916
    385       1.2803      0.99879
    386       1.2977      0.99837
    387       1.3037      0.99820
    388       1.3131      0.99791
    389       1.3262      0.99748
    390       1.3357      0.99714
    391       1.3367      0.99710
    392       1.3401      0.99698
    393       1.3557      0.99639
    394       1.3625      0.99614
    395       1.3725      0.99579
    396       1.3732      0.99576
    397       1.3800      0.99555
    398       1.3855      0.99540
    399       1.3890      0.99531
    400       1.3916      0.99526
    401       1.3952      0.99519
    402       1.4013      0.99510
    403       1.4217      0.99521
    404       1.4341      0.99566
    405       1.4563      0.99754
    406       1.4638      0.99854
    407       1.4881      1.00337
    408       1.4935      1.00478
    409       1.4987      1.00627
    410       1.5105      1.01012
    411       1.5151      1.01179
    412       1.5166      1.01235
    413       1.5372      1.02096
    414       1.5418      1.02306
    415       1.5446      1.02438
    416       1.5556      1.02961
    417       1.5626      1.03300
    418       1.5683      1.03570
    419       1.5700      1.03651
    420       1.5893      1.04479
    421       1.5940      1.04649
    422       1.6049      1.04965
    423       1.6400      1.04818
    424       1.6435      1.04667
    425       1.6480      1.04430
    426       1.6649      1.03043
    427       1.6952      0.98216
    428       1.7000      0.97160
    429       1.7363      0.86182
    430       1.7468      0.82095
    431       1.7484      0.81452
    432       1.7501      0.80737
    433       1.7657      0.73847
    434       1.7715      0.71099
    435       1.7841      0.64932
    436       1.7922      0.60760
    437       1.7960      0.58823
    438       1.7976      0.57969
    439       1.8038      0.54751
    440       1.8107      0.51076
    441       1.8137      0.49521
    442       1.8189      0.46728
    443       1.8268      0.42611
    444       1.8286      0.41669
    445       1.8305      0.40647
    446       1.8353      0.38166
    447       1.8385      0.36578
    448       1.8401      0.35738
    449       1.8410      0.35279
    450       1.8424      0.34572
    451       1.8449      0.33329
    452       1.8544      0.28690
    453       1.8553      0.28246
    454       1.8588      0.26617
    455       1.8629      0.24750
    456       1.8867      0.14746
    457       1.8925      0.12607
    458       1.9145      0.05643
    459       1.9233      0.03371
    460       1.9324      0.01333
    461       1.9376      0.00315
    462       1.9420     -0.00468
    463       1.9506     -0.01801
    464       1.9574     -0.02679
    465       1.9806     -0.04600
    466       1.9844     -0.04771
    467       1.9954     -0.05088
    468       2.0097     -0.05140
    469       2.0359     -0.04489
    470       2.0373     -0.04437
    471       2.0427     -0.04221
    472       2.0481     -0.03985
    473       2.0574     -0.03559
    474       2.0621     -0.03338
    475       2.0693     -0.02992
    476       2.0760     -0.02668
    477       2.0939     -0.01847
    478       2.0947     -0.01814
    479       2.1009     -0.01551
    480       2.1037     -0.01438
    481       2.1051     -0.01382
    482       2.1104     -0.01178
    483       2.1116     -0.01135
    484       2.1155     -0.00996
    485       2.1220     -0.00776
    486       2.1334     -0.00439
    487       2.1357     -0.00378
    488       2.1711      0.00268
    489       2.1730      0.00290
    490       2.1840      0.00388
    491       2.1872      0.00409
    492       2.2076      0.00487
    493       2.2120      0.00492
    494       2.2142      0.00493
    495       2.2190      0.00493
    496       2.2211      0.00492
    497       2.2255      0.00488
    498       2.2282      0.00484
    499       2.2338      0.00474
    500       2.2372      0.00467
    501       2.2424      0.00454
    502       2.2462      0.00443
    503       2.2512      0.00427
    504       2.2529      0.00421
    505       2.2620      0.00390
    506       2.2788      0.00327
    507       2.2833      0.00310
    508       2.2864      0.00299
    509       2.2946      0.00269
    510       2.2954      0.00266
    511       2.2980      0.00257
    512       2.3030      0.00240
    513       2.3046      0.00234
    514       2.3102      0.00216
    515       2.3144      0.00202
    516       2.3234      0.00176
    517       2.3322      0.00152
    518       2.3408      0.00131
    519       2.3429      0.00126
    520       2.3571      0.00097
    521       2.3599      0.00092
    522       2.3694      0.00076
    523       2.3696      0.00076
    524       2.3776      0.00064
    525       2.3805      0.00061
    526       2.3874      0.00052
    527       2.3923      0.00047
    528       2.4011      0.00039
    529       2.4086      0.00033
    530       2.4175      0.00027
    531       2.4200      0.00025
    532       2.4261      0.00022
    533       2.4327      0.00019
    534       2.4392      0.00016
    535       2.4421      0.00015
    536       2.4458      0.00013
    537       2.4529      0.00011
    538       2.4713      0.00007
    539       2.4727      0.00007
    540       2.4818      0.00005
    541       2.4862      0.00005
    542       2.5000      0.00003
    543       2.5036      0.00003
    544       2.5124      0.00002
    545       2.5145      0.00002
    546       2.5194      0.00002
    547       2.5198      0.00002
    548       2.5231      0.00002
    549       2.5293      0.00001
    550       2.5305      0.00001
    551       2.5388      0.00001
    552       2.5578      0.00001
    553       2.5593      0.00000
    554       2.5779      0.00000
    555       2.5869      0.00000
    556       2.6154      0.00000
    557       2.6236      0.00000
    558       2.6340      0.00000
    559       2.6442      0.00000
    560       2.6552      0.00000
    561       2.6597      0.00000
    562       2.6629      0.00000
    563       2.6707      0.00000
    564       2.6791      0.00000
    565       2.6838      0.00000
    566       2.6866      0.00000
    567       2.6919      0.00000
    568       2.6943      0.00000
    569       2.6951      0.00000
    570       2.7101      0.00000
    571       2.7169      0.00000
    572       2.7522      0.00000
    573       2.7601      0.00000
    574       2.7656      0.00000
    575       2.7717      0.00000
    576       2.7756      0.00000
    577       2.7846      0.00000
    578       2.7962      0.00000
    579       2.8016      0.00000
    580       2.8053      0.00000
    581       2.8072      0.00000
    582       2.8211      0.00000
    583       2.8259      0.00000
    584       2.8305      0.00000
    585       2.8339      0.00000
    586       2.8378      0.00000
    587       2.8395      0.00000
    588       2.8412      0.00000
    589       2.8459      0.00000
    590       2.8476      0.00000
    591       2.8494      0.00000
    592       2.8501      0.00000
    593       2.8504      0.00000
    594       2.8524      0.00000
    595       2.8587      0.00000
    596       2.8625      0.00000
    597       2.8660      0.00000
    598       2.8691      0.00000
    599       2.8759      0.00000
    600       2.8786      0.00000
    601       2.8800      0.00000
    602       2.8829      0.00000
    603       2.8871      0.00000
    604       2.8893      0.00000
    605       2.8904      0.00000
    606       2.9041      0.00000
    607       2.9167      0.00000
    608       2.9240      0.00000
    609       2.9301      0.00000
    610       2.9332      0.00000
    611       2.9360      0.00000
    612       2.9378      0.00000
    613       2.9415      0.00000
    614       2.9441      0.00000
    615       2.9445      0.00000
    616       2.9477      0.00000
    617       2.9486      0.00000
    618       2.9535      0.00000
    619       2.9545      0.00000
    620       2.9570      0.00000
    621       2.9735      0.00000
    622       2.9773      0.00000
    623       2.9791      0.00000
    624       2.9818      0.00000
    625       2.9836      0.00000
    626       2.9852      0.00000
    627       3.0204      0.00000
    628       3.0224      0.00000
    629       3.0260      0.00000
    630       3.0347      0.00000
    631       3.0355      0.00000
    632       3.0508      0.00000
    633       3.0523      0.00000
    634       3.0536      0.00000
    635       3.0595      0.00000
    636       3.0796      0.00000
    637       3.1029      0.00000
    638       3.1178      0.00000
    639       3.1326      0.00000
    640       3.1562      0.00000
    641       3.1582      0.00000
    642       3.1610      0.00000
    643       3.1777      0.00000
    644       3.2124      0.00000
    645       3.3089      0.00000
    646       3.3232      0.00000
    647       3.3679      0.00000
    648       3.3861      0.00000
    649       3.4026      0.00000
    650       3.4536      0.00000
    651       3.4973      0.00000
    652       3.5934      0.00000
    653       3.6291      0.00000
    654       3.7548      0.00000
    655       3.7997      0.00000
    656       3.9720      0.00000
    657       3.9854      0.00000
    658       4.0628      0.00000
    659       4.0721      0.00000
    660       4.1368      0.00000
    661       4.1403      0.00000
    662       4.1487      0.00000
    663       4.1545      0.00000
    664       4.1579      0.00000
    665       4.1790      0.00000
    666       4.1891      0.00000
    667       4.2928      0.00000
    668       4.3126      0.00000
    669       4.3311      0.00000
    670       4.3477      0.00000
    671       4.4120      0.00000
    672       4.4179      0.00000
    673       4.4273      0.00000
    674       4.4781      0.00000
    675       4.5217      0.00000
    676       4.5462      0.00000
    677       4.6408      0.00000
    678       4.6579      0.00000
    679       4.7164      0.00000
    680       4.7212      0.00000
    681       4.7990      0.00000
    682       4.8388      0.00000
    683       4.8545      0.00000
    684       4.9458      0.00000
    685       4.9501      0.00000
    686       4.9538      0.00000
    687       4.9564      0.00000
    688       4.9679      0.00000
    689       4.9824      0.00000
    690       5.0050      0.00000
    691       5.0133      0.00000
    692       5.0193      0.00000
    693       5.0871      0.00000
    694       5.1387      0.00000
    695       5.1670      0.00000
    696       5.1772      0.00000
    697       5.1879      0.00000
    698       5.2012      0.00000
    699       5.5669      0.00000
    700       5.6872      0.00000
    701       5.6965      0.00000
    702       5.7072      0.00000
    703       5.7266      0.00000
    704       5.7751      0.00000
    705       5.8655      0.00000
    706       6.0578      0.00000
    707       6.0670      0.00000
    708       6.0843      0.00000
    709       6.1215      0.00000
    710       6.1455      0.00000
    711       6.1499      0.00000
    712       6.2150      0.00000
    713       6.2624      0.00000
    714       6.3291      0.00000
    715       6.3644      0.00000
    716       6.4855      0.00000
    717       6.5107      0.00000
    718       6.6118      0.00000
    719       6.7553      0.00000
    720       6.7728      0.00000
    721       6.7896      0.00000
    722       6.8721      0.00000
    723       7.0992      0.00000
    724       7.2657      0.00000
    725       7.3426      0.00000
    726       7.3445      0.00000
    727       7.3880      0.00000
    728       7.6386      0.00000
    729       7.6497      0.00000
    730       7.6572      0.00000
    731       7.6638      0.00000
    732       7.7080      0.00000
    733       7.7136      0.00000
    734       7.7448      0.00000
    735       7.8112      0.00000
    736       7.8682      0.00000


--------------------------------------------------------------------------------------------------------


 soft charge-density along one line, spin component           1
         0         1         2         3         4         5         6         7         8         9
 total charge-density along one line
 
 soft charge-density along one line, spin component           2
         0         1         2         3         4         5         6         7         8         9
 total charge-density along one line
 
 pseudopotential strength for first ion, spin component:           1
 -6.358  -0.003  -0.000  -0.024   0.002  -6.785  -0.003  -0.000
 -0.003  -6.415  -0.004  -0.002  -0.026  -0.003  -6.840  -0.004
 -0.000  -0.004  -6.417  -0.002  -0.007  -0.000  -0.004  -6.842
 -0.024  -0.002  -0.002  -6.426  -0.006  -0.023  -0.002  -0.002
  0.002  -0.026  -0.007  -0.006  -6.372   0.002  -0.025  -0.007
 -6.785  -0.003  -0.000  -0.023   0.002  -7.160  -0.003  -0.000
 -0.003  -6.840  -0.004  -0.002  -0.025  -0.003  -7.213  -0.004
 -0.000  -0.004  -6.842  -0.002  -0.007  -0.000  -0.004  -7.215
 -0.023  -0.002  -0.002  -6.851  -0.006  -0.022  -0.002  -0.002
  0.002  -0.025  -0.007  -0.006  -6.799   0.001  -0.024  -0.006
  0.000   0.000   0.005   0.001  -0.000   0.000   0.000   0.005
  0.001   0.000   0.009   0.002  -0.001   0.001   0.000   0.009
 -0.000  -0.001  -0.000  -0.000  -0.001  -0.000  -0.001  -0.000
 -0.000   0.000   0.007  -0.000   0.000  -0.000   0.000   0.007
 -0.000  -0.000   0.000  -0.001  -0.000  -0.000  -0.000   0.000
 -0.000   0.001  -0.000  -0.000  -0.002  -0.000   0.001  -0.000
 -0.000   0.000   0.011  -0.000   0.000  -0.000   0.000   0.011
 -0.000  -0.000   0.000   0.001  -0.000  -0.000  -0.000   0.000
 pseudopotential strength for first ion, spin component:           2
 -4.994  -0.004  -0.003   0.020  -0.001  -5.479  -0.004  -0.003
 -0.004  -4.976   0.003   0.002   0.021  -0.004  -5.461   0.003
 -0.003   0.003  -4.999  -0.002   0.010  -0.003   0.003  -5.483
  0.020   0.002  -0.002  -4.974  -0.002   0.019   0.002  -0.002
 -0.001   0.021   0.010  -0.002  -4.995  -0.001   0.021   0.010
 -5.479  -0.004  -0.003   0.019  -0.001  -5.910  -0.004  -0.003
 -0.004  -5.461   0.003   0.002   0.021  -0.004  -5.892   0.003
 -0.003   0.003  -5.483  -0.002   0.010  -0.003   0.003  -5.914
  0.019   0.002  -0.002  -5.459  -0.002   0.019   0.002  -0.002
 -0.001   0.021   0.010  -0.002  -5.480  -0.001   0.020   0.009
 -0.001  -0.000  -0.002   0.001   0.001  -0.001  -0.000  -0.002
 -0.001  -0.000  -0.003   0.001   0.002  -0.001  -0.000  -0.003
 -0.000  -0.006  -0.000   0.000  -0.000  -0.000  -0.006  -0.000
  0.000   0.000  -0.009  -0.000  -0.000   0.000   0.000  -0.008
  0.000   0.000   0.000  -0.006  -0.000   0.000   0.000   0.000
 -0.000  -0.006  -0.000   0.000   0.000  -0.000  -0.005  -0.000
  0.000   0.000  -0.010  -0.000  -0.000   0.000   0.000  -0.010
  0.001   0.000   0.000  -0.006  -0.000   0.001   0.000   0.000
 total augmentation occupancy for first ion, spin component:           1
  2.701  -0.008  -0.037   0.054  -0.010  -1.327   0.007   0.028  -0.031   0.011   0.001   0.000  -0.000   0.004   0.023   0.000
 -0.008   2.735  -0.004  -0.002   0.053   0.007  -1.164  -0.002  -0.001  -0.034  -0.003  -0.001  -0.180  -0.001  -0.000   0.009
 -0.037  -0.004   2.819  -0.004   0.046   0.027  -0.002  -1.312   0.003  -0.038   0.339   0.018  -0.003  -0.121   0.001   0.000
  0.054  -0.002  -0.004   2.713  -0.008  -0.032  -0.001   0.003  -1.158   0.004   0.000   0.001  -0.002  -0.000  -0.178   0.000
 -0.010   0.053   0.046  -0.008   2.516   0.011  -0.033  -0.037   0.004  -1.208  -0.039  -0.007   0.026  -0.005  -0.001  -0.001
 -1.327   0.007   0.027  -0.032   0.011   1.529  -0.006  -0.021  -0.018  -0.009  -0.001  -0.000   0.000  -0.003  -0.032  -0.000
  0.007  -1.164  -0.002  -0.001  -0.033  -0.006   1.135   0.003   0.001  -0.016   0.002   0.000   0.190   0.001   0.001  -0.021
  0.028  -0.002  -1.312   0.003  -0.037  -0.021   0.003   1.357  -0.002   0.024  -0.430   0.018   0.001   0.232  -0.001  -0.000
 -0.031  -0.001   0.003  -1.158   0.004  -0.018   0.001  -0.002   1.133  -0.004  -0.001  -0.001   0.001   0.000   0.190  -0.000
  0.011  -0.034  -0.038   0.004  -1.208  -0.009  -0.016   0.024  -0.004   1.445   0.029   0.006  -0.034   0.004   0.001   0.002
  0.001  -0.003   0.339   0.000  -0.039  -0.001   0.002  -0.430  -0.001   0.029   2.052  -0.192  -0.001   0.189  -0.000   0.000
  0.000  -0.001   0.018   0.001  -0.007  -0.000   0.000   0.018  -0.001   0.006  -0.192   0.028  -0.000  -0.033  -0.000  -0.000
 -0.000  -0.180  -0.003  -0.002   0.026   0.000   0.190   0.001   0.001  -0.034  -0.001  -0.000   0.268   0.001   0.000  -0.024
  0.004  -0.001  -0.121  -0.000  -0.005  -0.003   0.001   0.232   0.000   0.004   0.189  -0.033   0.001   0.174   0.001  -0.000
  0.023  -0.000   0.001  -0.178  -0.001  -0.032   0.001  -0.001   0.190   0.001  -0.000  -0.000   0.000   0.001   0.259   0.000
  0.000   0.009   0.000   0.000  -0.001  -0.000  -0.021  -0.000  -0.000   0.002   0.000  -0.000  -0.024  -0.000   0.000   0.002
  0.000   0.000  -0.008   0.000   0.000  -0.000  -0.000  -0.015   0.000  -0.000  -0.031   0.004  -0.000  -0.017   0.000  -0.000
 -0.001   0.000  -0.000   0.008   0.000   0.002  -0.000   0.000  -0.021   0.000  -0.000  -0.000   0.000   0.000  -0.023   0.000
 total augmentation occupancy for first ion, spin component:           2
  2.008  -0.008  -0.039   0.059  -0.016  -0.950   0.005   0.028  -0.015   0.012  -0.002   0.000  -0.001   0.003   0.003   0.000
 -0.008   2.012   0.016   0.007   0.068   0.005  -0.914  -0.006  -0.002  -0.019  -0.005  -0.001   0.003   0.000  -0.002  -0.009
 -0.039   0.016   2.032  -0.002   0.063   0.028  -0.007  -0.941   0.002  -0.035   0.023   0.050   0.002  -0.049  -0.000  -0.000
  0.059   0.007  -0.002   2.023   0.004  -0.015  -0.002   0.002  -0.914  -0.000   0.002   0.002  -0.000  -0.000   0.002  -0.000
 -0.016   0.068   0.063   0.004   1.891   0.012  -0.018  -0.035   0.000  -0.849  -0.022  -0.007   0.005  -0.004  -0.001  -0.000
 -0.950   0.005   0.028  -0.015   0.012   0.248  -0.003  -0.019   0.006  -0.010  -0.000  -0.001   0.000  -0.003   0.002  -0.000
  0.005  -0.914  -0.007  -0.002  -0.018  -0.003   0.246   0.003   0.001   0.007   0.004   0.000  -0.006  -0.000   0.001   0.006
  0.028  -0.006  -0.941   0.002  -0.035  -0.019   0.003   0.260  -0.002   0.021   0.016  -0.031  -0.001  -0.004  -0.000   0.000
 -0.015  -0.002   0.002  -0.914   0.000   0.006   0.001  -0.002   0.243  -0.000  -0.001  -0.001   0.001   0.000  -0.006   0.000
  0.012  -0.019  -0.035  -0.000  -0.849  -0.010   0.007   0.021  -0.000   0.175   0.016   0.004   0.001   0.002   0.000  -0.000
 -0.002  -0.005   0.023   0.002  -0.022  -0.000   0.004   0.016  -0.001   0.016  -0.275   0.083  -0.000  -0.021  -0.001  -0.000
  0.000  -0.001   0.050   0.002  -0.007  -0.001   0.000  -0.031  -0.001   0.004   0.083  -0.011  -0.000   0.006  -0.000   0.000
 -0.001   0.003   0.002  -0.000   0.005   0.000  -0.006  -0.001   0.001   0.001  -0.000  -0.000  -0.025   0.000  -0.000   0.004
  0.003   0.000  -0.049  -0.000  -0.004  -0.003  -0.000  -0.004   0.000   0.002  -0.021   0.006   0.000  -0.021   0.001  -0.000
  0.003  -0.002  -0.000   0.002  -0.001   0.002   0.001  -0.000  -0.006   0.000  -0.001  -0.000  -0.000   0.001  -0.031   0.000
  0.000  -0.009  -0.000  -0.000  -0.000  -0.000   0.006   0.000   0.000  -0.000  -0.000   0.000   0.004  -0.000   0.000  -0.000
  0.000   0.000  -0.014   0.000  -0.000  -0.000  -0.000   0.009  -0.000   0.000   0.003  -0.002  -0.000   0.003  -0.000   0.000
  0.000   0.000   0.000  -0.009   0.000  -0.000  -0.000  -0.000   0.006  -0.000   0.000  -0.000   0.000  -0.000   0.004  -0.000


------------------------ aborting loop because EDIFF is reached ----------------------------------------


    CHARGE:  cpu time    1.03: real time    1.03
    FORLOC:  cpu time    0.09: real time    0.09
    FORNL :  cpu time    3.05: real time    3.06
    STRESS:  cpu time    8.74: real time    8.83
    FORCOR:  cpu time    0.39: real time    0.39
    FORHAR:  cpu time    0.11: real time    0.11
    MIXING:  cpu time    0.01: real time    0.01

  FORCE on cell =-STRESS in cart. coord.  units (eV):
  Direction    XX          YY          ZZ          XY          YZ          ZX
  --------------------------------------------------------------------------------------
  Alpha Z  2067.85644  2067.85644  2067.85644
  Ewald  484378.33422484377.26495************     3.46614     4.05467     3.24189
  Hartree508647.39216508647.27716************     6.46325    -2.47553    -1.52642
  E(xc)   -5564.32165 -5564.09987 -5570.93853    -0.16382     0.43024     0.28084
  Local  ************************************   -19.55344    12.12659     8.02878
  n-local  -668.36670  -629.99402  -703.22944     6.16078     2.99416     2.18271
  augment 18700.92764 18692.80602 18674.45224     4.01899   -10.67516    -7.99393
  Kinetic  9176.17098  9190.91712  9252.45377     3.42022    -7.96840    -4.63061
  Fock        0.00000     0.00000     0.00000     0.00000     0.00000     0.00000
  -------------------------------------------------------------------------------------
  Total     -62.16961   -30.87286   -13.36920     3.81213    -1.51344    -0.41673
  in kB     -33.44499   -16.60847    -7.19214     2.05078    -0.81418    -0.22419
  external pressure =      -19.08 kB  Pullay stress =        0.00 kB


 VOLUME and BASIS-vectors are now :
 -----------------------------------------------------------------------------
  energy-cutoff  :      450.00
  volume of cell :     2978.23
      direct lattice vectors                 reciprocal lattice vectors
     9.956100464  0.000000000  0.000000000     0.100440931  0.057989601  0.000000000
    -7.467050076 12.933309555  0.000000000     0.000000000  0.077319730  0.000000000
     0.000000000  0.000000000 23.129100800     0.000000000  0.000000000  0.043235576

  length of vectors
     9.956100464 14.934099667 23.129100800     0.115979198  0.077319730  0.043235576


 FORCES acting on ions
    electron-ion (+dipol)            ewald-force                    non-local-force                 convergence-correction
 -----------------------------------------------------------------------------------------------
   -.233E-01 0.101E+00 0.306E+04   0.940E-02 -.133E+00 -.306E+04   0.190E-01 0.308E-01 -.134E+01   -.465E-03 0.104E-02 -.140E-02
   0.180E-03 0.115E+00 0.306E+04   -.284E-01 -.151E+00 -.306E+04   0.169E-01 0.465E-01 -.137E+01   0.703E-03 0.110E-02 -.141E-02
   -.190E-01 0.181E+00 0.306E+04   -.852E-03 -.197E+00 -.306E+04   0.212E-01 0.200E-01 -.129E+01   0.252E-04 0.865E-03 -.631E-03
   -.286E-01 0.107E+00 0.306E+04   0.294E-01 -.179E+00 -.306E+04   0.970E-02 0.728E-01 -.126E+01   -.263E-03 0.854E-03 -.565E-03
   -.932E-01 0.162E+00 0.306E+04   0.870E-01 -.192E+00 -.306E+04   0.330E-03 0.395E-01 -.138E+01   -.470E-03 0.268E-02 -.362E-03
   0.293E-01 0.111E+00 0.306E+04   -.341E-01 -.137E+00 -.306E+04   0.140E-01 0.303E-01 -.138E+01   0.388E-03 0.304E-02 -.875E-03
   0.492E-01 0.176E+00 0.306E+04   -.950E-01 -.205E+00 -.306E+04   0.420E-01 0.396E-01 -.139E+01   0.125E-03 0.293E-02 -.518E-04
   -.401E-01 0.265E+00 0.306E+04   0.259E-01 -.260E+00 -.306E+04   0.204E-01 0.490E-02 -.132E+01   -.387E-04 0.253E-02 0.168E-03
   -.156E+00 0.117E+00 0.306E+04   0.132E+00 -.118E+00 -.306E+04   0.167E-01 0.257E-01 -.132E+01   -.341E-04 0.131E-02 -.195E-03
   -.540E-01 0.115E+00 0.306E+04   0.883E-01 -.925E-01 -.306E+04   -.246E-01 -.210E-01 -.132E+01   0.188E-03 0.165E-02 -.399E-03
   0.958E-01 0.671E-01 0.306E+04   -.140E+00 -.978E-01 -.306E+04   0.320E-01 0.578E-01 -.134E+01   0.896E-04 0.124E-02 0.620E-04
   0.514E-01 0.121E+00 0.306E+04   -.794E-01 -.121E+00 -.306E+04   0.278E-01 -.240E-02 -.137E+01   -.243E-03 0.855E-03 0.269E-03
   -.109E+00 -.135E+00 0.306E+04   0.377E-01 0.999E-01 -.306E+04   0.638E-01 0.488E-01 -.140E+01   0.354E-03 0.196E-04 -.400E-03
   -.136E+00 -.895E-01 0.306E+04   0.123E+00 0.333E-01 -.306E+04   0.161E-01 0.666E-01 -.131E+01   0.118E-03 -.269E-04 -.177E-03
   0.598E-02 -.422E-01 0.306E+04   -.354E-01 -.225E-01 -.306E+04   0.335E-01 0.633E-01 -.130E+01   -.167E-03 -.210E-03 0.173E-03
   0.168E+00 -.586E-01 0.306E+04   -.116E+00 0.440E-01 -.306E+04   -.437E-01 0.231E-01 -.131E+01   -.306E-03 -.382E-03 -.146E-03
   0.810E-02 -.379E+00 0.306E+04   -.755E-02 0.323E+00 -.306E+04   0.114E-01 0.620E-01 -.129E+01   0.423E-03 -.252E-02 -.971E-03
   -.710E-01 -.249E+00 0.306E+04   0.320E-01 0.306E+00 -.306E+04   0.295E-01 -.657E-01 -.131E+01   0.131E-03 -.230E-02 -.345E-03
   -.241E-01 -.255E+00 0.306E+04   0.877E-02 0.233E+00 -.306E+04   0.194E-01 0.320E-01 -.130E+01   -.149E-04 -.235E-02 -.502E-04
   0.498E-01 -.248E+00 0.306E+04   -.487E-01 0.254E+00 -.306E+04   -.806E-02 0.842E-02 -.125E+01   -.543E-03 -.264E-02 -.617E-03
   -.366E-01 -.194E+00 0.306E+04   -.425E-02 0.165E+00 -.306E+04   0.403E-01 0.666E-01 -.129E+01   0.168E-03 -.254E-02 -.184E-02
   -.549E-01 -.250E+00 0.306E+04   0.670E-02 0.149E+00 -.306E+04   0.373E-01 0.934E-01 -.138E+01   0.580E-03 -.225E-02 -.112E-02
   0.285E-02 -.145E+00 0.306E+04   0.580E-03 0.138E+00 -.306E+04   -.599E-02 0.361E-01 -.138E+01   0.499E-04 -.242E-02 -.689E-03
   0.271E-01 -.111E+00 0.306E+04   -.191E-02 0.151E+00 -.306E+04   -.157E-01 -.348E-01 -.125E+01   -.800E-03 -.248E-02 -.976E-03
   -.344E-01 0.399E-01 0.155E+04   0.365E-01 -.544E-01 -.155E+04   -.388E-02 0.113E-01 -.468E+00   -.175E-02 0.125E-03 -.524E-03
   0.594E-01 0.281E-01 0.155E+04   -.655E-01 -.495E-01 -.155E+04   0.672E-02 0.569E-02 -.401E+00   0.205E-03 0.303E-03 -.129E-02
   0.232E-01 0.194E+00 0.155E+04   -.875E-02 -.205E+00 -.155E+04   -.157E-02 0.383E-01 -.412E+00   0.143E-02 0.474E-03 -.448E-03
   -.471E-01 0.142E+00 0.155E+04   0.338E-01 -.126E+00 -.155E+04   0.240E-01 0.684E-02 -.432E+00   0.105E-03 0.346E-03 0.523E-03
   -.210E+00 0.591E+00 0.155E+04   0.176E+00 -.634E+00 -.155E+04   0.341E-01 0.443E-01 -.480E+00   -.108E-02 0.251E-02 0.469E-03
   -.966E-01 0.252E+00 0.155E+04   0.116E+00 -.258E+00 -.155E+04   -.250E-01 0.592E-02 -.408E+00   -.115E-02 0.282E-02 -.962E-03
   0.260E+00 0.274E+00 0.155E+04   -.266E+00 -.287E+00 -.155E+04   0.101E-01 0.248E-01 -.422E+00   0.159E-02 0.302E-02 -.978E-03
   0.257E-01 0.618E+00 0.155E+04   -.969E-02 -.661E+00 -.155E+04   -.686E-02 0.483E-01 -.511E+00   0.639E-03 0.292E-02 0.765E-03
   -.122E+00 0.420E+00 0.155E+04   0.110E+00 -.443E+00 -.155E+04   0.167E-01 0.339E-01 -.525E+00   -.491E-03 0.702E-03 0.651E-03
   -.726E+00 0.136E+00 0.155E+04   0.708E+00 -.131E+00 -.155E+04   0.171E-01 0.767E-02 -.451E+00   -.947E-03 0.130E-02 -.497E-03
   0.147E+00 -.209E+00 0.155E+04   -.154E+00 0.172E+00 -.155E+04   0.103E-01 0.616E-01 -.446E+00   0.643E-03 0.232E-02 -.135E-02
   0.712E+00 0.161E+00 0.155E+04   -.681E+00 -.164E+00 -.155E+04   -.255E-01 0.169E-01 -.518E+00   0.790E-03 0.148E-02 -.423E-03
   0.266E+00 -.497E-01 0.155E+04   -.279E+00 0.314E-01 -.155E+04   0.924E-02 0.508E-01 -.537E+00   -.379E-04 -.848E-03 -.655E-03
   -.502E+00 -.558E-01 0.155E+04   0.500E+00 0.515E-01 -.155E+04   0.952E-02 0.242E-01 -.544E+00   -.990E-04 0.924E-04 -.756E-03
   -.508E+00 0.378E+00 0.155E+04   0.488E+00 -.366E+00 -.155E+04   0.203E-01 0.519E-02 -.464E+00   0.335E-03 0.972E-03 -.123E-02
   0.735E+00 0.379E+00 0.155E+04   -.708E+00 -.351E+00 -.155E+04   -.339E-01 -.261E-01 -.466E+00   -.197E-03 -.389E-04 -.121E-02
   0.160E+00 -.422E+00 0.155E+04   -.183E+00 0.394E+00 -.155E+04   0.354E-01 0.399E-01 -.455E+00   -.634E-03 -.252E-02 -.184E-02
   -.107E+00 -.643E+00 0.155E+04   0.124E+00 0.634E+00 -.155E+04   -.629E-02 0.549E-01 -.614E+00   0.733E-03 -.210E-02 -.204E-02
   -.155E+00 -.259E+00 0.155E+04   0.161E+00 0.258E+00 -.155E+04   -.485E-02 0.143E-01 -.484E+00   0.533E-03 -.153E-02 -.130E-02
   0.904E-01 0.575E-01 0.155E+04   -.868E-01 -.755E-01 -.155E+04   -.512E-02 0.315E-01 -.379E+00   -.630E-03 -.216E-02 -.137E-02
   0.607E-02 -.610E+00 0.155E+04   -.304E-01 0.604E+00 -.155E+04   0.213E-01 0.301E-01 -.418E+00   -.141E-02 -.310E-02 -.174E-02
   -.950E-01 -.623E+00 0.155E+04   0.751E-01 0.592E+00 -.155E+04   0.298E-01 0.461E-01 -.446E+00   0.965E-03 -.259E-02 -.212E-02
   0.744E-01 -.527E+00 0.155E+04   -.598E-01 0.520E+00 -.155E+04   -.179E-01 0.450E-02 -.460E+00   0.968E-03 -.207E-02 -.146E-02
   0.205E-01 -.551E+00 0.155E+04   -.416E-03 0.540E+00 -.155E+04   -.168E-01 0.147E-01 -.404E+00   -.517E-03 -.244E-02 -.109E-02
   0.134E+00 0.235E+01 0.229E+02   -.123E+00 -.234E+01 -.229E+02   -.118E-01 -.466E-01 0.365E-01   -.244E-02 0.214E-02 0.624E-04
   0.856E+00 0.149E+01 0.228E+02   -.867E+00 -.142E+01 -.227E+02   -.811E-02 -.840E-01 0.311E-02   0.465E-03 0.268E-02 0.118E-02
   -.262E+00 0.228E+01 0.237E+02   0.256E+00 -.234E+01 -.238E+02   0.388E-02 0.209E-01 0.445E-01   0.213E-02 0.248E-02 0.277E-03
   -.399E+00 0.183E+01 0.219E+02   0.388E+00 -.187E+01 -.219E+02   0.213E-01 0.621E-02 0.134E+00   -.153E-03 0.232E-02 -.561E-04
   -.447E+00 0.190E+01 0.256E+02   0.472E+00 -.192E+01 -.256E+02   -.752E-02 0.184E-01 0.747E-01   -.182E-02 0.176E-02 -.549E-03
   -.119E+01 -.301E+01 0.226E+02   0.117E+01 0.297E+01 -.227E+02   0.310E-01 0.629E-01 0.905E-01   -.784E-03 0.186E-02 -.311E-03
   0.212E+01 -.288E+01 0.234E+02   -.210E+01 0.288E+01 -.234E+02   -.254E-01 0.185E-01 0.897E-01   0.155E-02 0.182E-02 -.131E-04
   -.173E+00 0.175E+01 0.256E+02   0.152E+00 -.173E+01 -.257E+02   0.159E-01 -.161E-01 0.926E-01   0.106E-02 0.142E-02 -.847E-03
   -.262E+00 -.137E+00 0.265E+02   0.258E+00 0.141E+00 -.266E+02   -.620E-02 -.312E-01 0.647E-01   0.568E-03 -.104E-02 -.543E-03
   -.498E+01 0.149E+01 0.237E+02   0.498E+01 -.147E+01 -.237E+02   0.561E-01 -.491E-01 0.995E-01   -.141E-02 0.103E-02 -.197E-03
   0.870E+00 0.121E+01 0.185E+02   -.870E+00 -.122E+01 -.184E+02   -.673E-02 -.125E-01 0.895E-01   -.113E-03 0.101E-02 -.216E-02
   0.475E+01 0.195E+01 0.248E+02   -.475E+01 -.195E+01 -.248E+02   -.526E-01 -.230E-01 0.707E-01   0.955E-03 -.162E-02 -.348E-02
   -.881E+00 -.202E+01 0.261E+02   0.798E+00 0.198E+01 -.261E+02   0.411E-01 0.258E-01 0.692E-01   0.145E-02 -.234E-02 -.293E-02
   -.208E-01 -.165E+01 0.249E+02   0.101E+00 0.158E+01 -.249E+02   -.458E-01 0.126E-01 0.866E-01   0.109E-02 -.217E-02 0.240E-03
   -.218E+01 0.271E+01 0.245E+02   0.216E+01 -.273E+01 -.245E+02   0.345E-01 -.545E-02 0.708E-01   -.713E-03 -.110E-02 -.755E-03
   0.330E+01 0.206E+01 0.251E+02   -.327E+01 -.207E+01 -.251E+02   -.412E-01 -.438E-01 0.331E-01   -.182E-02 -.101E-02 -.345E-02
   -.642E+00 -.244E+01 0.239E+02   0.646E+00 0.242E+01 -.239E+02   -.589E-02 -.113E-01 0.679E-01   -.779E-03 -.232E-02 -.613E-03
   -.390E+00 -.196E+01 0.220E+02   0.398E+00 0.196E+01 -.221E+02   -.991E-02 -.424E-01 0.140E+00   0.162E-02 -.186E-02 -.269E-03
   0.142E+01 -.151E+01 0.239E+02   -.146E+01 0.155E+01 -.240E+02   0.996E-02 -.574E-01 0.676E-01   0.355E-03 -.226E-02 -.554E-03
   -.155E+00 -.217E+01 0.242E+02   0.167E+00 0.215E+01 -.242E+02   -.427E-02 -.429E-02 0.260E-01   -.120E-02 -.300E-02 -.117E-02
   0.318E+00 -.212E+00 0.212E+02   -.309E+00 0.213E+00 -.213E+02   -.124E-01 -.156E-01 0.579E-01   -.110E-02 -.592E-03 0.243E-03
   -.360E+00 0.398E+00 0.217E+02   0.345E+00 -.407E+00 -.217E+02   -.261E-02 0.202E-02 0.161E-01   0.153E-02 -.923E-04 0.101E-02
   0.462E+00 -.376E-02 0.216E+02   -.460E+00 0.722E-02 -.216E+02   0.773E-02 -.133E-01 0.375E-01   0.106E-02 0.499E-03 0.232E-03
   -.385E+00 -.638E+00 0.216E+02   0.382E+00 0.667E+00 -.216E+02   -.289E-02 -.435E-01 0.489E-01   -.149E-02 0.361E-03 -.352E-03
   -.345E-02 0.426E+01 -.150E+04   0.123E-02 -.425E+01 0.150E+04   0.143E-02 -.237E-01 0.463E+00   -.208E-03 0.173E-02 0.356E-02
   -.425E+00 0.508E+01 -.150E+04   0.406E+00 -.512E+01 0.150E+04   0.169E-01 0.274E-01 0.466E+00   0.384E-03 0.140E-02 0.276E-02
   -.102E+01 0.304E+01 -.150E+04   0.109E+01 -.301E+01 0.150E+04   -.632E-01 -.333E-01 0.399E+00   0.101E-02 0.567E-03 0.157E-02
   0.588E+00 0.264E+01 -.150E+04   -.610E+00 -.258E+01 0.150E+04   0.254E-01 -.616E-01 0.401E+00   -.119E-02 0.128E-02 0.286E-02
   0.162E+01 0.807E+01 -.149E+04   -.166E+01 -.806E+01 0.149E+04   0.317E-01 -.120E-01 0.449E+00   -.109E-02 0.673E-03 0.180E-02
   0.287E+00 0.459E+01 -.149E+04   -.282E+00 -.421E+01 0.149E+04   -.617E-02 -.383E+00 0.818E-01   0.699E-03 0.367E-03 0.199E-02
   -.189E+01 0.868E+01 -.149E+04   0.193E+01 -.869E+01 0.149E+04   -.401E-01 0.828E-02 0.442E+00   -.102E-03 0.471E-03 -.342E-03
   -.472E+00 0.686E+01 -.150E+04   0.466E+00 -.692E+01 0.150E+04   0.477E-02 0.549E-01 0.512E+00   0.502E-03 0.126E-02 0.350E-03
   0.272E+01 0.850E+00 -.148E+04   -.264E+01 -.837E+00 0.148E+04   -.817E-01 -.164E-01 0.419E+00   -.103E-02 0.344E-03 -.690E-03
   -.313E+00 0.639E+00 -.150E+04   0.340E+00 -.631E+00 0.150E+04   -.246E-01 -.920E-02 0.462E+00   -.159E-02 -.679E-03 -.954E-03
   0.119E+01 0.198E+01 -.150E+04   -.123E+01 -.193E+01 0.150E+04   0.467E-01 -.481E-01 0.537E+00   -.805E-03 -.494E-02 -.359E-02
   -.387E+01 0.175E+01 -.148E+04   0.383E+01 -.175E+01 0.148E+04   0.364E-01 0.848E-02 0.469E+00   0.340E-02 -.294E-02 -.233E-02
   -.171E+01 -.404E+01 -.149E+04   0.177E+01 0.410E+01 0.149E+04   -.659E-01 -.644E-01 0.570E+00   0.468E-02 -.145E-02 -.200E-02
   -.327E+00 -.152E+01 -.148E+04   0.605E+00 0.135E+01 0.148E+04   -.277E+00 0.171E+00 0.283E-01   -.166E-02 0.818E-03 -.205E-02
   0.130E+01 -.195E+00 -.149E+04   -.128E+01 0.142E+00 0.149E+04   -.172E-01 0.518E-01 0.421E+00   -.471E-02 0.132E-02 -.532E-02
   0.286E+00 -.179E+01 -.148E+04   -.612E+00 0.160E+01 0.148E+04   0.327E+00 0.188E+00 -.257E-02   0.163E-02 -.432E-03 -.514E-02
   -.400E+01 -.691E+01 -.150E+04   0.400E+01 0.692E+01 0.150E+04   0.174E-02 -.955E-02 0.477E+00   0.235E-02 0.143E-02 -.352E-03
   0.278E+01 -.665E+01 -.150E+04   -.276E+01 0.667E+01 0.150E+04   -.199E-01 -.159E-01 0.449E+00   0.156E-02 -.204E-02 0.433E-03
   0.286E+01 -.821E+01 -.149E+04   -.287E+01 0.820E+01 0.149E+04   0.155E-01 0.117E-01 0.470E+00   -.205E-02 -.218E-02 -.695E-03
   -.196E+01 -.976E+01 -.149E+04   0.196E+01 0.976E+01 0.149E+04   0.234E-02 -.507E-02 0.485E+00   -.184E-02 0.147E-02 -.182E-02
   -.617E+00 -.307E+01 -.150E+04   0.620E+00 0.311E+01 0.150E+04   -.567E-02 -.439E-01 0.409E+00   0.688E-03 0.417E-03 0.225E-02
   0.298E+00 -.994E+00 -.151E+04   -.285E+00 0.103E+01 0.151E+04   -.121E-01 -.330E-01 0.406E+00   0.902E-03 0.211E-03 0.186E-02
   0.138E+01 -.348E+01 -.150E+04   -.140E+01 0.357E+01 0.150E+04   0.178E-01 -.907E-01 0.362E+00   -.771E-03 0.433E-03 0.177E-02
   -.836E+00 -.422E+01 -.150E+04   0.839E+00 0.427E+01 0.150E+04   -.287E-02 -.484E-01 0.447E+00   -.818E-03 0.337E-03 0.179E-02
   0.153E+01 0.210E+01 -.307E+04   -.150E+01 -.196E+01 0.307E+04   -.276E-01 -.138E+00 0.142E+01   -.149E-02 0.207E-02 0.189E-02
   -.231E+01 0.818E+01 -.306E+04   0.226E+01 -.821E+01 0.306E+04   0.456E-01 0.269E-01 0.133E+01   -.244E-03 0.124E-02 0.139E-02
   0.111E+01 0.486E+01 -.307E+04   -.106E+01 -.485E+01 0.307E+04   -.499E-01 -.147E-01 0.140E+01   0.678E-03 0.271E-03 0.104E-02
   0.980E-01 0.144E+01 -.307E+04   -.677E-01 -.143E+01 0.307E+04   -.336E-01 -.144E-01 0.142E+01   0.107E-02 0.115E-02 0.145E-02
   0.707E+01 0.136E+02 -.306E+04   -.705E+01 -.135E+02 0.306E+04   -.133E-01 -.919E-01 0.141E+01   -.995E-04 -.193E-03 0.121E-02
   0.116E+02 0.330E+02 -.305E+04   -.115E+02 -.328E+02 0.304E+04   -.930E-01 -.152E+00 0.144E+01   -.267E-03 0.484E-03 0.110E-02
   -.133E+02 0.326E+02 -.304E+04   0.133E+02 -.325E+02 0.304E+04   0.914E-01 -.126E+00 0.143E+01   -.139E-02 0.617E-04 0.198E-03
   -.508E+01 0.145E+02 -.306E+04   0.513E+01 -.145E+02 0.306E+04   -.519E-01 -.492E-01 0.138E+01   0.181E-02 -.546E-03 0.604E-03
   -.699E-01 0.116E+02 -.306E+04   0.865E-01 -.115E+02 0.305E+04   -.179E-01 -.122E+00 0.127E+01   0.219E-02 -.169E-02 -.133E-03
   0.344E+02 0.236E+02 -.303E+04   -.351E+02 -.240E+02 0.303E+04   0.666E+00 0.394E+00 0.207E+01   -.135E-02 -.229E-02 0.985E-03
   -.148E+01 0.147E+03 -.296E+04   0.149E+01 -.148E+03 0.296E+04   -.365E-03 0.119E+01 0.956E+00   -.260E-02 -.535E-02 0.881E-03
   -.313E+02 0.242E+02 -.303E+04   0.321E+02 -.246E+02 0.303E+04   -.783E+00 0.443E+00 0.206E+01   0.176E-02 -.501E-02 -.632E-03
   -.272E+02 -.795E+01 -.304E+04   0.271E+02 0.804E+01 0.304E+04   0.123E+00 -.900E-01 0.148E+01   0.646E-02 -.236E-02 0.562E-03
   0.253E+02 -.943E+01 -.304E+04   -.252E+02 0.952E+01 0.304E+04   -.152E+00 -.990E-01 0.148E+01   -.668E-04 -.102E-02 -.189E-02
   0.128E+03 -.741E+02 -.296E+04   -.129E+03 0.747E+02 0.296E+04   0.916E+00 -.568E+00 0.892E+00   -.483E-02 -.152E-02 -.594E-03
   -.124E+03 -.714E+02 -.295E+04   0.125E+03 0.720E+02 0.295E+04   -.932E+00 -.551E+00 0.734E+00   -.860E-03 -.240E-02 -.361E-03
   -.208E+02 -.299E+02 -.305E+04   0.208E+02 0.297E+02 0.304E+04   -.493E-01 0.183E+00 0.148E+01   0.216E-02 0.475E-02 0.111E-02
   -.688E+00 -.150E+02 -.307E+04   0.737E+00 0.151E+02 0.307E+04   -.491E-01 -.736E-01 0.143E+01   0.290E-02 0.520E-03 -.148E-03
   0.195E+02 -.288E+02 -.305E+04   -.196E+02 0.286E+02 0.305E+04   0.541E-01 0.124E+00 0.149E+01   -.137E-02 0.537E-03 -.154E-02
   0.162E+01 -.446E+02 -.303E+04   -.160E+01 0.454E+02 0.302E+04   -.125E-01 -.818E+00 0.207E+01   -.361E-02 0.418E-02 -.107E-02
   -.377E+01 -.140E+02 -.306E+04   0.386E+01 0.139E+02 0.306E+04   -.843E-01 0.496E-01 0.134E+01   -.129E-03 0.267E-02 0.103E-02
   -.548E+01 -.516E+01 -.307E+04   0.541E+01 0.510E+01 0.307E+04   0.612E-01 0.576E-01 0.144E+01   0.935E-03 0.223E-02 0.713E-03
   0.495E+01 -.330E+01 -.307E+04   -.488E+01 0.334E+01 0.307E+04   -.736E-01 -.467E-01 0.142E+01   0.700E-03 0.973E-03 0.299E-03
   0.445E+01 -.130E+02 -.306E+04   -.449E+01 0.131E+02 0.306E+04   0.434E-01 -.671E-01 0.132E+01   -.150E-02 0.189E-02 0.122E-02
   -.203E+01 0.785E+00 -.237E+04   0.217E+01 -.732E+00 0.240E+04   -.144E+00 -.188E+00 -.267E+02   -.505E-02 -.569E-02 0.269E-02
 -----------------------------------------------------------------------------------------------
   0.248E+00 0.757E-01 0.244E+02   -.444E-13 -.225E-12 0.214E-10   -.208E+00 -.111E+00 -.243E+02   -.424E-02 -.524E-02 -.388E-01
 
 
 POSITION                                       TOTAL-FORCE (eV/Angst)
 -----------------------------------------------------------------------------------
      1.24451      0.71857      0.00000         0.004310     -0.000647      0.279984
      3.73354      0.71857      0.00000        -0.010842      0.012103      0.291211
      6.22256      0.71857      0.00000         0.001162      0.004989      0.286869
      8.71159      0.71857      0.00000         0.009886      0.002558      0.280063
      0.00006      2.87404      0.00000        -0.006655      0.012831      0.286467
      2.48908      2.87404      0.00000         0.009245      0.007363      0.277917
      4.97812      2.87404      0.00000        -0.003928      0.013524      0.281283
      7.46714      2.87404      0.00000         0.005824      0.012508      0.295582
     -1.24448      5.02963      0.00000        -0.007479      0.026836      0.300144
      1.24455      5.02963      0.00000         0.009534      0.003107      0.272387
      3.73357      5.02963      0.00000        -0.012200      0.028753      0.277526
      6.22260      5.02963      0.00000        -0.000704     -0.001199      0.278158
     -2.48901      7.18523      0.00000        -0.007481      0.013979      0.273816
      0.00001      7.18523      0.00000         0.002387      0.010707      0.263483
      2.48904      7.18523      0.00000         0.003558     -0.001347      0.273003
      4.97806      7.18523      0.00000         0.008155      0.008483      0.277498
     -3.73347      9.34069      0.00000         0.012133      0.003530      0.288273
     -1.24445      9.34069      0.00000        -0.009569     -0.010794      0.286749
      1.24458      9.34069      0.00000         0.003834      0.008518      0.279698
      3.73361      9.34069      0.00000        -0.007880      0.012612      0.294220
     -4.97800     11.49629      0.00000        -0.000711      0.035934      0.292235
     -2.48898     11.49629      0.00000        -0.010618     -0.010469      0.281395
      0.00005     11.49629      0.00000        -0.002802      0.026729      0.296068
      2.48907     11.49629      0.00000         0.008426      0.002986      0.280489
      0.00000      0.00000      2.03235        -0.003872     -0.002743     -0.316715
      2.48903      0.00000      2.03235         0.000536     -0.015161     -0.338628
      4.97805      0.00000      2.03235         0.013971      0.028064     -0.302450
      7.46708      0.00000      2.03235         0.010580      0.023798     -0.321853
     -1.24453      2.15559      2.03235        -0.001532      0.004615     -0.337649
      1.24449      2.15559      2.03235        -0.007450      0.003390     -0.307849
      3.73352      2.15559      2.03235         0.005524      0.015306     -0.312999
      6.22254      2.15559      2.03235         0.009454      0.008073     -0.327504
     -2.48899      4.31106      2.03235         0.004236      0.012082     -0.359597
      0.00003      4.31106      2.03235        -0.002634      0.014298     -0.306099
      2.48906      4.31106      2.03235         0.004031      0.027291     -0.323816
      4.97809      4.31106      2.03235         0.006316      0.015669     -0.322680
     -3.73352      6.46665      2.03235        -0.004775      0.032039     -0.335606
     -1.24450      6.46665      2.03235         0.006508      0.020350     -0.347326
      1.24452      6.46665      2.03235         0.001067      0.019226     -0.299751
      3.73355      6.46665      2.03235        -0.007787      0.002019     -0.327404
     -4.97806      8.62225      2.03235         0.010878      0.010223     -0.319703
     -2.48903      8.62225      2.03235         0.010554      0.043727     -0.392716
     -0.00001      8.62225      2.03235         0.001641      0.011986     -0.314443
      2.48902      8.62225      2.03235        -0.002422      0.011702     -0.310580
     -6.22251     10.77771      2.03235        -0.004802      0.021024     -0.317935
     -3.73349     10.77771      2.03235         0.010647      0.013087     -0.332768
     -1.24447     10.77771      2.03235        -0.002512     -0.004612     -0.324770
      1.24456     10.77771      2.03235         0.002402      0.001323     -0.317214
     -0.00002      1.43702      4.06448        -0.003953     -0.030725      0.014070
      2.48900      1.43702      4.06448        -0.018837     -0.006303      0.073604
      4.97803      1.43702      4.06448         0.000027     -0.026429      0.000650
      7.46706      1.43702      4.06448         0.009878     -0.034233      0.045213
     -1.24456      3.59261      4.06448         0.015198     -0.002366      0.025523
      1.24447      3.59261      4.06448         0.005652      0.020438      0.071159
      3.73349      3.59261      4.06448        -0.004932      0.020413      0.085285
      6.22252      3.59261      4.06448        -0.005026      0.006938      0.022214
     -2.48901      5.74808      4.06448        -0.010368     -0.028082      0.026603
      0.00001      5.74808      4.06448         0.052742     -0.024006      0.060805
      2.48904      5.74808      4.06448        -0.007219     -0.025238      0.159652
      4.97806      5.74808      4.06448        -0.052527     -0.024234      0.064461
     -3.73355      7.90367      4.06448        -0.040942     -0.016130      0.071467
     -1.24452      7.90367      4.06448         0.034892     -0.055830      0.082224
      1.24450      7.90367      4.06448         0.010374     -0.028646      0.053967
      3.73353      7.90367      4.06448        -0.007066     -0.049308      0.053650
     -4.97808     10.05927      4.06448        -0.002994     -0.026952      0.030555
     -2.48906     10.05927      4.06448        -0.000092     -0.045595      0.037689
     -0.00003     10.05927      4.06448        -0.024603     -0.023927      0.006246
      2.48899     10.05927      4.06448         0.006165     -0.026307      0.000289
     -6.22254     12.21474      4.06448        -0.005138     -0.014696      0.001665
     -3.73352     12.21473      4.06448        -0.015824     -0.006299      0.014594
     -1.24449     12.21474      4.06448         0.010358     -0.009014      0.006227
      1.24453     12.21474      4.06448        -0.007521     -0.014413      0.010056
      1.23648      0.70406      6.11531        -0.001285     -0.004603     -0.000973
      3.72983      0.70999      6.10998        -0.001702     -0.004547     -0.000909
      6.21753      0.70930      6.11353        -0.001770     -0.002485     -0.000931
      8.70520      0.70326      6.11610         0.000988     -0.000300      0.000034
     -0.00607      2.85953      6.10711        -0.001168      0.000579      0.000308
      2.48362      2.86922      6.11105        -0.000209      0.005761      0.010173
      4.97191      2.86656      6.10463         0.002254     -0.000951      0.000716
      7.46259      2.86500      6.11516        -0.000892     -0.002100      0.004026
     -1.24800      5.02141      6.10679        -0.000113     -0.003054      0.003349
      1.23987      5.02092      6.15200        -0.000113     -0.001738      0.000534
      3.72739      5.02436      6.14779         0.001285      0.000090      0.002236
      6.21461      5.02331      6.10980         0.001128     -0.000691      0.001189
     -2.49488      7.18130      6.11428         0.000096     -0.001245      0.004558
     -0.00555      7.17767      6.11164        -0.001473     -0.000857     -0.005622
      2.48496      7.18054      6.14165         0.000243      0.000095     -0.008148
      4.97809      7.18110      6.10586         0.001689      0.002136     -0.002333
     -3.73447      9.33846      6.11485        -0.000138     -0.002916     -0.002385
     -1.25178      9.33222      6.11847         0.001623     -0.002316      0.002446
      1.23628      9.32996      6.10496         0.002797     -0.002397     -0.003538
      3.73460      9.33112      6.10737        -0.000986     -0.001847     -0.000199
     -4.97687     11.48876      6.11358        -0.002415     -0.000873      0.002257
     -2.49040     11.48968      6.11781         0.001176      0.000188      0.001055
     -0.00610     11.48429      6.11047         0.000550     -0.000883      0.003441
      2.48395     11.48433      6.11769        -0.000935     -0.000821      0.002724
      2.48364     12.91697      8.08822        -0.000975      0.000132     -0.001425
     -4.97871     12.93049      8.08002        -0.000358     -0.000770      0.000860
     -2.48642     12.92422      8.08091        -0.001281     -0.004023     -0.000305
     -0.00951     12.91852      8.08324        -0.002583     -0.005028     -0.001240
      8.70385      2.12998      8.08148         0.002502      0.001131      0.000835
      1.23892      2.13717      8.07506        -0.002267     -0.000057      0.000682
      3.72800      2.14120      8.07294         0.000353      0.003648      0.001563
      6.22552      2.13873      8.07849        -0.003228     -0.001993      0.001195
      7.46435      4.30874      8.07190         0.000590     -0.002367      0.002404
     -0.03950      4.27226      8.07126        -0.001860     -0.004272      0.000859
      2.47570      4.26450      8.18900         0.006899      0.080472      0.050496
      5.01035      4.27504      8.07274        -0.001103     -0.005503     -0.000818
      6.21863      6.45567      8.07134         0.001300     -0.002164      0.000680
     -1.24558      6.44994      8.07267        -0.000510     -0.005384     -0.002681
      1.21755      6.47526      8.18409        -0.032326      0.016263     -0.023609
      3.76831      6.49238      8.17540         0.040481      0.020850     -0.034826
     -4.97762      8.62380      8.07209         0.003554      0.001089     -0.001124
     -2.49280      8.60420      8.08460         0.002277      0.000846      0.000777
     -0.00615      8.61463      8.07440        -0.002230      0.002563     -0.002189
      2.48562      8.66946      8.06865         0.002337      0.004655      0.000334
     -6.21642     10.78264      8.07882         0.001408     -0.000991     -0.002586
     -3.73581     10.77549      8.08537        -0.000341     -0.001507      0.000345
     -1.24774     10.77154      8.08334        -0.000969     -0.000822      0.002739
      1.23307     10.77875      8.07680        -0.001050      0.000206     -0.001435
      2.51135      5.75795      9.32935        -0.007640     -0.140628      0.000131
 -----------------------------------------------------------------------------------
    total drift:                                0.035117     -0.040904      0.047112


--------------------------------------------------------------------------------------------------------



  FREE ENERGIE OF THE ION-ELECTRON SYSTEM (eV)
  ---------------------------------------------------
  free  energy   TOTEN  =      -817.087445 eV

  energy  without entropy=     -816.840613  energy(sigma->0) =     -817.025737
 
 d Force =-0.7740748E-04[-0.297E-02, 0.281E-02]  d Energy =-0.2786916E-04-0.495E-04
 d Force = 0.7445606E-01[ 0.287E-01, 0.120E+00]  d Ewald  = 0.7486192E-01-0.406E-03


--------------------------------------------------------------------------------------------------------


    POTLOK:  cpu time    0.44: real time    0.44


--------------------------------------------------------------------------------------------------------


 stress matrix after NEB project (eV)
    -62.16961      3.81221     -0.41673
      3.81213    -30.87286     -1.51370
     -0.41671     -1.51344    -13.36920
  FORCES: max atom, RMS     0.140836    0.012803
  FORCE total and by dimension    0.140836    0.140628
  Stress total and by dimension   70.929005   62.169610
 Finite differences progress:
  Degree of freedom:   2/  3
  Displacement:        1/  2
  Total:               3/  6
  LATTYP: Found a simple monoclinic cell.
 ALAT       =    17.9486009422
 B/A-ratio  =     1.2886297308
 C/A-ratio  =     1.4411545266
 COS(beta)  =    -0.9607691321
  
  Lattice vectors:
  
 A1 = ( -12.4451508522, -12.9333095551,   0.0000000000)
 A2 = (   0.0000000000,   0.0000000000, -23.1291007996)
 A3 = (  22.4012513161,  12.9333095551,   0.0000000000)
 Subroutine PRICEL returns:
 Original cell was already a primitive cell.
 

Analysis of symmetry for initial positions (statically):

 Routine SETGRP: Setting up the symmetry group for a 
 simple monoclinic supercell.


 Subroutine GETGRP returns: Found  1 space group operations
 (whereof  1 operations were pure point group operations)
 out of a pool of  4 trial point group operations.


The static configuration has the point symmetry C_1 .

Analysis of symmetry for dynamics (positions and initial velocities):

 Subroutine DYNSYM returns: Found  1 space group operations
 (whereof  1 operations were pure point group operations)
 out of a pool of  1 trial space group operations
 (whereof  1 operations were pure point group operations)
 and found also     1 'primitive' translations


The dynamic configuration has the point symmetry C_1 .

Analysis of constrained symmetry for selective dynamics:

 Subroutine DYNSYM returns: Found  1 space group operations
 (whereof  1 operations were pure point group operations)
 out of a pool of  1 trial space group operations
 (whereof  1 operations were pure point group operations)
 and found also     1 'primitive' translations


The constrained configuration has the point symmetry C_1 .

Analysis of magnetic symmetry:

 Subroutine MAGSYM returns: Found  1 space group operations
 (whereof  1 operations were pure point group operations)
 out of a pool of  1 trial space group operations
 (whereof  1 operations were pure point group operations)
 and found also     1 'primitive' translations


The magnetic configuration has the point symmetry C_1 .
 
 KPOINTS: k-points                                

Automatic generation of k-mesh.
 
 Subroutine IBZKPT returns following result:
 ===========================================
 
 Found      1 irreducible k-points:
 
 Following reciprocal coordinates:
            Coordinates               Weight
  0.000000  0.000000  0.000000      1.000000
 
 Following cartesian coordinates:
            Coordinates               Weight
  0.000000  0.000000  0.000000      1.000000
 
    WAVPRE:  cpu time    0.07: real time    0.07
    FEWALD:  cpu time    0.07: real time    0.07
    ORTHCH:  cpu time    2.56: real time    2.56
     LOOP+:  cpu time  260.83: real time  263.06


----------------------------------------- Iteration    5(   1)  ---------------------------------------


    POTLOK:  cpu time    0.35: real time    0.37
    SETDIJ:  cpu time    0.06: real time    0.06
     EDDAV:  cpu time   20.85: real time   20.94
       DOS:  cpu time    0.00: real time    0.00
    CHARGE:  cpu time    1.05: real time    1.06
    MIXING:  cpu time    0.01: real time    0.01
    --------------------------------------------
      LOOP:  cpu time   22.31: real time   22.44

 eigenvalue-minimisations  :  2944
 total energy-change (2. order) : 0.1363431E-01  (-0.8789494E+00)
 number of electron    1085.9999556 magnetization     202.1260791
 augmentation part      617.3057465 magnetization     179.6604086

 Broyden mixing:
  rms(total) = 0.57344E-01    rms(broyden)= 0.57282E-01
  rms(prec ) = 0.58092E-01
  weight for this iteration     100.00

 Free energy of the ion-electron system (eV)
  ---------------------------------------------------
  alpha Z        PSCENC =      2067.85644204
  Ewald energy   TEWEN  =    423773.26270409
  -1/2 Hartree   DENC   =   -519601.94589148
  -exchange  EXHF       =         0.00000000
  -V(xc)+E(xc)   XCENC  =      1982.15636863
  PAW double counting   =    106757.45666767  -113112.74226008
  entropy T*S    EENTRO =        -0.24650362
  eigenvalues    EBANDS =      -718.82398518
  atomic energy  EATOM  =     98035.95264826
  ---------------------------------------------------
  free energy    TOTEN  =      -817.07380967 eV

  energy without entropy =     -816.82730605  energy(sigma->0) =     -817.01218377


--------------------------------------------------------------------------------------------------------




----------------------------------------- Iteration    5(   2)  ---------------------------------------


    POTLOK:  cpu time    0.35: real time    0.35
    SETDIJ:  cpu time    0.05: real time    0.05
    EDDIAG:  cpu time    4.37: real time    4.38
  RMM-DIIS:  cpu time    7.22: real time    7.25
    ORTHCH:  cpu time    1.69: real time    1.69
       DOS:  cpu time    0.00: real time    0.00
    CHARGE:  cpu time    1.08: real time    1.08
    MIXING:  cpu time    0.01: real time    0.01
    --------------------------------------------
      LOOP:  cpu time   14.77: real time   14.82

 eigenvalue-minimisations  :  2959
 total energy-change (2. order) :-0.1889570E-01  (-0.1459015E-01)
 number of electron    1085.9999556 magnetization     202.1260127
 augmentation part      617.2974572 magnetization     179.6461828

 Broyden mixing:
  rms(total) = 0.12814E+00    rms(broyden)= 0.12813E+00
  rms(prec ) = 0.13748E+00
  weight for this iteration     100.00

 eigenvalues of (default mixing * dielectric matrix)
  average eigenvalue GAMMA=   0.0596
  0.0596

 Free energy of the ion-electron system (eV)
  ---------------------------------------------------
  alpha Z        PSCENC =      2067.85644204
  Ewald energy   TEWEN  =    423773.26270409
  -1/2 Hartree   DENC   =   -519602.25535598
  -exchange  EXHF       =         0.00000000
  -V(xc)+E(xc)   XCENC  =      1982.14581670
  PAW double counting   =    106757.91325971  -113113.24381245
  entropy T*S    EENTRO =        -0.24682158
  eigenvalues    EBANDS =      -718.47758616
  atomic energy  EATOM  =     98035.95264826
  ---------------------------------------------------
  free energy    TOTEN  =      -817.09270537 eV

  energy without entropy =     -816.84588380  energy(sigma->0) =     -817.03099998


--------------------------------------------------------------------------------------------------------




----------------------------------------- Iteration    5(   3)  ---------------------------------------


    POTLOK:  cpu time    0.36: real time    0.37
    SETDIJ:  cpu time    0.05: real time    0.05
    EDDIAG:  cpu time    4.40: real time    4.42
  RMM-DIIS:  cpu time    7.18: real time    7.28
    ORTHCH:  cpu time    1.69: real time    1.69
       DOS:  cpu time    0.00: real time    0.00
    CHARGE:  cpu time    1.06: real time    1.06
    MIXING:  cpu time    0.01: real time    0.01
    --------------------------------------------
      LOOP:  cpu time   14.76: real time   14.89

 eigenvalue-minimisations  :  2966
 total energy-change (2. order) : 0.5171624E-02  (-0.1048466E-02)
 number of electron    1085.9999556 magnetization     202.1231723
 augmentation part      617.2998345 magnetization     179.6536989

 Broyden mixing:
  rms(total) = 0.36841E-01    rms(broyden)= 0.36834E-01
  rms(prec ) = 0.38664E-01
  weight for this iteration     100.00

 eigenvalues of (default mixing * dielectric matrix)
  average eigenvalue GAMMA=   0.5244
  0.9346  0.1141

 Free energy of the ion-electron system (eV)
  ---------------------------------------------------
  alpha Z        PSCENC =      2067.85644204
  Ewald energy   TEWEN  =    423773.26270409
  -1/2 Hartree   DENC   =   -519602.05747478
  -exchange  EXHF       =         0.00000000
  -V(xc)+E(xc)   XCENC  =      1982.14708001
  PAW double counting   =    106757.88989476  -113113.21360447
  entropy T*S    EENTRO =        -0.24627504
  eigenvalues    EBANDS =      -718.67894862
  atomic energy  EATOM  =     98035.95264826
  ---------------------------------------------------
  free energy    TOTEN  =      -817.08753375 eV

  energy without entropy =     -816.84125871  energy(sigma->0) =     -817.02596499


--------------------------------------------------------------------------------------------------------




----------------------------------------- Iteration    5(   4)  ---------------------------------------


    POTLOK:  cpu time    0.37: real time    0.37
    SETDIJ:  cpu time    0.05: real time    0.05
    EDDIAG:  cpu time    4.41: real time    4.42
  RMM-DIIS:  cpu time    7.23: real time    7.26
    ORTHCH:  cpu time    1.69: real time    1.69
       DOS:  cpu time    0.00: real time    0.00
    CHARGE:  cpu time    1.03: real time    1.06
    MIXING:  cpu time    0.01: real time    0.01
    --------------------------------------------
      LOOP:  cpu time   14.79: real time   14.86

 eigenvalue-minimisations  :  2973
 total energy-change (2. order) :-0.1013563E-01  (-0.4745919E-03)
 number of electron    1085.9999558 magnetization     202.1225812
 augmentation part      617.3036003 magnetization     179.6407389

 Broyden mixing:
  rms(total) = 0.14086E+00    rms(broyden)= 0.14086E+00
  rms(prec ) = 0.19356E+00
  weight for this iteration     100.00

 eigenvalues of (default mixing * dielectric matrix)
  average eigenvalue GAMMA=   0.4255
  1.0678  0.1190  0.0896

 Free energy of the ion-electron system (eV)
  ---------------------------------------------------
  alpha Z        PSCENC =      2067.85644204
  Ewald energy   TEWEN  =    423773.26270409
  -1/2 Hartree   DENC   =   -519602.38944506
  -exchange  EXHF       =         0.00000000
  -V(xc)+E(xc)   XCENC  =      1982.14301223
  PAW double counting   =    106757.72514912  -113113.00520713
  entropy T*S    EENTRO =        -0.24983139
  eigenvalues    EBANDS =      -718.39314155
  atomic energy  EATOM  =     98035.95264826
  ---------------------------------------------------
  free energy    TOTEN  =      -817.09766938 eV

  energy without entropy =     -816.84783799  energy(sigma->0) =     -817.03521154


--------------------------------------------------------------------------------------------------------




----------------------------------------- Iteration    5(   5)  ---------------------------------------


    POTLOK:  cpu time    0.37: real time    0.37
    SETDIJ:  cpu time    0.05: real time    0.05
    EDDIAG:  cpu time    4.40: real time    4.41
  RMM-DIIS:  cpu time    7.24: real time    7.26
    ORTHCH:  cpu time    1.67: real time    1.68
       DOS:  cpu time    0.00: real time    0.00
    CHARGE:  cpu time    1.06: real time    1.06
    MIXING:  cpu time    0.01: real time    0.01
    --------------------------------------------
      LOOP:  cpu time   14.80: real time   14.84

 eigenvalue-minimisations  :  2973
 total energy-change (2. order) : 0.9543657E-02  (-0.2884140E-03)
 number of electron    1085.9999555 magnetization     202.1211206
 augmentation part      617.3040233 magnetization     179.6536962

 Broyden mixing:
  rms(total) = 0.45389E-01    rms(broyden)= 0.45377E-01
  rms(prec ) = 0.61142E-01
  weight for this iteration     100.00

 eigenvalues of (default mixing * dielectric matrix)
  average eigenvalue GAMMA=   0.4575
  1.2670  0.3776  0.1146  0.0708

 Free energy of the ion-electron system (eV)
  ---------------------------------------------------
  alpha Z        PSCENC =      2067.85644204
  Ewald energy   TEWEN  =    423773.26270409
  -1/2 Hartree   DENC   =   -519602.25342856
  -exchange  EXHF       =         0.00000000
  -V(xc)+E(xc)   XCENC  =      1982.14506589
  PAW double counting   =    106757.74213350  -113113.01564063
  entropy T*S    EENTRO =        -0.24587489
  eigenvalues    EBANDS =      -718.53217542
  atomic energy  EATOM  =     98035.95264826
  ---------------------------------------------------
  free energy    TOTEN  =      -817.08812573 eV

  energy without entropy =     -816.84225083  energy(sigma->0) =     -817.02665700


--------------------------------------------------------------------------------------------------------




----------------------------------------- Iteration    5(   6)  ---------------------------------------


    POTLOK:  cpu time    0.36: real time    0.37
    SETDIJ:  cpu time    0.07: real time    0.07
    EDDIAG:  cpu time    4.40: real time    4.44
  RMM-DIIS:  cpu time    7.22: real time    7.26
    ORTHCH:  cpu time    1.69: real time    1.69
       DOS:  cpu time    0.00: real time    0.00
    CHARGE:  cpu time    1.07: real time    1.08
    MIXING:  cpu time    0.01: real time    0.01
    --------------------------------------------
      LOOP:  cpu time   14.83: real time   14.92

 eigenvalue-minimisations  :  2955
 total energy-change (2. order) :-0.2336718E-02  (-0.3441693E-03)
 number of electron    1085.9999557 magnetization     202.1175845
 augmentation part      617.3038617 magnetization     179.6506577

 Broyden mixing:
  rms(total) = 0.86897E-01    rms(broyden)= 0.86895E-01
  rms(prec ) = 0.10384E+00
  weight for this iteration     100.00

 eigenvalues of (default mixing * dielectric matrix)
  average eigenvalue GAMMA=   0.6078
  1.9959  0.7534  0.1202  0.1030  0.0667

 Free energy of the ion-electron system (eV)
  ---------------------------------------------------
  alpha Z        PSCENC =      2067.85644204
  Ewald energy   TEWEN  =    423773.26270409
  -1/2 Hartree   DENC   =   -519601.62843834
  -exchange  EXHF       =         0.00000000
  -V(xc)+E(xc)   XCENC  =      1982.14469455
  PAW double counting   =    106757.66792571  -113112.94637456
  entropy T*S    EENTRO =        -0.24664811
  eigenvalues    EBANDS =      -719.15341608
  atomic energy  EATOM  =     98035.95264826
  ---------------------------------------------------
  free energy    TOTEN  =      -817.09046244 eV

  energy without entropy =     -816.84381433  energy(sigma->0) =     -817.02880042


--------------------------------------------------------------------------------------------------------




----------------------------------------- Iteration    5(   7)  ---------------------------------------


    POTLOK:  cpu time    0.36: real time    0.37
    SETDIJ:  cpu time    0.05: real time    0.05
    EDDIAG:  cpu time    4.34: real time    4.38
  RMM-DIIS:  cpu time    7.33: real time    7.43
    ORTHCH:  cpu time    1.68: real time    1.68
       DOS:  cpu time    0.00: real time    0.00
    CHARGE:  cpu time    1.05: real time    1.05
    MIXING:  cpu time    0.01: real time    0.01
    --------------------------------------------
      LOOP:  cpu time   14.82: real time   14.97

 eigenvalue-minimisations  :  2963
 total energy-change (2. order) : 0.1751760E-02  (-0.1947929E-03)
 number of electron    1085.9999556 magnetization     202.1168548
 augmentation part      617.2980086 magnetization     179.6436764

 Broyden mixing:
  rms(total) = 0.63206E-01    rms(broyden)= 0.63203E-01
  rms(prec ) = 0.72923E-01
  weight for this iteration     100.00

 eigenvalues of (default mixing * dielectric matrix)
  average eigenvalue GAMMA=   0.5561
  2.1352  0.7940  0.1344  0.0665  0.1103  0.0961

 Free energy of the ion-electron system (eV)
  ---------------------------------------------------
  alpha Z        PSCENC =      2067.85644204
  Ewald energy   TEWEN  =    423773.26270409
  -1/2 Hartree   DENC   =   -519602.69827005
  -exchange  EXHF       =         0.00000000
  -V(xc)+E(xc)   XCENC  =      1982.14165799
  PAW double counting   =    106757.66880060  -113112.96827836
  entropy T*S    EENTRO =        -0.24687571
  eigenvalues    EBANDS =      -718.05753954
  atomic energy  EATOM  =     98035.95264826
  ---------------------------------------------------
  free energy    TOTEN  =      -817.08871068 eV

  energy without entropy =     -816.84183497  energy(sigma->0) =     -817.02699176


--------------------------------------------------------------------------------------------------------




----------------------------------------- Iteration    5(   8)  ---------------------------------------


    POTLOK:  cpu time    0.35: real time    0.35
    SETDIJ:  cpu time    0.05: real time    0.05
    EDDIAG:  cpu time    4.34: real time    4.38
  RMM-DIIS:  cpu time    7.19: real time    7.25
    ORTHCH:  cpu time    1.65: real time    1.68
       DOS:  cpu time    0.00: real time    0.00
    CHARGE:  cpu time    1.06: real time    1.07
    MIXING:  cpu time    0.01: real time    0.01
    --------------------------------------------
      LOOP:  cpu time   14.65: real time   14.79

 eigenvalue-minimisations  :  2958
 total energy-change (2. order) : 0.1449355E-02  (-0.1035756E-03)
 number of electron    1085.9999556 magnetization     202.1158589
 augmentation part      617.2975626 magnetization     179.6428413

 Broyden mixing:
  rms(total) = 0.12036E-01    rms(broyden)= 0.12031E-01
  rms(prec ) = 0.13702E-01
  weight for this iteration     100.00

 eigenvalues of (default mixing * dielectric matrix)
  average eigenvalue GAMMA=   0.5853
  2.2659  0.8986  0.5421  0.1252  0.1114  0.0663  0.0880

 Free energy of the ion-electron system (eV)
  ---------------------------------------------------
  alpha Z        PSCENC =      2067.85644204
  Ewald energy   TEWEN  =    423773.26270409
  -1/2 Hartree   DENC   =   -519602.45442446
  -exchange  EXHF       =         0.00000000
  -V(xc)+E(xc)   XCENC  =      1982.14193012
  PAW double counting   =    106757.61867773  -113112.91422160
  entropy T*S    EENTRO =        -0.24686533
  eigenvalues    EBANDS =      -718.30415218
  atomic energy  EATOM  =     98035.95264826
  ---------------------------------------------------
  free energy    TOTEN  =      -817.08726133 eV

  energy without entropy =     -816.84039600  energy(sigma->0) =     -817.02554500


--------------------------------------------------------------------------------------------------------




----------------------------------------- Iteration    5(   9)  ---------------------------------------


    POTLOK:  cpu time    0.35: real time    0.35
    SETDIJ:  cpu time    0.05: real time    0.05
    EDDIAG:  cpu time    4.37: real time    4.39
  RMM-DIIS:  cpu time    7.14: real time    7.24
    ORTHCH:  cpu time    1.68: real time    1.68
       DOS:  cpu time    0.00: real time    0.00
    CHARGE:  cpu time    1.03: real time    1.06
    MIXING:  cpu time    0.01: real time    0.01
    --------------------------------------------
      LOOP:  cpu time   14.63: real time   14.79

 eigenvalue-minimisations  :  2960
 total energy-change (2. order) :-0.2415271E-03  (-0.3335461E-04)
 number of electron    1085.9999556 magnetization     202.1150644
 augmentation part      617.3018609 magnetization     179.6475844

 Broyden mixing:
  rms(total) = 0.24554E-01    rms(broyden)= 0.24554E-01
  rms(prec ) = 0.27275E-01
  weight for this iteration     100.00

 eigenvalues of (default mixing * dielectric matrix)
  average eigenvalue GAMMA=   0.5614
  2.3370  1.0055  0.6428  0.0663  0.1238  0.1238  0.1052  0.0873

 Free energy of the ion-electron system (eV)
  ---------------------------------------------------
  alpha Z        PSCENC =      2067.85644204
  Ewald energy   TEWEN  =    423773.26270409
  -1/2 Hartree   DENC   =   -519602.02811657
  -exchange  EXHF       =         0.00000000
  -V(xc)+E(xc)   XCENC  =      1982.14423279
  PAW double counting   =    106757.49912509  -113112.76857032
  entropy T*S    EENTRO =        -0.24618631
  eigenvalues    EBANDS =      -718.75978193
  atomic energy  EATOM  =     98035.95264826
  ---------------------------------------------------
  free energy    TOTEN  =      -817.08750286 eV

  energy without entropy =     -816.84131655  energy(sigma->0) =     -817.02595628


--------------------------------------------------------------------------------------------------------




----------------------------------------- Iteration    5(  10)  ---------------------------------------


    POTLOK:  cpu time    0.35: real time    0.35
    SETDIJ:  cpu time    0.05: real time    0.05
    EDDIAG:  cpu time    4.36: real time    4.39
  RMM-DIIS:  cpu time    7.22: real time    7.26
    ORTHCH:  cpu time    1.67: real time    1.68
       DOS:  cpu time    0.00: real time    0.00
    CHARGE:  cpu time    1.07: real time    1.07
    MIXING:  cpu time    0.01: real time    0.01
    --------------------------------------------
      LOOP:  cpu time   14.73: real time   14.82

 eigenvalue-minimisations  :  2957
 total energy-change (2. order) : 0.2176053E-03  (-0.1489862E-04)
 number of electron    1085.9999556 magnetization     202.1146107
 augmentation part      617.3025729 magnetization     179.6449373

 Broyden mixing:
  rms(total) = 0.49135E-02    rms(broyden)= 0.49122E-02
  rms(prec ) = 0.55558E-02
  weight for this iteration     100.00

 eigenvalues of (default mixing * dielectric matrix)
  average eigenvalue GAMMA=   0.5286
  2.3409  1.0271  0.6520  0.2324  0.0663  0.1332  0.0867  0.1095  0.1095

 Free energy of the ion-electron system (eV)
  ---------------------------------------------------
  alpha Z        PSCENC =      2067.85644204
  Ewald energy   TEWEN  =    423773.26270409
  -1/2 Hartree   DENC   =   -519602.35019540
  -exchange  EXHF       =         0.00000000
  -V(xc)+E(xc)   XCENC  =      1982.14442291
  PAW double counting   =    106757.47491845  -113112.73495530
  entropy T*S    EENTRO =        -0.24684754
  eigenvalues    EBANDS =      -718.44642275
  atomic energy  EATOM  =     98035.95264826
  ---------------------------------------------------
  free energy    TOTEN  =      -817.08728525 eV

  energy without entropy =     -816.84043771  energy(sigma->0) =     -817.02557336


--------------------------------------------------------------------------------------------------------




----------------------------------------- Iteration    5(  11)  ---------------------------------------


    POTLOK:  cpu time    0.35: real time    0.35
    SETDIJ:  cpu time    0.05: real time    0.05
    EDDIAG:  cpu time    4.37: real time    4.38
  RMM-DIIS:  cpu time    7.16: real time    7.24
    ORTHCH:  cpu time    1.68: real time    1.68
       DOS:  cpu time    0.00: real time    0.00
    CHARGE:  cpu time    1.06: real time    1.06
    MIXING:  cpu time    0.01: real time    0.01
    --------------------------------------------
      LOOP:  cpu time   14.68: real time   14.78

 eigenvalue-minimisations  :  2951
 total energy-change (2. order) :-0.1308903E-04  (-0.2704190E-05)
 number of electron    1085.9999556 magnetization     202.1129547
 augmentation part      617.3023825 magnetization     179.6446547

 Broyden mixing:
  rms(total) = 0.51562E-02    rms(broyden)= 0.51559E-02
  rms(prec ) = 0.58986E-02
  weight for this iteration     100.00

 eigenvalues of (default mixing * dielectric matrix)
  average eigenvalue GAMMA=   0.5558
  2.3614  1.1387  0.8125  0.6314  0.0663  0.1316  0.0866  0.1184  0.1109  0.1005

 Free energy of the ion-electron system (eV)
  ---------------------------------------------------
  alpha Z        PSCENC =      2067.85644204
  Ewald energy   TEWEN  =    423773.26270409
  -1/2 Hartree   DENC   =   -519602.18490958
  -exchange  EXHF       =         0.00000000
  -V(xc)+E(xc)   XCENC  =      1982.14498860
  PAW double counting   =    106757.47463240  -113112.73665941
  entropy T*S    EENTRO =        -0.24651922
  eigenvalues    EBANDS =      -718.61062551
  atomic energy  EATOM  =     98035.95264826
  ---------------------------------------------------
  free energy    TOTEN  =      -817.08729834 eV

  energy without entropy =     -816.84077912  energy(sigma->0) =     -817.02566853


--------------------------------------------------------------------------------------------------------




----------------------------------------- Iteration    5(  12)  ---------------------------------------


    POTLOK:  cpu time    0.35: real time    0.35
    SETDIJ:  cpu time    0.05: real time    0.05
    EDDIAG:  cpu time    4.36: real time    4.39
  RMM-DIIS:  cpu time    7.09: real time    7.14
    ORTHCH:  cpu time    1.69: real time    1.69
       DOS:  cpu time    0.00: real time    0.00
    CHARGE:  cpu time    1.03: real time    1.06
    MIXING:  cpu time    0.01: real time    0.01
    --------------------------------------------
      LOOP:  cpu time   14.59: real time   14.70

 eigenvalue-minimisations  :  2930
 total energy-change (2. order) :-0.1537993E-04  (-0.1283619E-05)
 number of electron    1085.9999556 magnetization     202.1123203
 augmentation part      617.3007297 magnetization     179.6430816

 Broyden mixing:
  rms(total) = 0.43734E-02    rms(broyden)= 0.43732E-02
  rms(prec ) = 0.49594E-02
  weight for this iteration     100.00

 eigenvalues of (default mixing * dielectric matrix)
  average eigenvalue GAMMA=   0.5344
  2.3685  1.2401  0.8755  0.6391  0.1411  0.1411  0.0663  0.1174  0.1087  0.0868
  0.0941

 Free energy of the ion-electron system (eV)
  ---------------------------------------------------
  alpha Z        PSCENC =      2067.85644204
  Ewald energy   TEWEN  =    423773.26270409
  -1/2 Hartree   DENC   =   -519602.34806777
  -exchange  EXHF       =         0.00000000
  -V(xc)+E(xc)   XCENC  =      1982.14525283
  PAW double counting   =    106757.51413015  -113112.78641096
  entropy T*S    EENTRO =        -0.24675288
  eigenvalues    EBANDS =      -718.43725947
  atomic energy  EATOM  =     98035.95264826
  ---------------------------------------------------
  free energy    TOTEN  =      -817.08731372 eV

  energy without entropy =     -816.84056084  energy(sigma->0) =     -817.02562550


--------------------------------------------------------------------------------------------------------




----------------------------------------- Iteration    5(  13)  ---------------------------------------


    POTLOK:  cpu time    0.35: real time    0.35
    SETDIJ:  cpu time    0.05: real time    0.05
    EDDIAG:  cpu time    4.36: real time    4.38
  RMM-DIIS:  cpu time    6.96: real time    7.01
    ORTHCH:  cpu time    1.69: real time    1.69
       DOS:  cpu time    0.00: real time    0.00
    CHARGE:  cpu time    1.07: real time    1.08
    MIXING:  cpu time    0.01: real time    0.01
    --------------------------------------------
      LOOP:  cpu time   14.49: real time   14.58

 eigenvalue-minimisations  :  2868
 total energy-change (2. order) :-0.1932101E-05  (-0.8463625E-06)
 number of electron    1085.9999556 magnetization     202.1111489
 augmentation part      617.3005701 magnetization     179.6418174

 Broyden mixing:
  rms(total) = 0.23048E-02    rms(broyden)= 0.23046E-02
  rms(prec ) = 0.27067E-02
  weight for this iteration     100.00

 eigenvalues of (default mixing * dielectric matrix)
  average eigenvalue GAMMA=   0.5525
  2.3976  1.4442  0.9297  0.6558  0.4818  0.1363  0.0663  0.1202  0.1133  0.1057
  0.0866  0.0928

 Free energy of the ion-electron system (eV)
  ---------------------------------------------------
  alpha Z        PSCENC =      2067.85644204
  Ewald energy   TEWEN  =    423773.26270409
  -1/2 Hartree   DENC   =   -519602.34896224
  -exchange  EXHF       =         0.00000000
  -V(xc)+E(xc)   XCENC  =      1982.14538952
  PAW double counting   =    106757.51729735  -113112.79003950
  entropy T*S    EENTRO =        -0.24675513
  eigenvalues    EBANDS =      -718.43604004
  atomic energy  EATOM  =     98035.95264826
  ---------------------------------------------------
  free energy    TOTEN  =      -817.08731565 eV

  energy without entropy =     -816.84056052  energy(sigma->0) =     -817.02562687


--------------------------------------------------------------------------------------------------------




----------------------------------------- Iteration    5(  14)  ---------------------------------------


    POTLOK:  cpu time    0.35: real time    0.35
    SETDIJ:  cpu time    0.05: real time    0.05
    EDDIAG:  cpu time    4.35: real time    4.40
  RMM-DIIS:  cpu time    6.33: real time    6.69
    ORTHCH:  cpu time    1.69: real time    1.69
       DOS:  cpu time    0.00: real time    0.00
    CHARGE:  cpu time    1.07: real time    1.07
    MIXING:  cpu time    0.01: real time    0.01
    --------------------------------------------
      LOOP:  cpu time   13.85: real time   14.27

 eigenvalue-minimisations  :  2668
 total energy-change (2. order) :-0.1688190E-04  (-0.5499353E-06)
 number of electron    1085.9999556 magnetization     202.1101558
 augmentation part      617.3014515 magnetization     179.6424538

 Broyden mixing:
  rms(total) = 0.39077E-02    rms(broyden)= 0.39076E-02
  rms(prec ) = 0.44923E-02
  weight for this iteration     100.00

 eigenvalues of (default mixing * dielectric matrix)
  average eigenvalue GAMMA=   0.5565
  2.4489  1.7128  0.9811  0.6934  0.5733  0.0663  0.1374  0.1214  0.1214  0.1080
  0.0946  0.0867  0.0890

 Free energy of the ion-electron system (eV)
  ---------------------------------------------------
  alpha Z        PSCENC =      2067.85644204
  Ewald energy   TEWEN  =    423773.26270409
  -1/2 Hartree   DENC   =   -519602.26108640
  -exchange  EXHF       =         0.00000000
  -V(xc)+E(xc)   XCENC  =      1982.14578784
  PAW double counting   =    106757.50567473  -113112.77319764
  entropy T*S    EENTRO =        -0.24665928
  eigenvalues    EBANDS =      -718.52964617
  atomic energy  EATOM  =     98035.95264826
  ---------------------------------------------------
  free energy    TOTEN  =      -817.08733253 eV

  energy without entropy =     -816.84067325  energy(sigma->0) =     -817.02566771


--------------------------------------------------------------------------------------------------------




----------------------------------------- Iteration    5(  15)  ---------------------------------------


    POTLOK:  cpu time    0.35: real time    0.35
    SETDIJ:  cpu time    0.05: real time    0.05
    EDDIAG:  cpu time    4.48: real time    4.53
  RMM-DIIS:  cpu time    5.52: real time    5.54
    ORTHCH:  cpu time    1.72: real time    1.75
       DOS:  cpu time    0.00: real time    0.00
    CHARGE:  cpu time    1.04: real time    1.05
    MIXING:  cpu time    0.01: real time    0.01
    --------------------------------------------
      LOOP:  cpu time   13.18: real time   13.29

 eigenvalue-minimisations  :  2117
 total energy-change (2. order) :-0.2098503E-05  (-0.3487455E-06)
 number of electron    1085.9999556 magnetization     202.1095579
 augmentation part      617.3017293 magnetization     179.6415989

 Broyden mixing:
  rms(total) = 0.10540E-02    rms(broyden)= 0.10538E-02
  rms(prec ) = 0.11366E-02
  weight for this iteration     100.00

 eigenvalues of (default mixing * dielectric matrix)
  average eigenvalue GAMMA=   0.5519
  2.4779  1.7912  0.9869  0.7239  0.6029  0.3168  0.0663  0.1382  0.1280  0.1128
  0.1094  0.0990  0.0872  0.0861

 Free energy of the ion-electron system (eV)
  ---------------------------------------------------
  alpha Z        PSCENC =      2067.85644204
  Ewald energy   TEWEN  =    423773.26270409
  -1/2 Hartree   DENC   =   -519602.29776319
  -exchange  EXHF       =         0.00000000
  -V(xc)+E(xc)   XCENC  =      1982.14576344
  PAW double counting   =    106757.50465472  -113112.76923366
  entropy T*S    EENTRO =        -0.24669234
  eigenvalues    EBANDS =      -718.49585799
  atomic energy  EATOM  =     98035.95264826
  ---------------------------------------------------
  free energy    TOTEN  =      -817.08733463 eV

  energy without entropy =     -816.84064230  energy(sigma->0) =     -817.02566155


--------------------------------------------------------------------------------------------------------




----------------------------------------- Iteration    5(  16)  ---------------------------------------


    POTLOK:  cpu time    0.35: real time    0.35
    SETDIJ:  cpu time    0.05: real time    0.05
    EDDIAG:  cpu time    4.38: real time    4.42
  RMM-DIIS:  cpu time    4.12: real time    4.17
    ORTHCH:  cpu time    1.68: real time    1.68
       DOS:  cpu time    0.00: real time    0.00
    CHARGE:  cpu time    1.06: real time    1.07
    MIXING:  cpu time    0.01: real time    0.01
    --------------------------------------------
      LOOP:  cpu time   11.65: real time   11.76

 eigenvalue-minimisations  :  1595
 total energy-change (2. order) :-0.4202622E-05  (-0.1314205E-06)
 number of electron    1085.9999556 magnetization     202.1085422
 augmentation part      617.3016926 magnetization     179.6408795

 Broyden mixing:
  rms(total) = 0.14665E-02    rms(broyden)= 0.14665E-02
  rms(prec ) = 0.15908E-02
  weight for this iteration     100.00

 eigenvalues of (default mixing * dielectric matrix)
  average eigenvalue GAMMA=   0.5647
  2.5206  1.9105  0.9587  0.9421  0.6528  0.5433  0.0663  0.1397  0.1277  0.1159
  0.1159  0.1069  0.0971  0.0870  0.0861

 Free energy of the ion-electron system (eV)
  ---------------------------------------------------
  alpha Z        PSCENC =      2067.85644204
  Ewald energy   TEWEN  =    423773.26270409
  -1/2 Hartree   DENC   =   -519602.29044777
  -exchange  EXHF       =         0.00000000
  -V(xc)+E(xc)   XCENC  =      1982.14578022
  PAW double counting   =    106757.51302885  -113112.77820499
  entropy T*S    EENTRO =        -0.24669552
  eigenvalues    EBANDS =      -718.50259401
  atomic energy  EATOM  =     98035.95264826
  ---------------------------------------------------
  free energy    TOTEN  =      -817.08733883 eV

  energy without entropy =     -816.84064331  energy(sigma->0) =     -817.02566495


--------------------------------------------------------------------------------------------------------




----------------------------------------- Iteration    5(  17)  ---------------------------------------


    POTLOK:  cpu time    0.35: real time    0.35
    SETDIJ:  cpu time    0.05: real time    0.05
    EDDIAG:  cpu time    4.34: real time    4.37
  RMM-DIIS:  cpu time    4.14: real time    4.19
    ORTHCH:  cpu time    1.71: real time    1.72
       DOS:  cpu time    0.00: real time    0.00
    CHARGE:  cpu time    1.03: real time    1.05
    MIXING:  cpu time    0.01: real time    0.01
    --------------------------------------------
      LOOP:  cpu time   11.64: real time   11.76

 eigenvalue-minimisations  :  1606
 total energy-change (2. order) :-0.4318572E-05  (-0.7429565E-07)
 number of electron    1085.9999556 magnetization     202.1081561
 augmentation part      617.3014342 magnetization     179.6404380

 Broyden mixing:
  rms(total) = 0.56902E-03    rms(broyden)= 0.56897E-03
  rms(prec ) = 0.60667E-03
  weight for this iteration     100.00

 eigenvalues of (default mixing * dielectric matrix)
  average eigenvalue GAMMA=   0.5497
  2.5237  1.9285  0.9740  0.9740  0.6605  0.5433  0.2495  0.0663  0.1374  0.1310
  0.1207  0.1084  0.1084  0.0969  0.0869  0.0858

 Free energy of the ion-electron system (eV)
  ---------------------------------------------------
  alpha Z        PSCENC =      2067.85644204
  Ewald energy   TEWEN  =    423773.26270409
  -1/2 Hartree   DENC   =   -519602.31057463
  -exchange  EXHF       =         0.00000000
  -V(xc)+E(xc)   XCENC  =      1982.14568062
  PAW double counting   =    106757.53029472  -113112.79737781
  entropy T*S    EENTRO =        -0.24670787
  eigenvalues    EBANDS =      -718.48045257
  atomic energy  EATOM  =     98035.95264826
  ---------------------------------------------------
  free energy    TOTEN  =      -817.08734315 eV

  energy without entropy =     -816.84063528  energy(sigma->0) =     -817.02566618


--------------------------------------------------------------------------------------------------------




----------------------------------------- Iteration    5(  18)  ---------------------------------------


    POTLOK:  cpu time    0.36: real time    0.37
    SETDIJ:  cpu time    0.07: real time    0.07
    EDDIAG:  cpu time    4.43: real time    4.45
  RMM-DIIS:  cpu time    4.05: real time    4.06
    ORTHCH:  cpu time    1.71: real time    1.72
       DOS:  cpu time    0.00: real time    0.00
    CHARGE:  cpu time    1.07: real time    1.07
    MIXING:  cpu time    0.02: real time    0.02
    --------------------------------------------
      LOOP:  cpu time   11.71: real time   11.76

 eigenvalue-minimisations  :  1551
 total energy-change (2. order) :-0.1542532E-05  (-0.2355994E-07)
 number of electron    1085.9999556 magnetization     202.1066147
 augmentation part      617.3014424 magnetization     179.6390047

 Broyden mixing:
  rms(total) = 0.56476E-03    rms(broyden)= 0.56474E-03
  rms(prec ) = 0.60068E-03
  weight for this iteration     100.00

 eigenvalues of (default mixing * dielectric matrix)
  average eigenvalue GAMMA=   0.5826
  2.5059  2.0936  1.1532  1.1532  0.7665  0.6362  0.5341  0.0663  0.1396  0.1308
  0.1237  0.1154  0.1115  0.1050  0.0968  0.0859  0.0869

 Free energy of the ion-electron system (eV)
  ---------------------------------------------------
  alpha Z        PSCENC =      2067.85644204
  Ewald energy   TEWEN  =    423773.26270409
  -1/2 Hartree   DENC   =   -519602.31116328
  -exchange  EXHF       =         0.00000000
  -V(xc)+E(xc)   XCENC  =      1982.14567441
  PAW double counting   =    106757.53349663  -113112.80055854
  entropy T*S    EENTRO =        -0.24670839
  eigenvalues    EBANDS =      -718.47987992
  atomic energy  EATOM  =     98035.95264826
  ---------------------------------------------------
  free energy    TOTEN  =      -817.08734470 eV

  energy without entropy =     -816.84063631  energy(sigma->0) =     -817.02566760


--------------------------------------------------------------------------------------------------------




----------------------------------------- Iteration    5(  19)  ---------------------------------------


    POTLOK:  cpu time    0.36: real time    0.37
    SETDIJ:  cpu time    0.05: real time    0.05
    EDDIAG:  cpu time    4.38: real time    4.42
  RMM-DIIS:  cpu time    4.10: real time    4.14
    ORTHCH:  cpu time    1.71: real time    1.72
       DOS:  cpu time    0.00: real time    0.00
    CHARGE:  cpu time    1.05: real time    1.05
    MIXING:  cpu time    0.02: real time    0.02
    --------------------------------------------
      LOOP:  cpu time   11.68: real time   11.76

 eigenvalue-minimisations  :  1599
 total energy-change (2. order) :-0.5175971E-05  (-0.2199227E-07)
 number of electron    1085.9999556 magnetization     202.1060857
 augmentation part      617.3015281 magnetization     179.6388667

 Broyden mixing:
  rms(total) = 0.38058E-03    rms(broyden)= 0.38057E-03
  rms(prec ) = 0.40815E-03
  weight for this iteration     100.00

 eigenvalues of (default mixing * dielectric matrix)
  average eigenvalue GAMMA=   0.5703
  2.5013  2.1564  1.1869  1.1869  0.7779  0.6394  0.5390  0.2182  0.0663  0.1400
  0.1326  0.1232  0.0869  0.0859  0.1154  0.0968  0.1079  0.1054

 Free energy of the ion-electron system (eV)
  ---------------------------------------------------
  alpha Z        PSCENC =      2067.85644204
  Ewald energy   TEWEN  =    423773.26270409
  -1/2 Hartree   DENC   =   -519602.30872398
  -exchange  EXHF       =         0.00000000
  -V(xc)+E(xc)   XCENC  =      1982.14566096
  PAW double counting   =    106757.54374264  -113112.81044932
  entropy T*S    EENTRO =        -0.24670851
  eigenvalues    EBANDS =      -718.48266605
  atomic energy  EATOM  =     98035.95264826
  ---------------------------------------------------
  free energy    TOTEN  =      -817.08734987 eV

  energy without entropy =     -816.84064136  energy(sigma->0) =     -817.02567274


--------------------------------------------------------------------------------------------------------




----------------------------------------- Iteration    5(  20)  ---------------------------------------


    POTLOK:  cpu time    0.36: real time    0.37
    SETDIJ:  cpu time    0.07: real time    0.07
    EDDIAG:  cpu time    4.38: real time    4.42
  RMM-DIIS:  cpu time    4.04: real time    4.08
    ORTHCH:  cpu time    1.72: real time    1.73
       DOS:  cpu time    0.00: real time    0.00
    CHARGE:  cpu time    1.07: real time    1.07
    MIXING:  cpu time    0.02: real time    0.02
    --------------------------------------------
      LOOP:  cpu time   11.66: real time   11.77

 eigenvalue-minimisations  :  1550
 total energy-change (2. order) :-0.1410939E-05  (-0.1204251E-07)
 number of electron    1085.9999556 magnetization     202.1040790
 augmentation part      617.3015256 magnetization     179.6369834

 Broyden mixing:
  rms(total) = 0.38188E-03    rms(broyden)= 0.38187E-03
  rms(prec ) = 0.40522E-03
  weight for this iteration     100.00

 eigenvalues of (default mixing * dielectric matrix)
  average eigenvalue GAMMA=   0.5962
  2.5170  2.3864  1.2659  1.2659  0.8521  0.7029  0.6196  0.5355  0.0663  0.1402
  0.1346  0.0869  0.0859  0.1257  0.0968  0.1178  0.1149  0.1040  0.1089

 Free energy of the ion-electron system (eV)
  ---------------------------------------------------
  alpha Z        PSCENC =      2067.85644204
  Ewald energy   TEWEN  =    423773.26270409
  -1/2 Hartree   DENC   =   -519602.31074518
  -exchange  EXHF       =         0.00000000
  -V(xc)+E(xc)   XCENC  =      1982.14567529
  PAW double counting   =    106757.54770942  -113112.81446653
  entropy T*S    EENTRO =        -0.24671323
  eigenvalues    EBANDS =      -718.48060545
  atomic energy  EATOM  =     98035.95264826
  ---------------------------------------------------
  free energy    TOTEN  =      -817.08735128 eV

  energy without entropy =     -816.84063806  energy(sigma->0) =     -817.02567298


--------------------------------------------------------------------------------------------------------




----------------------------------------- Iteration    5(  21)  ---------------------------------------


    POTLOK:  cpu time    0.37: real time    0.37
    SETDIJ:  cpu time    0.05: real time    0.05
    EDDIAG:  cpu time    4.38: real time    4.42
  RMM-DIIS:  cpu time    4.14: real time    4.15
    ORTHCH:  cpu time    1.71: real time    1.72
       DOS:  cpu time    0.00: real time    0.00
    CHARGE:  cpu time    1.05: real time    1.05
    MIXING:  cpu time    0.02: real time    0.02
    --------------------------------------------
      LOOP:  cpu time   11.71: real time   11.78

 eigenvalue-minimisations  :  1601
 total energy-change (2. order) :-0.4227972E-05  (-0.1552983E-07)
 number of electron    1085.9999556 magnetization     202.1033186
 augmentation part      617.3014899 magnetization     179.6366846

 Broyden mixing:
  rms(total) = 0.36983E-03    rms(broyden)= 0.36983E-03
  rms(prec ) = 0.39824E-03
  weight for this iteration     100.00

 eigenvalues of (default mixing * dielectric matrix)
  average eigenvalue GAMMA=   0.5875
  2.5685  2.4378  1.4088  1.1789  0.8936  0.7329  0.6297  0.5310  0.1918  0.0663
  0.1405  0.0869  0.0859  0.1307  0.1274  0.0968  0.1183  0.1040  0.1113  0.1082

 Free energy of the ion-electron system (eV)
  ---------------------------------------------------
  alpha Z        PSCENC =      2067.85644204
  Ewald energy   TEWEN  =    423773.26270409
  -1/2 Hartree   DENC   =   -519602.31324524
  -exchange  EXHF       =         0.00000000
  -V(xc)+E(xc)   XCENC  =      1982.14573549
  PAW double counting   =    106757.56256720  -113112.82986502
  entropy T*S    EENTRO =        -0.24671014
  eigenvalues    EBANDS =      -718.47763218
  atomic energy  EATOM  =     98035.95264826
  ---------------------------------------------------
  free energy    TOTEN  =      -817.08735551 eV

  energy without entropy =     -816.84064537  energy(sigma->0) =     -817.02567797


--------------------------------------------------------------------------------------------------------




----------------------------------------- Iteration    5(  22)  ---------------------------------------


    POTLOK:  cpu time    0.36: real time    0.37
    SETDIJ:  cpu time    0.06: real time    0.06
    EDDIAG:  cpu time    4.40: real time    4.45
  RMM-DIIS:  cpu time    4.02: real time    4.07
    ORTHCH:  cpu time    1.71: real time    1.72
       DOS:  cpu time    0.00: real time    0.00
    CHARGE:  cpu time    1.09: real time    1.09
    MIXING:  cpu time    0.02: real time    0.02
    --------------------------------------------
      LOOP:  cpu time   11.66: real time   11.79

 eigenvalue-minimisations  :  1555
 total energy-change (2. order) :-0.1176930E-05  (-0.9979995E-08)
 number of electron    1085.9999556 magnetization     202.1005699
 augmentation part      617.3015000 magnetization     179.6341100

 Broyden mixing:
  rms(total) = 0.29898E-03    rms(broyden)= 0.29897E-03
  rms(prec ) = 0.32247E-03
  weight for this iteration     100.00

 eigenvalues of (default mixing * dielectric matrix)
  average eigenvalue GAMMA=   0.6717
  3.5975  2.4836  1.8703  1.1220  1.1220  0.8024  0.6662  0.6073  0.5346  0.0663
  0.1410  0.1354  0.0859  0.0869  0.1287  0.1221  0.0968  0.1153  0.1107  0.1066
  0.1032

 Free energy of the ion-electron system (eV)
  ---------------------------------------------------
  alpha Z        PSCENC =      2067.85644204
  Ewald energy   TEWEN  =    423773.26270409
  -1/2 Hartree   DENC   =   -519602.31617715
  -exchange  EXHF       =         0.00000000
  -V(xc)+E(xc)   XCENC  =      1982.14575283
  PAW double counting   =    106757.56787672  -113112.83524799
  entropy T*S    EENTRO =        -0.24672063
  eigenvalues    EBANDS =      -718.47463486
  atomic energy  EATOM  =     98035.95264826
  ---------------------------------------------------
  free energy    TOTEN  =      -817.08735669 eV

  energy without entropy =     -816.84063606  energy(sigma->0) =     -817.02567653


--------------------------------------------------------------------------------------------------------




----------------------------------------- Iteration    5(  23)  ---------------------------------------


    POTLOK:  cpu time    0.37: real time    0.37
    SETDIJ:  cpu time    0.05: real time    0.05
    EDDIAG:  cpu time    4.45: real time    4.46
  RMM-DIIS:  cpu time    4.16: real time    4.18
    ORTHCH:  cpu time    1.70: real time    1.70
       DOS:  cpu time    0.00: real time    0.00
    CHARGE:  cpu time    1.07: real time    1.07
    MIXING:  cpu time    0.02: real time    0.02
    --------------------------------------------
      LOOP:  cpu time   11.82: real time   11.87

 eigenvalue-minimisations  :  1610
 total energy-change (2. order) :-0.2668952E-05  (-0.1628188E-07)
 number of electron    1085.9999556 magnetization     202.0999603
 augmentation part      617.3015050 magnetization     179.6341478

 Broyden mixing:
  rms(total) = 0.26239E-03    rms(broyden)= 0.26238E-03
  rms(prec ) = 0.28582E-03
  weight for this iteration     100.00

 eigenvalues of (default mixing * dielectric matrix)
  average eigenvalue GAMMA=   0.6717
  3.9806  2.4853  1.9197  1.1466  1.1466  0.8047  0.6701  0.6093  0.5352  0.1821
  0.0663  0.1408  0.1346  0.1299  0.0869  0.0859  0.1214  0.1153  0.0968  0.1079
  0.1079  0.1025

 Free energy of the ion-electron system (eV)
  ---------------------------------------------------
  alpha Z        PSCENC =      2067.85644204
  Ewald energy   TEWEN  =    423773.26270409
  -1/2 Hartree   DENC   =   -519602.31779351
  -exchange  EXHF       =         0.00000000
  -V(xc)+E(xc)   XCENC  =      1982.14577784
  PAW double counting   =    106757.58472023  -113112.85219079
  entropy T*S    EENTRO =        -0.24671596
  eigenvalues    EBANDS =      -718.47295156
  atomic energy  EATOM  =     98035.95264826
  ---------------------------------------------------
  free energy    TOTEN  =      -817.08735936 eV

  energy without entropy =     -816.84064340  energy(sigma->0) =     -817.02568037


--------------------------------------------------------------------------------------------------------




----------------------------------------- Iteration    5(  24)  ---------------------------------------


    POTLOK:  cpu time    0.36: real time    0.36
    SETDIJ:  cpu time    0.05: real time    0.05
    EDDIAG:  cpu time    4.40: real time    4.41
  RMM-DIIS:  cpu time    3.98: real time    4.06
    ORTHCH:  cpu time    1.67: real time    1.70
       DOS:  cpu time    0.01: real time    0.01
    --------------------------------------------
      LOOP:  cpu time   10.48: real time   10.60

 eigenvalue-minimisations  :  1536
 total energy-change (2. order) :-0.2746820E-06  (-0.6894685E-08)
 number of electron    1085.9999556 magnetization     202.0999603
 augmentation part      617.3015050 magnetization     179.6341478

 Free energy of the ion-electron system (eV)
  ---------------------------------------------------
  alpha Z        PSCENC =      2067.85644204
  Ewald energy   TEWEN  =    423773.26270409
  -1/2 Hartree   DENC   =   -519602.31986136
  -exchange  EXHF       =         0.00000000
  -V(xc)+E(xc)   XCENC  =      1982.14578983
  PAW double counting   =    106757.58830854  -113112.85576292
  entropy T*S    EENTRO =        -0.24672209
  eigenvalues    EBANDS =      -718.47090602
  atomic energy  EATOM  =     98035.95264826
  ---------------------------------------------------
  free energy    TOTEN  =      -817.08735963 eV

  energy without entropy =     -816.84063754  energy(sigma->0) =     -817.02567911


--------------------------------------------------------------------------------------------------------




 average (electrostatic) potential at core
  the test charge radii are     1.0452  0.7215
  (the norm of the test charge is              1.0000)
       1 -86.7452       2 -86.7447       3 -86.7486       4 -86.7480       5 -86.7459
       6 -86.7461       7 -86.7458       8 -86.7473       9 -86.7446      10 -86.7495
      11 -86.7481      12 -86.7427      13 -86.7425      14 -86.7502      15 -86.7493
      16 -86.7505      17 -86.7461      18 -86.7483      19 -86.7502      20 -86.7466
      21 -86.7465      22 -86.7474      23 -86.7472      24 -86.7503      25 -86.8436
      26 -86.8434      27 -86.8451      28 -86.8489      29 -86.8477      30 -86.8496
      31 -86.8493      32 -86.8493      33 -86.8459      34 -86.8485      35 -86.8454
      36 -86.8479      37 -86.8461      38 -86.8452      39 -86.8458      40 -86.8452
      41 -86.8470      42 -86.8451      43 -86.8479      44 -86.8487      45 -86.8457
      46 -86.8430      47 -86.8451      48 -86.8486      49 -86.8188      50 -86.8216
      51 -86.8218      52 -86.8182      53 -86.8171      54 -86.8173      55 -86.8176
      56 -86.8178      57 -86.8274      58 -86.8127      59 -86.8147      60 -86.8111
      61 -86.8314      62 -86.8290      63 -86.8139      64 -86.8140      65 -86.8261
      66 -86.8212      67 -86.8257      68 -86.8230      69 -86.8164      70 -86.8211
      71 -86.8203      72 -86.8190      73 -86.8587      74 -86.8596      75 -86.8570
      76 -86.8574      77 -86.8546      78 -86.8413      79 -86.8534      80 -86.8475
      81 -86.8577      82 -86.8701      83 -86.8695      84 -86.8573      85 -86.8611
      86 -86.8378      87 -86.8654      88 -86.8400      89 -86.8624      90 -86.8612
      91 -86.8556      92 -86.8597      93 -86.8584      94 -86.8642      95 -86.8602
      96 -86.8559      97 -86.7532      98 -86.7539      99 -86.7501     100 -86.7582
     101 -86.7519     102 -86.7640     103 -86.7657     104 -86.7545     105 -86.7435
     106 -86.7588     107 -86.9098     108 -86.7564     109 -86.7539     110 -86.7561
     111 -86.8889     112 -86.8894     113 -86.7558     114 -86.7529     115 -86.7585
     116 -86.7549     117 -86.7501     118 -86.7468     119 -86.7485     120 -86.7522
     121 -74.3085
 
 
 
 E-fermi :   1.8131     XC(G=0):  -6.7365     alpha+bet : -7.7752


 spin component 1

 k-point   1 :       0.0000    0.0000    0.0000
  band No.  band energies     occupation 
      1     -17.1831      1.00000
      2      -6.8710      1.00000
      3      -5.9885      1.00000
      4      -5.9469      1.00000
      5      -5.9315      1.00000
      6      -5.3029      1.00000
      7      -5.2936      1.00000
      8      -5.1276      1.00000
      9      -5.1039      1.00000
     10      -4.9243      1.00000
     11      -4.9150      1.00000
     12      -4.6842      1.00000
     13      -4.5617      1.00000
     14      -4.5325      1.00000
     15      -4.2797      1.00000
     16      -4.2366      1.00000
     17      -4.2266      1.00000
     18      -4.2160      1.00000
     19      -4.0377      1.00000
     20      -3.9289      1.00000
     21      -3.8719      1.00000
     22      -3.8624      1.00000
     23      -3.8561      1.00000
     24      -3.7589      1.00000
     25      -3.7496      1.00000
     26      -3.6753      1.00000
     27      -3.6218      1.00000
     28      -3.5607      1.00000
     29      -3.4878      1.00000
     30      -3.4437      1.00000
     31      -3.4168      1.00000
     32      -3.4003      1.00000
     33      -3.3601      1.00000
     34      -3.3439      1.00000
     35      -3.3416      1.00000
     36      -3.3278      1.00000
     37      -3.3102      1.00000
     38      -3.2956      1.00000
     39      -3.2571      1.00000
     40      -3.2366      1.00000
     41      -3.2081      1.00000
     42      -3.2063      1.00000
     43      -3.1945      1.00000
     44      -3.0845      1.00000
     45      -3.0822      1.00000
     46      -3.0636      1.00000
     47      -3.0481      1.00000
     48      -3.0187      1.00000
     49      -3.0072      1.00000
     50      -2.9936      1.00000
     51      -2.9832      1.00000
     52      -2.9720      1.00000
     53      -2.9495      1.00000
     54      -2.9385      1.00000
     55      -2.9341      1.00000
     56      -2.9254      1.00000
     57      -2.9180      1.00000
     58      -2.9108      1.00000
     59      -2.8573      1.00000
     60      -2.8552      1.00000
     61      -2.8510      1.00000
     62      -2.8491      1.00000
     63      -2.8017      1.00000
     64      -2.7925      1.00000
     65      -2.7760      1.00000
     66      -2.7727      1.00000
     67      -2.7495      1.00000
     68      -2.7425      1.00000
     69      -2.7392      1.00000
     70      -2.7333      1.00000
     71      -2.7259      1.00000
     72      -2.7150      1.00000
     73      -2.7009      1.00000
     74      -2.6957      1.00000
     75      -2.6879      1.00000
     76      -2.6751      1.00000
     77      -2.6687      1.00000
     78      -2.6640      1.00000
     79      -2.6610      1.00000
     80      -2.6583      1.00000
     81      -2.6300      1.00000
     82      -2.6267      1.00000
     83      -2.6260      1.00000
     84      -2.6180      1.00000
     85      -2.6168      1.00000
     86      -2.5970      1.00000
     87      -2.5816      1.00000
     88      -2.5672      1.00000
     89      -2.5571      1.00000
     90      -2.5499      1.00000
     91      -2.5235      1.00000
     92      -2.5128      1.00000
     93      -2.5011      1.00000
     94      -2.5000      1.00000
     95      -2.4985      1.00000
     96      -2.4847      1.00000
     97      -2.4839      1.00000
     98      -2.4794      1.00000
     99      -2.4748      1.00000
    100      -2.4622      1.00000
    101      -2.4613      1.00000
    102      -2.4592      1.00000
    103      -2.4532      1.00000
    104      -2.4453      1.00000
    105      -2.4400      1.00000
    106      -2.4317      1.00000
    107      -2.4265      1.00000
    108      -2.4236      1.00000
    109      -2.4175      1.00000
    110      -2.4162      1.00000
    111      -2.4149      1.00000
    112      -2.4067      1.00000
    113      -2.4018      1.00000
    114      -2.4007      1.00000
    115      -2.4001      1.00000
    116      -2.3955      1.00000
    117      -2.3783      1.00000
    118      -2.3539      1.00000
    119      -2.3334      1.00000
    120      -2.2889      1.00000
    121      -2.2772      1.00000
    122      -2.2396      1.00000
    123      -2.2310      1.00000
    124      -2.2243      1.00000
    125      -2.2184      1.00000
    126      -2.2103      1.00000
    127      -2.2060      1.00000
    128      -2.1963      1.00000
    129      -2.1525      1.00000
    130      -2.1499      1.00000
    131      -2.1488      1.00000
    132      -2.1457      1.00000
    133      -2.1441      1.00000
    134      -2.1380      1.00000
    135      -2.1291      1.00000
    136      -2.1114      1.00000
    137      -2.0792      1.00000
    138      -2.0743      1.00000
    139      -2.0708      1.00000
    140      -2.0688      1.00000
    141      -2.0662      1.00000
    142      -2.0559      1.00000
    143      -2.0357      1.00000
    144      -2.0335      1.00000
    145      -2.0198      1.00000
    146      -2.0176      1.00000
    147      -2.0138      1.00000
    148      -2.0106      1.00000
    149      -2.0068      1.00000
    150      -1.9859      1.00000
    151      -1.9805      1.00000
    152      -1.9465      1.00000
    153      -1.9094      1.00000
    154      -1.9034      1.00000
    155      -1.8783      1.00000
    156      -1.8773      1.00000
    157      -1.8756      1.00000
    158      -1.8708      1.00000
    159      -1.8662      1.00000
    160      -1.8575      1.00000
    161      -1.8555      1.00000
    162      -1.8514      1.00000
    163      -1.8497      1.00000
    164      -1.8408      1.00000
    165      -1.8265      1.00000
    166      -1.8198      1.00000
    167      -1.8109      1.00000
    168      -1.7940      1.00000
    169      -1.7889      1.00000
    170      -1.7669      1.00000
    171      -1.7622      1.00000
    172      -1.7584      1.00000
    173      -1.7386      1.00000
    174      -1.7237      1.00000
    175      -1.7170      1.00000
    176      -1.7047      1.00000
    177      -1.6965      1.00000
    178      -1.6930      1.00000
    179      -1.6833      1.00000
    180      -1.6790      1.00000
    181      -1.6733      1.00000
    182      -1.6544      1.00000
    183      -1.6354      1.00000
    184      -1.6344      1.00000
    185      -1.6307      1.00000
    186      -1.6250      1.00000
    187      -1.6098      1.00000
    188      -1.6015      1.00000
    189      -1.5899      1.00000
    190      -1.5587      1.00000
    191      -1.5551      1.00000
    192      -1.5461      1.00000
    193      -1.5447      1.00000
    194      -1.5398      1.00000
    195      -1.5363      1.00000
    196      -1.5317      1.00000
    197      -1.5295      1.00000
    198      -1.5022      1.00000
    199      -1.4955      1.00000
    200      -1.4758      1.00000
    201      -1.4717      1.00000
    202      -1.4701      1.00000
    203      -1.4627      1.00000
    204      -1.4548      1.00000
    205      -1.4524      1.00000
    206      -1.4364      1.00000
    207      -1.4268      1.00000
    208      -1.4239      1.00000
    209      -1.4180      1.00000
    210      -1.4139      1.00000
    211      -1.4056      1.00000
    212      -1.3744      1.00000
    213      -1.3614      1.00000
    214      -1.3582      1.00000
    215      -1.3550      1.00000
    216      -1.3505      1.00000
    217      -1.3468      1.00000
    218      -1.3447      1.00000
    219      -1.3377      1.00000
    220      -1.3249      1.00000
    221      -1.3231      1.00000
    222      -1.3218      1.00000
    223      -1.3150      1.00000
    224      -1.3094      1.00000
    225      -1.2844      1.00000
    226      -1.2804      1.00000
    227      -1.2480      1.00000
    228      -1.2437      1.00000
    229      -1.2387      1.00000
    230      -1.2332      1.00000
    231      -1.2138      1.00000
    232      -1.2054      1.00000
    233      -1.1780      1.00000
    234      -1.1747      1.00000
    235      -1.1528      1.00000
    236      -1.1338      1.00000
    237      -1.1327      1.00000
    238      -1.1261      1.00000
    239      -1.1157      1.00000
    240      -1.1120      1.00000
    241      -1.1111      1.00000
    242      -1.1076      1.00000
    243      -1.1055      1.00000
    244      -1.0917      1.00000
    245      -1.0896      1.00000
    246      -1.0837      1.00000
    247      -1.0772      1.00000
    248      -1.0766      1.00000
    249      -1.0765      1.00000
    250      -1.0709      1.00000
    251      -1.0662      1.00000
    252      -1.0479      1.00000
    253      -1.0428      1.00000
    254      -1.0424      1.00000
    255      -1.0383      1.00000
    256      -1.0347      1.00000
    257      -1.0297      1.00000
    258      -1.0216      1.00000
    259      -1.0177      1.00000
    260      -1.0148      1.00000
    261      -1.0025      1.00000
    262      -0.9889      1.00000
    263      -0.9862      1.00000
    264      -0.9843      1.00000
    265      -0.9645      1.00000
    266      -0.9616      1.00000
    267      -0.9544      1.00000
    268      -0.9533      1.00000
    269      -0.9480      1.00000
    270      -0.9375      1.00000
    271      -0.9355      1.00000
    272      -0.9342      1.00000
    273      -0.9305      1.00000
    274      -0.9301      1.00000
    275      -0.9275      1.00000
    276      -0.9270      1.00000
    277      -0.9263      1.00000
    278      -0.9249      1.00000
    279      -0.9229      1.00000
    280      -0.9055      1.00000
    281      -0.8918      1.00000
    282      -0.8854      1.00000
    283      -0.8831      1.00000
    284      -0.8793      1.00000
    285      -0.8699      1.00000
    286      -0.8665      1.00000
    287      -0.8628      1.00000
    288      -0.8590      1.00000
    289      -0.8523      1.00000
    290      -0.8510      1.00000
    291      -0.8490      1.00000
    292      -0.8436      1.00000
    293      -0.8390      1.00000
    294      -0.8370      1.00000
    295      -0.8364      1.00000
    296      -0.8339      1.00000
    297      -0.8296      1.00000
    298      -0.8254      1.00000
    299      -0.8235      1.00000
    300      -0.8229      1.00000
    301      -0.8207      1.00000
    302      -0.8171      1.00000
    303      -0.8154      1.00000
    304      -0.8118      1.00000
    305      -0.8096      1.00000
    306      -0.8074      1.00000
    307      -0.8049      1.00000
    308      -0.8036      1.00000
    309      -0.7849      1.00000
    310      -0.7804      1.00000
    311      -0.7721      1.00000
    312      -0.7651      1.00000
    313      -0.7477      1.00000
    314      -0.7455      1.00000
    315      -0.7442      1.00000
    316      -0.7275      1.00000
    317      -0.7216      1.00000
    318      -0.7152      1.00000
    319      -0.7083      1.00000
    320      -0.6999      1.00000
    321      -0.6992      1.00000
    322      -0.6970      1.00000
    323      -0.6915      1.00000
    324      -0.6877      1.00000
    325      -0.6847      1.00000
    326      -0.6829      1.00000
    327      -0.6809      1.00000
    328      -0.6731      1.00000
    329      -0.6718      1.00000
    330      -0.6675      1.00000
    331      -0.6659      1.00000
    332      -0.6607      1.00000
    333      -0.6574      1.00000
    334      -0.6559      1.00000
    335      -0.6526      1.00000
    336      -0.6508      1.00000
    337      -0.6471      1.00000
    338      -0.6449      1.00000
    339      -0.6423      1.00000
    340      -0.6405      1.00000
    341      -0.6389      1.00000
    342      -0.6356      1.00000
    343      -0.6318      1.00000
    344      -0.6288      1.00000
    345      -0.6264      1.00000
    346      -0.6238      1.00000
    347      -0.6113      1.00000
    348      -0.6066      1.00000
    349      -0.5977      1.00000
    350      -0.5962      1.00000
    351      -0.5932      1.00000
    352      -0.5912      1.00000
    353      -0.5897      1.00000
    354      -0.5850      1.00000
    355      -0.5786      1.00000
    356      -0.5775      1.00000
    357      -0.5727      1.00000
    358      -0.5663      1.00000
    359      -0.5624      1.00000
    360      -0.5470      1.00000
    361      -0.5403      1.00000
    362      -0.5297      1.00000
    363      -0.5202      1.00000
    364      -0.5111      1.00000
    365      -0.4980      1.00000
    366      -0.4826      1.00000
    367      -0.4776      1.00000
    368      -0.4720      1.00000
    369      -0.4670      1.00000
    370      -0.4623      1.00000
    371      -0.4585      1.00000
    372      -0.4566      1.00000
    373      -0.4505      1.00000
    374      -0.4474      1.00000
    375      -0.4426      1.00000
    376      -0.4388      1.00000
    377      -0.4353      1.00000
    378      -0.4335      1.00000
    379      -0.4266      1.00000
    380      -0.4208      1.00000
    381      -0.4187      1.00000
    382      -0.4135      1.00000
    383      -0.3818      1.00000
    384      -0.3664      1.00000
    385      -0.3648      1.00000
    386      -0.3511      1.00000
    387      -0.3417      1.00000
    388      -0.3360      1.00000
    389      -0.3325      1.00000
    390      -0.3275      1.00000
    391      -0.3206      1.00000
    392      -0.3118      1.00000
    393      -0.3021      1.00000
    394      -0.2937      1.00000
    395      -0.2916      1.00000
    396      -0.2859      1.00000
    397      -0.2516      1.00000
    398      -0.2475      1.00000
    399      -0.2456      1.00000
    400      -0.2372      1.00000
    401      -0.2340      1.00000
    402      -0.2313      1.00000
    403      -0.2271      1.00000
    404      -0.2186      1.00000
    405      -0.2116      1.00000
    406      -0.2072      1.00000
    407      -0.2021      1.00000
    408      -0.1951      1.00000
    409      -0.1930      1.00000
    410      -0.1918      1.00000
    411      -0.1837      1.00000
    412      -0.1790      1.00000
    413      -0.1693      1.00000
    414      -0.1339      1.00000
    415      -0.1075      1.00000
    416      -0.0944      1.00000
    417      -0.0807      1.00000
    418      -0.0762      1.00000
    419      -0.0735      1.00000
    420      -0.0654      1.00000
    421      -0.0620      1.00000
    422      -0.0590      1.00000
    423      -0.0466      1.00000
    424      -0.0395      1.00000
    425      -0.0355      1.00000
    426      -0.0320      1.00000
    427      -0.0299      1.00000
    428      -0.0266      1.00000
    429      -0.0210      1.00000
    430      -0.0199      1.00000
    431      -0.0177      1.00000
    432      -0.0149      1.00000
    433      -0.0117      1.00000
    434      -0.0095      1.00000
    435      -0.0067      1.00000
    436      -0.0043      1.00000
    437       0.0069      1.00000
    438       0.0112      1.00000
    439       0.0135      1.00000
    440       0.0192      1.00000
    441       0.0211      1.00000
    442       0.0382      1.00000
    443       0.0450      1.00000
    444       0.0530      1.00000
    445       0.0610      1.00000
    446       0.0634      1.00000
    447       0.0644      1.00000
    448       0.0703      1.00000
    449       0.0812      1.00000
    450       0.0887      1.00000
    451       0.1010      1.00000
    452       0.1151      1.00000
    453       0.1156      1.00000
    454       0.1190      1.00000
    455       0.1196      1.00000
    456       0.1278      1.00000
    457       0.1290      1.00000
    458       0.1416      1.00000
    459       0.1423      1.00000
    460       0.1436      1.00000
    461       0.1480      1.00000
    462       0.1515      1.00000
    463       0.1567      1.00000
    464       0.1585      1.00000
    465       0.1653      1.00000
    466       0.1683      1.00000
    467       0.1714      1.00000
    468       0.1748      1.00000
    469       0.1796      1.00000
    470       0.1811      1.00000
    471       0.1861      1.00000
    472       0.1884      1.00000
    473       0.1925      1.00000
    474       0.2028      1.00000
    475       0.2090      1.00000
    476       0.2180      1.00000
    477       0.2256      1.00000
    478       0.2267      1.00000
    479       0.2292      1.00000
    480       0.2443      1.00000
    481       0.2493      1.00000
    482       0.2599      1.00000
    483       0.2661      1.00000
    484       0.2817      1.00000
    485       0.2992      1.00000
    486       0.3065      1.00000
    487       0.3148      1.00000
    488       0.3180      1.00000
    489       0.3201      1.00000
    490       0.3226      1.00000
    491       0.3292      1.00000
    492       0.3322      1.00000
    493       0.3391      1.00000
    494       0.3476      1.00000
    495       0.3528      1.00000
    496       0.3619      1.00000
    497       0.3675      1.00000
    498       0.3850      1.00000
    499       0.3893      1.00000
    500       0.3956      1.00000
    501       0.4032      1.00000
    502       0.4097      1.00000
    503       0.4221      1.00000
    504       0.4235      1.00000
    505       0.4272      1.00000
    506       0.4298      1.00000
    507       0.4355      1.00000
    508       0.4387      1.00000
    509       0.4438      1.00000
    510       0.4501      1.00000
    511       0.4676      1.00000
    512       0.4699      1.00000
    513       0.4743      1.00000
    514       0.4793      1.00000
    515       0.4896      1.00000
    516       0.4949      1.00000
    517       0.4972      1.00000
    518       0.5081      1.00000
    519       0.5110      1.00000
    520       0.5142      1.00000
    521       0.5200      1.00000
    522       0.5209      1.00000
    523       0.5243      1.00000
    524       0.5255      1.00000
    525       0.5272      1.00000
    526       0.5331      1.00000
    527       0.5346      1.00000
    528       0.5381      1.00000
    529       0.5432      1.00000
    530       0.5516      1.00000
    531       0.5617      1.00000
    532       0.5645      1.00000
    533       0.5751      1.00000
    534       0.5850      1.00000
    535       0.5865      1.00000
    536       0.5892      1.00000
    537       0.5944      1.00000
    538       0.6054      1.00000
    539       0.6109      1.00000
    540       0.6153      1.00000
    541       0.6177      1.00000
    542       0.6217      1.00000
    543       0.6264      1.00000
    544       0.6294      1.00000
    545       0.6329      1.00000
    546       0.6491      1.00000
    547       0.6548      1.00000
    548       0.6621      1.00000
    549       0.6664      1.00000
    550       0.6770      1.00000
    551       0.6895      1.00000
    552       0.6976      1.00000
    553       0.7011      1.00000
    554       0.7046      1.00000
    555       0.7067      1.00000
    556       0.7069      1.00000
    557       0.7114      1.00000
    558       0.7247      1.00000
    559       0.7388      1.00000
    560       0.7449      1.00000
    561       0.7693      1.00000
    562       0.7934      1.00000
    563       0.8091      1.00000
    564       0.8093      1.00000
    565       0.8141      1.00000
    566       0.8174      1.00000
    567       0.8297      1.00000
    568       0.8397      1.00000
    569       0.8519      1.00000
    570       0.8569      1.00000
    571       0.8623      1.00000
    572       0.8676      1.00000
    573       0.8719      1.00000
    574       0.8731      1.00000
    575       0.8763      1.00000
    576       0.8806      1.00000
    577       0.8965      1.00000
    578       0.9011      1.00000
    579       0.9023      1.00000
    580       0.9076      1.00000
    581       0.9091      1.00000
    582       0.9110      1.00000
    583       0.9155      1.00000
    584       0.9210      1.00000
    585       0.9245      1.00000
    586       0.9280      1.00000
    587       0.9292      1.00000
    588       0.9380      1.00000
    589       0.9432      1.00000
    590       0.9487      1.00000
    591       0.9501      1.00000
    592       0.9532      1.00000
    593       0.9542      1.00000
    594       0.9639      1.00000
    595       0.9698      1.00000
    596       0.9769      1.00000
    597       0.9805      1.00000
    598       0.9843      1.00000
    599       1.0062      1.00000
    600       1.0223      1.00000
    601       1.0244      1.00000
    602       1.0258      1.00000
    603       1.0292      1.00000
    604       1.0366      1.00000
    605       1.0405      1.00000
    606       1.0498      1.00000
    607       1.0520      1.00000
    608       1.0523      1.00000
    609       1.0599      1.00000
    610       1.0646      1.00000
    611       1.0661      1.00000
    612       1.0710      0.99999
    613       1.0740      0.99999
    614       1.0750      0.99999
    615       1.0857      0.99999
    616       1.0972      0.99999
    617       1.1207      0.99997
    618       1.1457      0.99995
    619       1.1561      0.99993
    620       1.1614      0.99992
    621       1.1628      0.99991
    622       1.1660      0.99991
    623       1.1948      0.99981
    624       1.2027      0.99977
    625       1.2069      0.99974
    626       1.2090      0.99973
    627       1.2098      0.99972
    628       1.2125      0.99971
    629       1.2147      0.99969
    630       1.2247      0.99961
    631       1.2358      0.99950
    632       1.2468      0.99937
    633       1.2557      0.99925
    634       1.2759      0.99889
    635       1.3111      0.99798
    636       1.3790      0.99559
    637       1.4387      0.99591
    638       1.4506      0.99688
    639       1.4652      0.99870
    640       1.6103      1.05066
    641       1.6253      1.05149
    642       1.6433      1.04691
    643       1.7000      0.97214
    644       1.7779      0.68186
    645       1.8557      0.28241
    646       1.9183      0.04708
    647       2.0253     -0.04852
    648       2.0656     -0.03186
    649       2.2082      0.00487
    650       2.2326      0.00478
    651       2.2406      0.00459
    652       2.3134      0.00206
    653       2.3754      0.00068
    654       2.5377      0.00001
    655       2.5960      0.00000
    656       2.8457      0.00000
    657       2.8504      0.00000
    658       2.8550      0.00000
    659       2.8613      0.00000
    660       2.8790      0.00000
    661       2.8802      0.00000
    662       2.8967      0.00000
    663       2.9065      0.00000
    664       2.9658      0.00000
    665       3.0146      0.00000
    666       3.2111      0.00000
    667       3.2169      0.00000
    668       3.2208      0.00000
    669       3.2257      0.00000
    670       3.2305      0.00000
    671       3.2515      0.00000
    672       3.2831      0.00000
    673       3.2989      0.00000
    674       3.3681      0.00000
    675       3.3938      0.00000
    676       3.5364      0.00000
    677       3.6796      0.00000
    678       3.7244      0.00000
    679       4.0305      0.00000
    680       4.0317      0.00000
    681       4.0364      0.00000
    682       4.0476      0.00000
    683       4.0495      0.00000
    684       4.0525      0.00000
    685       4.0638      0.00000
    686       4.0810      0.00000
    687       4.1209      0.00000
    688       4.1292      0.00000
    689       4.1362      0.00000
    690       4.1434      0.00000
    691       4.2367      0.00000
    692       4.2648      0.00000
    693       4.3497      0.00000
    694       4.4174      0.00000
    695       4.4305      0.00000
    696       4.4349      0.00000
    697       4.4804      0.00000
    698       4.4934      0.00000
    699       4.6301      0.00000
    700       4.6445      0.00000
    701       4.7860      0.00000
    702       4.9261      0.00000
    703       4.9614      0.00000
    704       5.0577      0.00000
    705       5.0984      0.00000
    706       5.1446      0.00000
    707       5.2177      0.00000
    708       5.3877      0.00000
    709       5.4052      0.00000
    710       5.4973      0.00000
    711       5.4989      0.00000
    712       5.5573      0.00000
    713       5.5898      0.00000
    714       5.6551      0.00000
    715       5.6696      0.00000
    716       5.8010      0.00000
    717       5.9048      0.00000
    718       6.0261      0.00000
    719       6.0643      0.00000
    720       6.1980      0.00000
    721       6.4078      0.00000
    722       6.4834      0.00000
    723       6.6891      0.00000
    724       6.7562      0.00000
    725       6.7993      0.00000
    726       6.9821      0.00000
    727       7.0208      0.00000
    728       7.1065      0.00000
    729       7.1081      0.00000
    730       7.1883      0.00000
    731       7.2119      0.00000
    732       7.2661      0.00000
    733       7.3059      0.00000
    734       7.3683      0.00000
    735       7.4510      0.00000
    736       7.5939      0.00000

 spin component 2

 k-point   1 :       0.0000    0.0000    0.0000
  band No.  band energies     occupation 
      1     -16.8506      1.00000
      2      -6.8702      1.00000
      3      -5.9714      1.00000
      4      -5.9352      1.00000
      5      -5.9190      1.00000
      6      -5.2679      1.00000
      7      -5.2602      1.00000
      8      -5.0863      1.00000
      9      -5.0630      1.00000
     10      -4.8567      1.00000
     11      -4.8511      1.00000
     12      -4.5695      1.00000
     13      -4.4705      1.00000
     14      -4.4480      1.00000
     15      -4.1160      1.00000
     16      -4.0869      1.00000
     17      -4.0840      1.00000
     18      -4.0745      1.00000
     19      -3.7936      1.00000
     20      -3.7454      1.00000
     21      -3.6268      1.00000
     22      -3.6042      1.00000
     23      -3.5037      1.00000
     24      -3.4231      1.00000
     25      -3.3503      1.00000
     26      -3.2725      1.00000
     27      -3.2616      1.00000
     28      -3.2110      1.00000
     29      -3.1030      1.00000
     30      -3.0621      1.00000
     31      -3.0500      1.00000
     32      -3.0220      1.00000
     33      -2.9661      1.00000
     34      -2.9262      1.00000
     35      -2.8174      1.00000
     36      -2.7594      1.00000
     37      -2.5794      1.00000
     38      -2.5417      1.00000
     39      -2.5177      1.00000
     40      -2.4397      1.00000
     41      -2.4355      1.00000
     42      -2.3917      1.00000
     43      -2.3487      1.00000
     44      -2.2967      1.00000
     45      -2.2911      1.00000
     46      -2.2798      1.00000
     47      -2.2732      1.00000
     48      -2.2302      1.00000
     49      -2.1472      1.00000
     50      -2.1429      1.00000
     51      -2.1415      1.00000
     52      -2.0947      1.00000
     53      -2.0911      1.00000
     54      -2.0753      1.00000
     55      -2.0747      1.00000
     56      -2.0125      1.00000
     57      -2.0091      1.00000
     58      -1.9659      1.00000
     59      -1.9509      1.00000
     60      -1.9301      1.00000
     61      -1.9086      1.00000
     62      -1.9073      1.00000
     63      -1.8941      1.00000
     64      -1.8936      1.00000
     65      -1.8922      1.00000
     66      -1.8850      1.00000
     67      -1.8836      1.00000
     68      -1.8822      1.00000
     69      -1.8700      1.00000
     70      -1.8643      1.00000
     71      -1.7943      1.00000
     72      -1.7786      1.00000
     73      -1.7746      1.00000
     74      -1.7613      1.00000
     75      -1.6871      1.00000
     76      -1.6844      1.00000
     77      -1.6772      1.00000
     78      -1.6762      1.00000
     79      -1.6455      1.00000
     80      -1.6079      1.00000
     81      -1.5987      1.00000
     82      -1.5785      1.00000
     83      -1.5511      1.00000
     84      -1.5173      1.00000
     85      -1.5039      1.00000
     86      -1.4627      1.00000
     87      -1.4596      1.00000
     88      -1.4544      1.00000
     89      -1.4472      1.00000
     90      -1.4362      1.00000
     91      -1.4295      1.00000
     92      -1.4287      1.00000
     93      -1.4098      1.00000
     94      -1.4092      1.00000
     95      -1.3849      1.00000
     96      -1.3776      1.00000
     97      -1.3671      1.00000
     98      -1.3631      1.00000
     99      -1.3536      1.00000
    100      -1.3372      1.00000
    101      -1.3339      1.00000
    102      -1.3178      1.00000
    103      -1.3121      1.00000
    104      -1.3035      1.00000
    105      -1.2960      1.00000
    106      -1.2767      1.00000
    107      -1.2714      1.00000
    108      -1.2584      1.00000
    109      -1.2525      1.00000
    110      -1.2371      1.00000
    111      -1.2112      1.00000
    112      -1.1713      1.00000
    113      -1.1686      1.00000
    114      -1.1204      1.00000
    115      -1.1032      1.00000
    116      -1.0991      1.00000
    117      -1.0962      1.00000
    118      -1.0931      1.00000
    119      -1.0848      1.00000
    120      -1.0750      1.00000
    121      -1.0662      1.00000
    122      -1.0639      1.00000
    123      -1.0596      1.00000
    124      -1.0218      1.00000
    125      -1.0096      1.00000
    126      -1.0004      1.00000
    127      -0.9848      1.00000
    128      -0.9687      1.00000
    129      -0.8844      1.00000
    130      -0.8791      1.00000
    131      -0.8690      1.00000
    132      -0.8670      1.00000
    133      -0.8649      1.00000
    134      -0.8612      1.00000
    135      -0.8524      1.00000
    136      -0.8399      1.00000
    137      -0.8324      1.00000
    138      -0.8214      1.00000
    139      -0.8150      1.00000
    140      -0.8131      1.00000
    141      -0.7973      1.00000
    142      -0.7910      1.00000
    143      -0.7569      1.00000
    144      -0.7552      1.00000
    145      -0.7492      1.00000
    146      -0.7393      1.00000
    147      -0.7274      1.00000
    148      -0.7204      1.00000
    149      -0.7200      1.00000
    150      -0.6818      1.00000
    151      -0.6454      1.00000
    152      -0.6420      1.00000
    153      -0.6377      1.00000
    154      -0.6344      1.00000
    155      -0.6134      1.00000
    156      -0.6066      1.00000
    157      -0.6000      1.00000
    158      -0.5921      1.00000
    159      -0.5757      1.00000
    160      -0.5608      1.00000
    161      -0.5556      1.00000
    162      -0.5229      1.00000
    163      -0.5154      1.00000
    164      -0.5070      1.00000
    165      -0.5025      1.00000
    166      -0.4882      1.00000
    167      -0.4852      1.00000
    168      -0.4688      1.00000
    169      -0.4632      1.00000
    170      -0.4554      1.00000
    171      -0.4535      1.00000
    172      -0.4506      1.00000
    173      -0.4232      1.00000
    174      -0.3992      1.00000
    175      -0.3979      1.00000
    176      -0.3911      1.00000
    177      -0.3768      1.00000
    178      -0.3639      1.00000
    179      -0.3530      1.00000
    180      -0.3485      1.00000
    181      -0.3410      1.00000
    182      -0.2967      1.00000
    183      -0.2928      1.00000
    184      -0.2839      1.00000
    185      -0.2826      1.00000
    186      -0.2784      1.00000
    187      -0.2718      1.00000
    188      -0.2576      1.00000
    189      -0.2515      1.00000
    190      -0.2257      1.00000
    191      -0.2218      1.00000
    192      -0.2192      1.00000
    193      -0.2156      1.00000
    194      -0.1614      1.00000
    195      -0.1568      1.00000
    196      -0.1477      1.00000
    197      -0.1417      1.00000
    198      -0.1373      1.00000
    199      -0.1344      1.00000
    200      -0.1331      1.00000
    201      -0.1262      1.00000
    202      -0.0791      1.00000
    203      -0.0740      1.00000
    204      -0.0516      1.00000
    205      -0.0461      1.00000
    206      -0.0388      1.00000
    207      -0.0323      1.00000
    208      -0.0208      1.00000
    209      -0.0155      1.00000
    210      -0.0085      1.00000
    211      -0.0038      1.00000
    212       0.0093      1.00000
    213       0.0217      1.00000
    214       0.0450      1.00000
    215       0.0502      1.00000
    216       0.0801      1.00000
    217       0.0860      1.00000
    218       0.1277      1.00000
    219       0.1298      1.00000
    220       0.1336      1.00000
    221       0.1365      1.00000
    222       0.1397      1.00000
    223       0.1459      1.00000
    224       0.1502      1.00000
    225       0.1509      1.00000
    226       0.1545      1.00000
    227       0.2021      1.00000
    228       0.2104      1.00000
    229       0.2200      1.00000
    230       0.2242      1.00000
    231       0.2253      1.00000
    232       0.2264      1.00000
    233       0.2328      1.00000
    234       0.2347      1.00000
    235       0.2359      1.00000
    236       0.2403      1.00000
    237       0.2433      1.00000
    238       0.2483      1.00000
    239       0.2622      1.00000
    240       0.2669      1.00000
    241       0.2680      1.00000
    242       0.2779      1.00000
    243       0.2799      1.00000
    244       0.2907      1.00000
    245       0.3220      1.00000
    246       0.3311      1.00000
    247       0.3367      1.00000
    248       0.3398      1.00000
    249       0.3442      1.00000
    250       0.3504      1.00000
    251       0.3597      1.00000
    252       0.3685      1.00000
    253       0.3792      1.00000
    254       0.3879      1.00000
    255       0.4089      1.00000
    256       0.4276      1.00000
    257       0.4339      1.00000
    258       0.4426      1.00000
    259       0.4463      1.00000
    260       0.4524      1.00000
    261       0.4724      1.00000
    262       0.4762      1.00000
    263       0.4901      1.00000
    264       0.4913      1.00000
    265       0.4959      1.00000
    266       0.5075      1.00000
    267       0.5135      1.00000
    268       0.5295      1.00000
    269       0.5350      1.00000
    270       0.5380      1.00000
    271       0.5397      1.00000
    272       0.5408      1.00000
    273       0.5452      1.00000
    274       0.5522      1.00000
    275       0.5577      1.00000
    276       0.5615      1.00000
    277       0.5643      1.00000
    278       0.5685      1.00000
    279       0.5713      1.00000
    280       0.5767      1.00000
    281       0.5802      1.00000
    282       0.5865      1.00000
    283       0.6025      1.00000
    284       0.6050      1.00000
    285       0.6136      1.00000
    286       0.6399      1.00000
    287       0.6506      1.00000
    288       0.6567      1.00000
    289       0.6668      1.00000
    290       0.6792      1.00000
    291       0.6871      1.00000
    292       0.6933      1.00000
    293       0.6984      1.00000
    294       0.7092      1.00000
    295       0.7183      1.00000
    296       0.7251      1.00000
    297       0.7258      1.00000
    298       0.7318      1.00000
    299       0.7376      1.00000
    300       0.7394      1.00000
    301       0.7447      1.00000
    302       0.7476      1.00000
    303       0.7575      1.00000
    304       0.7676      1.00000
    305       0.7731      1.00000
    306       0.7808      1.00000
    307       0.7871      1.00000
    308       0.7909      1.00000
    309       0.7918      1.00000
    310       0.7963      1.00000
    311       0.8029      1.00000
    312       0.8065      1.00000
    313       0.8073      1.00000
    314       0.8083      1.00000
    315       0.8172      1.00000
    316       0.8192      1.00000
    317       0.8232      1.00000
    318       0.8280      1.00000
    319       0.8304      1.00000
    320       0.8435      1.00000
    321       0.8478      1.00000
    322       0.8531      1.00000
    323       0.8554      1.00000
    324       0.8572      1.00000
    325       0.8601      1.00000
    326       0.8636      1.00000
    327       0.8670      1.00000
    328       0.8693      1.00000
    329       0.8727      1.00000
    330       0.8799      1.00000
    331       0.8844      1.00000
    332       0.8906      1.00000
    333       0.8955      1.00000
    334       0.9290      1.00000
    335       0.9478      1.00000
    336       0.9640      1.00000
    337       0.9677      1.00000
    338       0.9717      1.00000
    339       0.9738      1.00000
    340       0.9762      1.00000
    341       0.9791      1.00000
    342       0.9804      1.00000
    343       0.9848      1.00000
    344       0.9882      1.00000
    345       0.9968      1.00000
    346       0.9974      1.00000
    347       1.0002      1.00000
    348       1.0086      1.00000
    349       1.0116      1.00000
    350       1.0129      1.00000
    351       1.0167      1.00000
    352       1.0207      1.00000
    353       1.0338      1.00000
    354       1.0363      1.00000
    355       1.0387      1.00000
    356       1.0407      1.00000
    357       1.0447      1.00000
    358       1.0534      1.00000
    359       1.0568      1.00000
    360       1.0587      1.00000
    361       1.0621      1.00000
    362       1.0663      1.00000
    363       1.0678      0.99999
    364       1.0702      0.99999
    365       1.0767      0.99999
    366       1.0860      0.99999
    367       1.0890      0.99999
    368       1.1108      0.99998
    369       1.1178      0.99998
    370       1.1333      0.99996
    371       1.1557      0.99993
    372       1.1614      0.99992
    373       1.1674      0.99990
    374       1.1748      0.99988
    375       1.1830      0.99986
    376       1.1920      0.99982
    377       1.1927      0.99982
    378       1.1990      0.99979
    379       1.2099      0.99972
    380       1.2196      0.99965
    381       1.2317      0.99955
    382       1.2412      0.99944
    383       1.2485      0.99935
    384       1.2640      0.99912
    385       1.2803      0.99880
    386       1.2978      0.99837
    387       1.3031      0.99823
    388       1.3094      0.99804
    389       1.3259      0.99750
    390       1.3355      0.99716
    391       1.3364      0.99712
    392       1.3405      0.99697
    393       1.3566      0.99637
    394       1.3627      0.99614
    395       1.3729      0.99579
    396       1.3735      0.99577
    397       1.3802      0.99556
    398       1.3858      0.99540
    399       1.3893      0.99532
    400       1.3919      0.99526
    401       1.3954      0.99519
    402       1.4017      0.99510
    403       1.4213      0.99519
    404       1.4362      0.99576
    405       1.4571      0.99759
    406       1.4638      0.99849
    407       1.4891      1.00352
    408       1.4937      1.00474
    409       1.4986      1.00615
    410       1.5105      1.01000
    411       1.5144      1.01142
    412       1.5171      1.01241
    413       1.5385      1.02139
    414       1.5418      1.02291
    415       1.5447      1.02425
    416       1.5568      1.03003
    417       1.5620      1.03256
    418       1.5691      1.03591
    419       1.5702      1.03642
    420       1.5896      1.04479
    421       1.5940      1.04637
    422       1.6048      1.04954
    423       1.6404      1.04812
    424       1.6435      1.04680
    425       1.6485      1.04421
    426       1.6650      1.03059
    427       1.6953      0.98259
    428       1.7003      0.97157
    429       1.7362      0.86331
    430       1.7471      0.82109
    431       1.7486      0.81496
    432       1.7505      0.80725
    433       1.7656      0.74027
    434       1.7717      0.71152
    435       1.7849      0.64687
    436       1.7925      0.60779
    437       1.7960      0.58961
    438       1.7978      0.58037
    439       1.8042      0.54680
    440       1.8110      0.51113
    441       1.8136      0.49698
    442       1.8189      0.46900
    443       1.8270      0.42635
    444       1.8289      0.41650
    445       1.8306      0.40769
    446       1.8354      0.38310
    447       1.8387      0.36634
    448       1.8404      0.35777
    449       1.8414      0.35231
    450       1.8427      0.34609
    451       1.8451      0.33390
    452       1.8546      0.28758
    453       1.8555      0.28331
    454       1.8591      0.26619
    455       1.8629      0.24874
    456       1.8864      0.14998
    457       1.8931      0.12517
    458       1.9149      0.05622
    459       1.9238      0.03331
    460       1.9328      0.01332
    461       1.9361      0.00671
    462       1.9421     -0.00425
    463       1.9506     -0.01762
    464       1.9577     -0.02674
    465       1.9810     -0.04605
    466       1.9847     -0.04772
    467       1.9955     -0.05085
    468       2.0101     -0.05139
    469       2.0356     -0.04512
    470       2.0385     -0.04403
    471       2.0431     -0.04218
    472       2.0488     -0.03971
    473       2.0576     -0.03565
    474       2.0615     -0.03380
    475       2.0695     -0.02994
    476       2.0765     -0.02658
    477       2.0941     -0.01852
    478       2.0946     -0.01833
    479       2.1002     -0.01592
    480       2.1041     -0.01435
    481       2.1052     -0.01390
    482       2.1109     -0.01174
    483       2.1118     -0.01140
    484       2.1156     -0.01003
    485       2.1223     -0.00778
    486       2.1329     -0.00461
    487       2.1355     -0.00392
    488       2.1714      0.00268
    489       2.1731      0.00288
    490       2.1840      0.00385
    491       2.1872      0.00407
    492       2.2076      0.00486
    493       2.2125      0.00492
    494       2.2140      0.00493
    495       2.2193      0.00493
    496       2.2213      0.00492
    497       2.2259      0.00488
    498       2.2285      0.00485
    499       2.2340      0.00475
    500       2.2375      0.00467
    501       2.2426      0.00454
    502       2.2463      0.00443
    503       2.2515      0.00427
    504       2.2531      0.00422
    505       2.2624      0.00389
    506       2.2785      0.00330
    507       2.2833      0.00312
    508       2.2866      0.00299
    509       2.2948      0.00269
    510       2.2952      0.00268
    511       2.2980      0.00258
    512       2.3027      0.00241
    513       2.3048      0.00235
    514       2.3100      0.00217
    515       2.3146      0.00203
    516       2.3235      0.00176
    517       2.3327      0.00151
    518       2.3406      0.00132
    519       2.3433      0.00126
    520       2.3570      0.00098
    521       2.3601      0.00092
    522       2.3691      0.00077
    523       2.3704      0.00075
    524       2.3778      0.00065
    525       2.3805      0.00061
    526       2.3875      0.00053
    527       2.3929      0.00047
    528       2.4015      0.00039
    529       2.4086      0.00033
    530       2.4179      0.00027
    531       2.4203      0.00025
    532       2.4264      0.00022
    533       2.4331      0.00018
    534       2.4394      0.00016
    535       2.4423      0.00015
    536       2.4461      0.00013
    537       2.4528      0.00011
    538       2.4717      0.00007
    539       2.4729      0.00007
    540       2.4825      0.00005
    541       2.4865      0.00005
    542       2.5002      0.00003
    543       2.5040      0.00003
    544       2.5127      0.00002
    545       2.5151      0.00002
    546       2.5194      0.00002
    547       2.5198      0.00002
    548       2.5231      0.00002
    549       2.5294      0.00001
    550       2.5304      0.00001
    551       2.5388      0.00001
    552       2.5581      0.00001
    553       2.5597      0.00000
    554       2.5782      0.00000
    555       2.5868      0.00000
    556       2.6156      0.00000
    557       2.6242      0.00000
    558       2.6337      0.00000
    559       2.6446      0.00000
    560       2.6556      0.00000
    561       2.6597      0.00000
    562       2.6628      0.00000
    563       2.6707      0.00000
    564       2.6793      0.00000
    565       2.6840      0.00000
    566       2.6869      0.00000
    567       2.6922      0.00000
    568       2.6945      0.00000
    569       2.6954      0.00000
    570       2.7103      0.00000
    571       2.7172      0.00000
    572       2.7508      0.00000
    573       2.7601      0.00000
    574       2.7663      0.00000
    575       2.7721      0.00000
    576       2.7754      0.00000
    577       2.7849      0.00000
    578       2.7960      0.00000
    579       2.8016      0.00000
    580       2.8060      0.00000
    581       2.8077      0.00000
    582       2.8212      0.00000
    583       2.8260      0.00000
    584       2.8308      0.00000
    585       2.8340      0.00000
    586       2.8382      0.00000
    587       2.8397      0.00000
    588       2.8414      0.00000
    589       2.8461      0.00000
    590       2.8480      0.00000
    591       2.8496      0.00000
    592       2.8503      0.00000
    593       2.8507      0.00000
    594       2.8527      0.00000
    595       2.8591      0.00000
    596       2.8628      0.00000
    597       2.8663      0.00000
    598       2.8696      0.00000
    599       2.8762      0.00000
    600       2.8788      0.00000
    601       2.8802      0.00000
    602       2.8831      0.00000
    603       2.8874      0.00000
    604       2.8896      0.00000
    605       2.8906      0.00000
    606       2.9044      0.00000
    607       2.9168      0.00000
    608       2.9239      0.00000
    609       2.9301      0.00000
    610       2.9334      0.00000
    611       2.9362      0.00000
    612       2.9381      0.00000
    613       2.9417      0.00000
    614       2.9443      0.00000
    615       2.9447      0.00000
    616       2.9479      0.00000
    617       2.9489      0.00000
    618       2.9535      0.00000
    619       2.9547      0.00000
    620       2.9572      0.00000
    621       2.9738      0.00000
    622       2.9775      0.00000
    623       2.9793      0.00000
    624       2.9821      0.00000
    625       2.9839      0.00000
    626       2.9857      0.00000
    627       3.0204      0.00000
    628       3.0226      0.00000
    629       3.0264      0.00000
    630       3.0351      0.00000
    631       3.0358      0.00000
    632       3.0509      0.00000
    633       3.0525      0.00000
    634       3.0539      0.00000
    635       3.0597      0.00000
    636       3.0798      0.00000
    637       3.1032      0.00000
    638       3.1174      0.00000
    639       3.1323      0.00000
    640       3.1562      0.00000
    641       3.1585      0.00000
    642       3.1611      0.00000
    643       3.1768      0.00000
    644       3.2153      0.00000
    645       3.3084      0.00000
    646       3.3238      0.00000
    647       3.3678      0.00000
    648       3.3861      0.00000
    649       3.4031      0.00000
    650       3.4525      0.00000
    651       3.4977      0.00000
    652       3.5916      0.00000
    653       3.6291      0.00000
    654       3.7551      0.00000
    655       3.8023      0.00000
    656       3.9738      0.00000
    657       3.9855      0.00000
    658       4.0626      0.00000
    659       4.0730      0.00000
    660       4.1377      0.00000
    661       4.1403      0.00000
    662       4.1491      0.00000
    663       4.1546      0.00000
    664       4.1573      0.00000
    665       4.1808      0.00000
    666       4.1893      0.00000
    667       4.2938      0.00000
    668       4.3133      0.00000
    669       4.3313      0.00000
    670       4.3490      0.00000
    671       4.4125      0.00000
    672       4.4179      0.00000
    673       4.4283      0.00000
    674       4.4769      0.00000
    675       4.5212      0.00000
    676       4.5465      0.00000
    677       4.6401      0.00000
    678       4.6586      0.00000
    679       4.7173      0.00000
    680       4.7207      0.00000
    681       4.7998      0.00000
    682       4.8399      0.00000
    683       4.8546      0.00000
    684       4.9457      0.00000
    685       4.9503      0.00000
    686       4.9540      0.00000
    687       4.9565      0.00000
    688       4.9688      0.00000
    689       4.9821      0.00000
    690       5.0057      0.00000
    691       5.0134      0.00000
    692       5.0190      0.00000
    693       5.0871      0.00000
    694       5.1379      0.00000
    695       5.1673      0.00000
    696       5.1782      0.00000
    697       5.1903      0.00000
    698       5.1991      0.00000
    699       5.5659      0.00000
    700       5.6874      0.00000
    701       5.6967      0.00000
    702       5.7071      0.00000
    703       5.7265      0.00000
    704       5.7740      0.00000
    705       5.8668      0.00000
    706       6.0580      0.00000
    707       6.0676      0.00000
    708       6.0845      0.00000
    709       6.1223      0.00000
    710       6.1458      0.00000
    711       6.1500      0.00000
    712       6.2159      0.00000
    713       6.2613      0.00000
    714       6.3288      0.00000
    715       6.3642      0.00000
    716       6.4765      0.00000
    717       6.5114      0.00000
    718       6.6096      0.00000
    719       6.7555      0.00000
    720       6.7724      0.00000
    721       6.7906      0.00000
    722       6.8712      0.00000
    723       7.0992      0.00000
    724       7.2655      0.00000
    725       7.3348      0.00000
    726       7.3411      0.00000
    727       7.3813      0.00000
    728       7.6388      0.00000
    729       7.6493      0.00000
    730       7.6575      0.00000
    731       7.6631      0.00000
    732       7.7093      0.00000
    733       7.7136      0.00000
    734       7.7460      0.00000
    735       7.8020      0.00000
    736       7.8562      0.00000


--------------------------------------------------------------------------------------------------------


 soft charge-density along one line, spin component           1
         0         1         2         3         4         5         6         7         8         9
 total charge-density along one line
 
 soft charge-density along one line, spin component           2
         0         1         2         3         4         5         6         7         8         9
 total charge-density along one line
 
 pseudopotential strength for first ion, spin component:           1
 -6.358  -0.003  -0.000  -0.024   0.002  -6.785  -0.003  -0.000
 -0.003  -6.414  -0.004  -0.002  -0.026  -0.003  -6.839  -0.004
 -0.000  -0.004  -6.416  -0.002  -0.007  -0.000  -0.004  -6.841
 -0.024  -0.002  -0.002  -6.425  -0.006  -0.023  -0.002  -0.002
  0.002  -0.026  -0.007  -0.006  -6.372   0.002  -0.025  -0.007
 -6.785  -0.003  -0.000  -0.023   0.002  -7.159  -0.003  -0.000
 -0.003  -6.839  -0.004  -0.002  -0.025  -0.003  -7.212  -0.004
 -0.000  -0.004  -6.841  -0.002  -0.007  -0.000  -0.004  -7.214
 -0.023  -0.002  -0.002  -6.850  -0.006  -0.022  -0.002  -0.002
  0.002  -0.025  -0.007  -0.006  -6.798   0.001  -0.024  -0.006
  0.000   0.000   0.005   0.001  -0.000   0.000   0.000   0.005
  0.001   0.000   0.009   0.002  -0.001   0.001   0.000   0.009
 -0.000  -0.001  -0.000  -0.000  -0.001  -0.000  -0.001  -0.000
 -0.000   0.000   0.007  -0.000   0.000  -0.000   0.000   0.007
 -0.000  -0.000   0.000  -0.001  -0.000  -0.000  -0.000   0.000
 -0.000   0.001  -0.000  -0.000  -0.002  -0.000   0.001  -0.000
 -0.000   0.000   0.011  -0.000   0.000  -0.000   0.000   0.011
 -0.000  -0.000   0.000   0.001  -0.000  -0.000  -0.000   0.000
 pseudopotential strength for first ion, spin component:           2
 -4.994  -0.004  -0.003   0.020  -0.001  -5.479  -0.004  -0.003
 -0.004  -4.976   0.003   0.002   0.021  -0.004  -5.461   0.003
 -0.003   0.003  -4.999  -0.002   0.010  -0.003   0.003  -5.483
  0.020   0.002  -0.002  -4.974  -0.002   0.019   0.002  -0.002
 -0.001   0.021   0.010  -0.002  -4.995  -0.001   0.021   0.010
 -5.479  -0.004  -0.003   0.019  -0.001  -5.909  -0.004  -0.003
 -0.004  -5.461   0.003   0.002   0.021  -0.004  -5.892   0.002
 -0.003   0.003  -5.483  -0.002   0.010  -0.003   0.002  -5.914
  0.019   0.002  -0.002  -5.459  -0.002   0.019   0.002  -0.002
 -0.001   0.021   0.010  -0.002  -5.480  -0.001   0.020   0.009
 -0.001   0.000  -0.002   0.001   0.001  -0.001   0.000  -0.002
 -0.001   0.000  -0.003   0.001   0.002  -0.001   0.000  -0.003
 -0.000  -0.006  -0.000   0.000  -0.000  -0.000  -0.006  -0.000
  0.000   0.000  -0.009  -0.000  -0.000   0.000   0.000  -0.008
  0.000   0.000   0.000  -0.006  -0.000   0.000   0.000   0.000
 -0.000  -0.006  -0.000   0.000   0.000  -0.000  -0.005  -0.000
  0.000   0.000  -0.010  -0.000  -0.000   0.000   0.000  -0.010
  0.001   0.000   0.000  -0.006  -0.000   0.001   0.000   0.000
 total augmentation occupancy for first ion, spin component:           1
  2.701  -0.008  -0.037   0.054  -0.010  -1.327   0.007   0.027  -0.031   0.011   0.001   0.000  -0.000   0.004   0.024   0.000
 -0.008   2.734  -0.005  -0.002   0.053   0.007  -1.164  -0.001  -0.001  -0.034  -0.003  -0.001  -0.179  -0.001  -0.000   0.009
 -0.037  -0.005   2.818  -0.004   0.046   0.027  -0.001  -1.311   0.003  -0.038   0.339   0.018  -0.003  -0.121   0.001   0.000
  0.054  -0.002  -0.004   2.713  -0.008  -0.032  -0.001   0.003  -1.158   0.004   0.000   0.001  -0.002  -0.000  -0.178   0.000
 -0.010   0.053   0.046  -0.008   2.516   0.011  -0.033  -0.037   0.004  -1.208  -0.039  -0.007   0.026  -0.005  -0.001  -0.001
 -1.327   0.007   0.027  -0.032   0.011   1.529  -0.006  -0.020  -0.018  -0.009  -0.001  -0.000   0.000  -0.003  -0.032  -0.000
  0.007  -1.164  -0.001  -0.001  -0.033  -0.006   1.135   0.003   0.001  -0.016   0.002   0.000   0.190   0.001   0.001  -0.021
  0.027  -0.001  -1.311   0.003  -0.037  -0.020   0.003   1.356  -0.002   0.024  -0.430   0.019   0.001   0.232  -0.001  -0.000
 -0.031  -0.001   0.003  -1.158   0.004  -0.018   0.001  -0.002   1.133  -0.004  -0.001  -0.001   0.001   0.000   0.190  -0.000
  0.011  -0.034  -0.038   0.004  -1.208  -0.009  -0.016   0.024  -0.004   1.445   0.029   0.006  -0.034   0.004   0.001   0.002
  0.001  -0.003   0.339   0.000  -0.039  -0.001   0.002  -0.430  -0.001   0.029   2.052  -0.192  -0.001   0.189  -0.000   0.000
  0.000  -0.001   0.018   0.001  -0.007  -0.000   0.000   0.019  -0.001   0.006  -0.192   0.028  -0.000  -0.033  -0.000  -0.000
 -0.000  -0.179  -0.003  -0.002   0.026   0.000   0.190   0.001   0.001  -0.034  -0.001  -0.000   0.268   0.000   0.000  -0.024
  0.004  -0.001  -0.121  -0.000  -0.005  -0.003   0.001   0.232   0.000   0.004   0.189  -0.033   0.000   0.174   0.001  -0.000
  0.024  -0.000   0.001  -0.178  -0.001  -0.032   0.001  -0.001   0.190   0.001  -0.000  -0.000   0.000   0.001   0.259   0.000
  0.000   0.009   0.000   0.000  -0.001  -0.000  -0.021  -0.000  -0.000   0.002   0.000  -0.000  -0.024  -0.000   0.000   0.002
  0.000   0.000  -0.008   0.000   0.000  -0.000  -0.000  -0.015   0.000  -0.000  -0.031   0.004  -0.000  -0.017   0.000  -0.000
 -0.001   0.000  -0.000   0.008   0.000   0.002  -0.000   0.000  -0.021   0.000  -0.000  -0.000   0.000   0.000  -0.023   0.000
 total augmentation occupancy for first ion, spin component:           2
  2.008  -0.008  -0.038   0.059  -0.016  -0.950   0.005   0.028  -0.015   0.012  -0.002   0.000  -0.001   0.003   0.003   0.000
 -0.008   2.011   0.015   0.007   0.068   0.005  -0.914  -0.006  -0.002  -0.019  -0.005  -0.001   0.003   0.000  -0.002  -0.009
 -0.038   0.015   2.030  -0.002   0.063   0.027  -0.006  -0.940   0.002  -0.035   0.023   0.050   0.003  -0.049  -0.000  -0.000
  0.059   0.007  -0.002   2.023   0.004  -0.015  -0.002   0.002  -0.914  -0.000   0.002   0.002  -0.000  -0.000   0.002  -0.000
 -0.016   0.068   0.063   0.004   1.891   0.012  -0.018  -0.035   0.000  -0.849  -0.022  -0.007   0.005  -0.004  -0.001  -0.000
 -0.950   0.005   0.027  -0.015   0.012   0.248  -0.003  -0.019   0.006  -0.010  -0.000  -0.001   0.000  -0.003   0.002  -0.000
  0.005  -0.914  -0.006  -0.002  -0.018  -0.003   0.245   0.002   0.001   0.007   0.004   0.000  -0.006  -0.001   0.001   0.006
  0.028  -0.006  -0.940   0.002  -0.035  -0.019   0.002   0.259  -0.002   0.021   0.017  -0.030  -0.001  -0.004  -0.000   0.000
 -0.015  -0.002   0.002  -0.914   0.000   0.006   0.001  -0.002   0.242  -0.001  -0.001  -0.001   0.001   0.000  -0.006   0.000
  0.012  -0.019  -0.035  -0.000  -0.849  -0.010   0.007   0.021  -0.001   0.175   0.016   0.004   0.001   0.002   0.000  -0.000
 -0.002  -0.005   0.023   0.002  -0.022  -0.000   0.004   0.017  -0.001   0.016  -0.275   0.083   0.000  -0.021  -0.001  -0.000
  0.000  -0.001   0.050   0.002  -0.007  -0.001   0.000  -0.030  -0.001   0.004   0.083  -0.011  -0.000   0.006  -0.000   0.000
 -0.001   0.003   0.003  -0.000   0.005   0.000  -0.006  -0.001   0.001   0.001   0.000  -0.000  -0.025   0.000  -0.000   0.004
  0.003   0.000  -0.049  -0.000  -0.004  -0.003  -0.001  -0.004   0.000   0.002  -0.021   0.006   0.000  -0.021   0.001  -0.000
  0.003  -0.002  -0.000   0.002  -0.001   0.002   0.001  -0.000  -0.006   0.000  -0.001  -0.000  -0.000   0.001  -0.031   0.000
  0.000  -0.009  -0.000  -0.000  -0.000  -0.000   0.006   0.000   0.000  -0.000  -0.000   0.000   0.004  -0.000   0.000  -0.000
  0.000   0.000  -0.014   0.000  -0.000  -0.000  -0.000   0.009  -0.000   0.000   0.003  -0.002  -0.000   0.003  -0.000   0.000
  0.000   0.000   0.000  -0.009   0.000  -0.000  -0.000  -0.000   0.006  -0.000   0.000  -0.000   0.000  -0.000   0.004  -0.000


------------------------ aborting loop because EDIFF is reached ----------------------------------------


    CHARGE:  cpu time    1.02: real time    1.04
    FORLOC:  cpu time    0.09: real time    0.09
    FORNL :  cpu time    3.00: real time    3.03
    STRESS:  cpu time    8.82: real time    8.85
    FORCOR:  cpu time    0.39: real time    0.39
    FORHAR:  cpu time    0.11: real time    0.11
    MIXING:  cpu time    0.02: real time    0.02

  FORCE on cell =-STRESS in cart. coord.  units (eV):
  Direction    XX          YY          ZZ          XY          YZ          ZX
  --------------------------------------------------------------------------------------
  Alpha Z  2067.85644  2067.85644  2067.85644
  Ewald  484371.21667484384.45314************     3.47598     9.80893     3.58392
  Hartree508644.82714508650.32677************     6.44520    -0.32977    -1.38826
  E(xc)   -5564.32514 -5564.08344 -5570.93413    -0.16390     0.43048     0.28131
  Local  ************************************   -19.54250     4.87322     7.58865
  n-local  -668.57919  -629.97696  -703.38378     6.17075     3.21499     2.19788
  augment 18701.23614 18692.48666 18674.47943     4.01995   -10.98293    -8.01983
  Kinetic  9176.66885  9190.55163  9252.48278     3.41768    -8.17471    -4.64159
  Fock        0.00000     0.00000     0.00000     0.00000     0.00000     0.00000
  -------------------------------------------------------------------------------------
  Total     -62.29991   -30.77048   -13.42121     3.82317    -1.15979    -0.39793
  in kB     -33.51509   -16.55340    -7.22012     2.05673    -0.62393    -0.21407
  external pressure =      -19.10 kB  Pullay stress =        0.00 kB


 VOLUME and BASIS-vectors are now :
 -----------------------------------------------------------------------------
  energy-cutoff  :      450.00
  volume of cell :     2978.23
      direct lattice vectors                 reciprocal lattice vectors
     9.956100464  0.000000000  0.000000000     0.100440931  0.057989601  0.000000000
    -7.467050076 12.933309555  0.000000000     0.000000000  0.077319730  0.000000000
     0.000000000  0.000000000 23.129100800     0.000000000  0.000000000  0.043235576

  length of vectors
     9.956100464 14.934099667 23.129100800     0.115979198  0.077319730  0.043235576


 FORCES acting on ions
    electron-ion (+dipol)            ewald-force                    non-local-force                 convergence-correction
 -----------------------------------------------------------------------------------------------
   -.219E-01 0.119E+00 0.306E+04   0.776E-02 -.147E+00 -.306E+04   0.182E-01 0.272E-01 -.135E+01   0.478E-03 0.250E-03 0.584E-03
   0.301E-02 0.128E+00 0.306E+04   -.278E-01 -.164E+00 -.306E+04   0.155E-01 0.476E-01 -.137E+01   -.884E-03 0.451E-03 0.381E-03
   -.216E-01 0.192E+00 0.306E+04   0.775E-03 -.210E+00 -.306E+04   0.233E-01 0.228E-01 -.129E+01   -.764E-03 0.232E-03 -.454E-04
   -.304E-01 0.122E+00 0.306E+04   0.288E-01 -.192E+00 -.306E+04   0.101E-01 0.723E-01 -.126E+01   0.117E-02 0.758E-05 0.328E-04
   -.925E-01 0.163E+00 0.306E+04   0.853E-01 -.189E+00 -.306E+04   0.403E-03 0.400E-01 -.138E+01   0.810E-03 -.130E-02 0.486E-03
   0.306E-01 0.112E+00 0.306E+04   -.345E-01 -.134E+00 -.306E+04   0.129E-01 0.308E-01 -.138E+01   0.640E-04 -.167E-02 0.725E-03
   0.468E-01 0.177E+00 0.306E+04   -.933E-01 -.202E+00 -.306E+04   0.438E-01 0.387E-01 -.139E+01   -.127E-02 -.114E-02 0.272E-03
   -.394E-01 0.267E+00 0.306E+04   0.262E-01 -.257E+00 -.306E+04   0.191E-01 0.305E-02 -.132E+01   0.395E-03 -.686E-03 0.122E-03
   -.157E+00 0.103E+00 0.306E+04   0.132E+00 -.102E+00 -.306E+04   0.178E-01 0.256E-01 -.132E+01   -.116E-04 -.814E-03 0.636E-04
   -.536E-01 0.102E+00 0.306E+04   0.877E-01 -.747E-01 -.306E+04   -.235E-01 -.236E-01 -.132E+01   0.103E-03 -.178E-02 0.390E-03
   0.963E-01 0.502E-01 0.306E+04   -.139E+00 -.800E-01 -.306E+04   0.305E-01 0.596E-01 -.135E+01   -.111E-03 -.156E-02 0.308E-03
   0.520E-01 0.105E+00 0.306E+04   -.788E-01 -.105E+00 -.306E+04   0.269E-01 -.134E-02 -.137E+01   0.204E-04 -.548E-03 0.494E-04
   -.111E+00 -.150E+00 0.306E+04   0.379E-01 0.112E+00 -.306E+04   0.664E-01 0.511E-01 -.140E+01   -.334E-03 -.297E-04 -.454E-03
   -.136E+00 -.106E+00 0.306E+04   0.124E+00 0.469E-01 -.306E+04   0.147E-01 0.691E-01 -.131E+01   -.377E-03 -.252E-03 -.110E-03
   0.597E-02 -.576E-01 0.306E+04   -.356E-01 -.798E-02 -.306E+04   0.332E-01 0.635E-01 -.130E+01   0.450E-03 0.364E-03 0.107E-03
   0.170E+00 -.728E-01 0.306E+04   -.117E+00 0.574E-01 -.306E+04   -.444E-01 0.224E-01 -.131E+01   0.261E-03 0.557E-03 -.641E-04
   0.120E-01 -.381E+00 0.306E+04   -.853E-02 0.319E+00 -.306E+04   0.103E-01 0.638E-01 -.129E+01   -.577E-03 0.100E-02 -.942E-04
   -.747E-01 -.254E+00 0.306E+04   0.336E-01 0.302E+00 -.306E+04   0.315E-01 -.609E-01 -.131E+01   -.629E-03 0.694E-03 -.320E-03
   -.252E-01 -.259E+00 0.306E+04   0.976E-02 0.230E+00 -.306E+04   0.184E-01 0.358E-01 -.130E+01   0.969E-03 0.132E-02 0.142E-03
   0.502E-01 -.249E+00 0.306E+04   -.503E-01 0.251E+00 -.306E+04   -.795E-02 0.862E-02 -.126E+01   0.238E-03 0.159E-02 0.396E-03
   -.337E-01 -.181E+00 0.306E+04   -.562E-02 0.148E+00 -.306E+04   0.390E-01 0.669E-01 -.129E+01   -.325E-03 0.911E-03 0.637E-03
   -.568E-01 -.232E+00 0.306E+04   0.761E-02 0.133E+00 -.306E+04   0.398E-01 0.877E-01 -.139E+01   -.119E-02 0.883E-03 0.161E-03
   0.306E-02 -.124E+00 0.306E+04   0.196E-02 0.122E+00 -.306E+04   -.782E-02 0.283E-01 -.139E+01   0.680E-03 0.764E-03 0.845E-04
   0.261E-01 -.983E-01 0.306E+04   -.281E-02 0.135E+00 -.306E+04   -.151E-01 -.340E-01 -.125E+01   0.831E-03 0.763E-03 0.470E-03
   -.335E-01 0.797E-01 0.155E+04   0.317E-01 -.949E-01 -.155E+04   -.335E-02 0.121E-01 -.470E+00   0.140E-02 -.222E-04 -.395E-03
   0.632E-01 0.672E-01 0.155E+04   -.684E-01 -.908E-01 -.155E+04   0.642E-02 0.796E-02 -.397E+00   -.155E-03 0.500E-04 0.279E-03
   0.217E-01 0.229E+00 0.155E+04   -.395E-02 -.242E+00 -.155E+04   -.161E-02 0.403E-01 -.414E+00   -.164E-02 0.109E-03 -.621E-04
   -.505E-01 0.181E+00 0.155E+04   0.367E-01 -.162E+00 -.155E+04   0.238E-01 0.381E-02 -.434E+00   0.394E-03 -.982E-04 -.723E-03
   -.210E+00 0.603E+00 0.155E+04   0.171E+00 -.643E+00 -.155E+04   0.361E-01 0.443E-01 -.479E+00   0.140E-02 -.133E-03 -.702E-03
   -.927E-01 0.270E+00 0.155E+04   0.109E+00 -.269E+00 -.155E+04   -.244E-01 0.278E-02 -.409E+00   0.588E-03 -.352E-03 -.285E-03
   0.259E+00 0.290E+00 0.155E+04   -.261E+00 -.297E+00 -.155E+04   0.919E-02 0.240E-01 -.422E+00   -.110E-02 -.435E-03 -.712E-03
   0.231E-01 0.628E+00 0.155E+04   -.354E-02 -.669E+00 -.155E+04   -.835E-02 0.491E-01 -.511E+00   -.888E-03 -.940E-04 -.814E-03
   -.123E+00 0.391E+00 0.155E+04   0.110E+00 -.414E+00 -.155E+04   0.170E-01 0.367E-01 -.524E+00   0.367E-03 -.757E-03 -.492E-03
   -.723E+00 0.105E+00 0.155E+04   0.702E+00 -.975E-01 -.155E+04   0.176E-01 0.819E-02 -.450E+00   0.727E-03 -.126E-02 0.614E-03
   0.149E+00 -.242E+00 0.155E+04   -.154E+00 0.210E+00 -.155E+04   0.999E-02 0.608E-01 -.445E+00   -.152E-03 -.172E-02 0.605E-03
   0.709E+00 0.130E+00 0.155E+04   -.676E+00 -.130E+00 -.155E+04   -.258E-01 0.160E-01 -.516E+00   -.939E-03 -.936E-03 0.158E-03
   0.268E+00 -.863E-01 0.155E+04   -.281E+00 0.695E-01 -.155E+04   0.853E-02 0.494E-01 -.535E+00   -.576E-03 -.449E-03 -.487E-03
   -.505E+00 -.919E-01 0.155E+04   0.502E+00 0.896E-01 -.155E+04   0.110E-01 0.235E-01 -.542E+00   0.452E-03 -.101E-02 -.306E-03
   -.508E+00 0.333E+00 0.155E+04   0.490E+00 -.319E+00 -.155E+04   0.197E-01 0.554E-02 -.464E+00   0.218E-03 -.905E-03 0.110E-02
   0.737E+00 0.333E+00 0.155E+04   -.711E+00 -.305E+00 -.155E+04   -.338E-01 -.266E-01 -.465E+00   -.938E-04 -.528E-03 0.746E-03
   0.169E+00 -.428E+00 0.155E+04   -.191E+00 0.399E+00 -.155E+04   0.343E-01 0.385E-01 -.454E+00   -.740E-03 0.144E-02 -.250E-03
   -.107E+00 -.651E+00 0.155E+04   0.124E+00 0.638E+00 -.155E+04   -.571E-02 0.559E-01 -.617E+00   -.635E-03 0.683E-03 -.104E-02
   -.163E+00 -.265E+00 0.155E+04   0.169E+00 0.263E+00 -.155E+04   -.490E-02 0.134E-01 -.484E+00   0.782E-03 0.666E-03 0.219E-03
   0.895E-01 0.474E-01 0.155E+04   -.875E-01 -.701E-01 -.155E+04   -.434E-02 0.340E-01 -.380E+00   0.593E-03 0.122E-02 0.284E-03
   0.103E-01 -.579E+00 0.155E+04   -.361E-01 0.569E+00 -.155E+04   0.198E-01 0.303E-01 -.419E+00   0.298E-03 0.116E-02 0.251E-03
   -.892E-01 -.595E+00 0.155E+04   0.724E-01 0.560E+00 -.155E+04   0.293E-01 0.465E-01 -.442E+00   -.135E-02 0.167E-02 0.656E-04
   0.703E-01 -.501E+00 0.155E+04   -.542E-01 0.490E+00 -.155E+04   -.176E-01 0.396E-02 -.455E+00   -.184E-03 0.109E-02 -.141E-03
   0.149E-01 -.523E+00 0.155E+04   0.243E-02 0.507E+00 -.155E+04   -.145E-01 0.162E-01 -.403E+00   0.124E-02 0.613E-03 -.104E-03
   0.158E+00 0.242E+01 0.230E+02   -.151E+00 -.241E+01 -.230E+02   -.137E-01 -.507E-01 0.328E-01   0.173E-02 0.475E-04 -.102E-02
   0.861E+00 0.157E+01 0.229E+02   -.871E+00 -.150E+01 -.229E+02   -.732E-02 -.831E-01 0.527E-02   -.379E-03 -.750E-03 -.127E-02
   -.287E+00 0.235E+01 0.238E+02   0.284E+00 -.240E+01 -.239E+02   0.537E-02 0.194E-01 0.433E-01   -.166E-02 -.725E-03 -.842E-03
   -.403E+00 0.188E+01 0.219E+02   0.392E+00 -.192E+01 -.220E+02   0.208E-01 0.240E-02 0.132E+00   0.306E-03 -.542E-04 -.627E-03
   -.429E+00 0.186E+01 0.256E+02   0.450E+00 -.188E+01 -.257E+02   -.714E-02 0.187E-01 0.746E-01   0.185E-02 -.223E-03 -.529E-03
   -.117E+01 -.306E+01 0.228E+02   0.114E+01 0.302E+01 -.228E+02   0.322E-01 0.614E-01 0.914E-01   0.213E-03 -.162E-03 -.442E-03
   0.210E+01 -.293E+01 0.236E+02   -.208E+01 0.293E+01 -.236E+02   -.278E-01 0.186E-01 0.913E-01   -.102E-02 0.342E-04 -.510E-03
   -.197E+00 0.171E+01 0.257E+02   0.177E+00 -.169E+01 -.258E+02   0.161E-01 -.166E-01 0.894E-01   -.105E-02 -.828E-04 -.583E-03
   -.262E+00 -.231E+00 0.265E+02   0.258E+00 0.236E+00 -.266E+02   -.587E-02 -.322E-01 0.660E-01   0.309E-03 -.936E-03 -.481E-03
   -.499E+01 0.136E+01 0.237E+02   0.498E+01 -.133E+01 -.237E+02   0.550E-01 -.488E-01 0.966E-01   0.149E-02 -.127E-02 0.160E-03
   0.871E+00 0.104E+01 0.185E+02   -.871E+00 -.105E+01 -.184E+02   -.646E-02 -.131E-01 0.886E-01   -.250E-03 -.122E-02 0.366E-03
   0.475E+01 0.181E+01 0.248E+02   -.475E+01 -.181E+01 -.248E+02   -.519E-01 -.217E-01 0.676E-01   -.155E-02 -.743E-03 0.243E-04
   -.855E+00 -.207E+01 0.261E+02   0.774E+00 0.202E+01 -.260E+02   0.433E-01 0.281E-01 0.683E-01   -.152E-02 0.300E-03 -.271E-03
   -.464E-01 -.170E+01 0.248E+02   0.125E+00 0.163E+01 -.248E+02   -.466E-01 0.138E-01 0.883E-01   0.135E-02 -.693E-04 0.177E-03
   -.221E+01 0.266E+01 0.243E+02   0.219E+01 -.268E+01 -.244E+02   0.353E-01 -.412E-02 0.717E-01   0.457E-03 -.369E-03 0.424E-04
   0.333E+01 0.201E+01 0.250E+02   -.330E+01 -.202E+01 -.250E+02   -.438E-01 -.430E-01 0.337E-01   -.289E-03 0.111E-03 -.264E-03
   -.614E+00 -.237E+01 0.238E+02   0.618E+00 0.235E+01 -.238E+02   -.712E-02 -.117E-01 0.678E-01   -.933E-03 0.245E-02 -.752E-03
   -.391E+00 -.191E+01 0.219E+02   0.402E+00 0.190E+01 -.220E+02   -.991E-02 -.395E-01 0.137E+00   -.817E-03 0.202E-02 -.358E-03
   0.140E+01 -.146E+01 0.238E+02   -.143E+01 0.149E+01 -.239E+02   0.118E-01 -.533E-01 0.666E-01   0.796E-03 0.564E-03 -.337E-03
   -.153E+00 -.210E+01 0.241E+02   0.163E+00 0.207E+01 -.241E+02   -.550E-02 -.367E-02 0.259E-01   0.956E-03 0.117E-02 -.807E-03
   0.331E+00 -.104E+00 0.212E+02   -.326E+00 0.102E+00 -.213E+02   -.109E-01 -.129E-01 0.573E-01   0.124E-02 -.964E-04 -.793E-03
   -.357E+00 0.496E+00 0.217E+02   0.345E+00 -.506E+00 -.217E+02   -.242E-02 0.207E-02 0.158E-01   -.160E-02 0.381E-03 -.795E-03
   0.449E+00 0.878E-01 0.216E+02   -.444E+00 -.789E-01 -.216E+02   0.664E-02 -.176E-01 0.389E-01   -.117E-02 0.706E-04 -.644E-03
   -.387E+00 -.539E+00 0.216E+02   0.382E+00 0.568E+00 -.216E+02   -.279E-02 -.428E-01 0.511E-01   0.153E-02 -.454E-03 -.781E-03
   0.577E-01 0.452E+01 -.150E+04   -.610E-01 -.450E+01 0.150E+04   0.215E-02 -.174E-01 0.466E+00   0.434E-03 -.254E-03 -.754E-03
   -.467E+00 0.532E+01 -.150E+04   0.449E+00 -.536E+01 0.150E+04   0.166E-01 0.327E-01 0.467E+00   -.730E-03 -.627E-03 -.892E-03
   -.108E+01 0.320E+01 -.150E+04   0.114E+01 -.317E+01 0.150E+04   -.641E-01 -.314E-01 0.401E+00   -.740E-03 -.156E-03 -.340E-03
   0.618E+00 0.281E+01 -.150E+04   -.645E+00 -.275E+01 0.150E+04   0.258E-01 -.611E-01 0.403E+00   0.104E-02 0.233E-03 -.470E-04
   0.181E+01 0.814E+01 -.149E+04   -.184E+01 -.812E+01 0.148E+04   0.293E-01 -.196E-01 0.444E+00   0.114E-02 0.637E-03 0.197E-03
   0.294E+00 0.479E+01 -.148E+04   -.289E+00 -.440E+01 0.148E+04   -.416E-02 -.394E+00 0.534E-01   -.515E-03 0.110E-02 0.231E-03
   -.207E+01 0.873E+01 -.149E+04   0.211E+01 -.874E+01 0.148E+04   -.415E-01 0.827E-02 0.441E+00   -.114E-02 0.770E-03 0.239E-03
   -.480E+00 0.686E+01 -.150E+04   0.472E+00 -.692E+01 0.150E+04   0.703E-02 0.574E-01 0.516E+00   0.517E-03 0.150E-03 0.292E-03
   0.278E+01 0.615E+00 -.148E+04   -.270E+01 -.602E+00 0.148E+04   -.859E-01 -.158E-01 0.412E+00   0.178E-02 -.763E-03 0.399E-03
   -.157E+00 0.376E-01 -.150E+04   0.182E+00 -.351E-01 0.149E+04   -.241E-01 -.695E-02 0.471E+00   0.660E-03 -.688E-03 0.572E-03
   0.103E+01 0.137E+01 -.150E+04   -.108E+01 -.133E+01 0.149E+04   0.441E-01 -.514E-01 0.543E+00   -.889E-03 -.510E-03 0.922E-03
   -.393E+01 0.150E+01 -.148E+04   0.389E+01 -.151E+01 0.148E+04   0.416E-01 0.105E-01 0.463E+00   -.154E-02 -.439E-03 0.949E-03
   -.171E+01 -.418E+01 -.149E+04   0.177E+01 0.424E+01 0.149E+04   -.661E-01 -.650E-01 0.570E+00   0.154E-03 -.209E-03 0.594E-03
   -.530E+00 -.174E+01 -.149E+04   0.804E+00 0.157E+01 0.149E+04   -.271E+00 0.168E+00 0.406E-01   0.112E-02 -.901E-03 0.191E-03
   0.129E+01 -.502E+00 -.149E+04   -.127E+01 0.449E+00 0.149E+04   -.186E-01 0.555E-01 0.414E+00   -.160E-03 -.147E-02 0.231E-03
   0.490E+00 -.200E+01 -.148E+04   -.814E+00 0.182E+01 0.148E+04   0.321E+00 0.183E+00 0.116E-01   -.112E-02 -.109E-02 0.116E-03
   -.392E+01 -.683E+01 -.150E+04   0.392E+01 0.683E+01 0.150E+04   0.251E-02 -.830E-02 0.472E+00   -.671E-03 0.135E-02 -.230E-03
   0.269E+01 -.658E+01 -.150E+04   -.267E+01 0.659E+01 0.150E+04   -.200E-01 -.143E-01 0.446E+00   0.571E-03 0.311E-03 -.707E-04
   0.274E+01 -.800E+01 -.149E+04   -.275E+01 0.799E+01 0.149E+04   0.182E-01 0.100E-01 0.475E+00   0.496E-04 -.862E-04 -.673E-03
   -.184E+01 -.954E+01 -.149E+04   0.184E+01 0.954E+01 0.149E+04   -.121E-02 -.948E-02 0.488E+00   0.502E-04 0.765E-03 -.119E-02
   -.571E+00 -.284E+01 -.150E+04   0.575E+00 0.289E+01 0.150E+04   -.557E-02 -.432E-01 0.412E+00   -.551E-04 0.844E-03 -.156E-02
   0.282E+00 -.824E+00 -.151E+04   -.266E+00 0.857E+00 0.151E+04   -.128E-01 -.324E-01 0.405E+00   -.121E-02 0.677E-03 -.509E-03
   0.133E+01 -.329E+01 -.150E+04   -.135E+01 0.338E+01 0.150E+04   0.178E-01 -.893E-01 0.361E+00   0.861E-04 -.134E-03 -.653E-03
   -.820E+00 -.397E+01 -.150E+04   0.821E+00 0.402E+01 0.150E+04   -.338E-02 -.457E-01 0.448E+00   0.118E-02 0.458E-03 -.135E-02
   0.161E+01 0.247E+01 -.307E+04   -.158E+01 -.233E+01 0.307E+04   -.275E-01 -.140E+00 0.142E+01   0.776E-03 0.919E-03 -.314E-04
   -.228E+01 0.862E+01 -.306E+04   0.223E+01 -.865E+01 0.306E+04   0.457E-01 0.277E-01 0.133E+01   0.713E-04 0.256E-03 -.199E-03
   0.103E+01 0.517E+01 -.307E+04   -.975E+00 -.516E+01 0.307E+04   -.506E-01 -.953E-02 0.140E+01   -.100E-02 -.236E-03 0.109E-03
   0.654E-01 0.170E+01 -.307E+04   -.352E-01 -.169E+01 0.307E+04   -.327E-01 -.202E-01 0.142E+01   0.140E-03 0.377E-03 0.233E-03
   0.725E+01 0.137E+02 -.306E+04   -.724E+01 -.136E+02 0.306E+04   -.157E-01 -.952E-01 0.141E+01   0.132E-02 0.663E-03 0.299E-03
   0.120E+02 0.337E+02 -.305E+04   -.119E+02 -.336E+02 0.304E+04   -.934E-01 -.146E+00 0.146E+01   0.290E-03 0.129E-02 0.240E-03
   -.137E+02 0.334E+02 -.304E+04   0.136E+02 -.333E+02 0.304E+04   0.899E-01 -.122E+00 0.145E+01   -.115E-02 0.136E-02 0.309E-03
   -.528E+01 0.147E+02 -.306E+04   0.533E+01 -.146E+02 0.306E+04   -.473E-01 -.539E-01 0.138E+01   -.454E-03 0.685E-03 0.187E-03
   -.731E-01 0.114E+02 -.306E+04   0.937E-01 -.113E+02 0.305E+04   -.192E-01 -.123E+00 0.127E+01   0.311E-04 0.251E-04 0.547E-03
   0.354E+02 0.233E+02 -.303E+04   -.361E+02 -.237E+02 0.302E+04   0.710E+00 0.400E+00 0.210E+01   0.183E-02 -.290E-03 0.183E-03
   -.125E+01 0.151E+03 -.296E+04   0.127E+01 -.152E+03 0.295E+04   -.137E-01 0.103E+01 0.703E+00   -.812E-04 0.535E-03 0.616E-03
   -.323E+02 0.238E+02 -.303E+04   0.331E+02 -.243E+02 0.303E+04   -.826E+00 0.450E+00 0.209E+01   -.179E-02 0.645E-03 0.419E-03
   -.270E+02 -.842E+01 -.304E+04   0.269E+02 0.851E+01 0.304E+04   0.121E+00 -.861E-01 0.147E+01   -.105E-02 -.144E-02 0.544E-03
   0.251E+02 -.989E+01 -.304E+04   -.250E+02 0.998E+01 0.304E+04   -.151E+00 -.964E-01 0.148E+01   0.103E-02 -.105E-02 0.403E-03
   0.124E+03 -.765E+02 -.296E+04   -.125E+03 0.772E+02 0.296E+04   0.983E+00 -.631E+00 0.102E+01   0.367E-03 -.206E-02 -.401E-03
   -.121E+03 -.738E+02 -.295E+04   0.121E+03 0.744E+02 0.295E+04   -.995E+00 -.620E+00 0.866E+00   -.329E-03 -.242E-02 -.327E-03
   -.202E+02 -.296E+02 -.305E+04   0.202E+02 0.294E+02 0.304E+04   -.452E-01 0.195E+00 0.147E+01   -.261E-03 -.249E-03 0.172E-03
   -.684E+00 -.150E+02 -.307E+04   0.736E+00 0.151E+02 0.307E+04   -.494E-01 -.743E-01 0.143E+01   0.654E-04 0.292E-03 0.203E-03
   0.189E+02 -.285E+02 -.305E+04   -.190E+02 0.283E+02 0.305E+04   0.524E-01 0.138E+00 0.148E+01   0.502E-03 -.687E-03 -.347E-06
   0.160E+01 -.431E+02 -.303E+04   -.158E+01 0.439E+02 0.303E+04   -.141E-01 -.741E+00 0.202E+01   -.299E-03 -.852E-03 -.568E-04
   -.365E+01 -.135E+02 -.306E+04   0.373E+01 0.134E+02 0.306E+04   -.825E-01 0.484E-01 0.134E+01   0.705E-03 0.102E-02 -.426E-03
   -.540E+01 -.489E+01 -.307E+04   0.534E+01 0.482E+01 0.307E+04   0.625E-01 0.618E-01 0.143E+01   -.274E-03 0.121E-02 -.498E-04
   0.486E+01 -.306E+01 -.307E+04   -.478E+01 0.310E+01 0.307E+04   -.773E-01 -.437E-01 0.142E+01   -.603E-03 0.265E-03 0.945E-04
   0.434E+01 -.126E+02 -.306E+04   -.439E+01 0.126E+02 0.306E+04   0.444E-01 -.675E-01 0.133E+01   0.183E-03 0.159E-03 -.285E-04
   -.227E+01 -.319E+01 -.237E+04   0.244E+01 0.384E+01 0.240E+04   -.173E+00 -.502E+00 -.267E+02   -.670E-04 -.297E-02 -.103E-02
 -----------------------------------------------------------------------------------------------
   0.278E+00 0.555E+00 0.243E+02   -.204E-13 -.260E-12 0.209E-10   -.249E+00 -.595E+00 -.243E+02   -.404E-04 -.259E-02 -.105E-01
 
 
 POSITION                                       TOTAL-FORCE (eV/Angst)
 -----------------------------------------------------------------------------------
      1.24451      0.71857      0.00000         0.004278     -0.000588      0.279980
      3.73354      0.71857      0.00000        -0.010416      0.012193      0.291557
      6.22256      0.71857      0.00000         0.001379      0.005135      0.287302
      8.71159      0.71857      0.00000         0.009378      0.002382      0.280263
      0.00006      2.87404      0.00000        -0.006270      0.013288      0.286745
      2.48908      2.87404      0.00000         0.008842      0.007371      0.277938
      4.97812      2.87404      0.00000        -0.004193      0.013303      0.280759
      7.46714      2.87404      0.00000         0.006059      0.012863      0.296048
     -1.24448      5.02963      0.00000        -0.008188      0.026511      0.300624
      1.24455      5.02963      0.00000         0.010448      0.002643      0.272631
      3.73357      5.02963      0.00000        -0.013017      0.028631      0.278180
      6.22260      5.02963      0.00000        -0.000176     -0.001011      0.279206
     -2.48901      7.18523      0.00000        -0.007560      0.014151      0.273614
      0.00001      7.18523      0.00000         0.002324      0.010460      0.263393
      2.48904      7.18523      0.00000         0.003720     -0.001426      0.274090
      4.97806      7.18523      0.00000         0.008621      0.007996      0.277956
     -3.73347      9.34069      0.00000         0.012983      0.003082      0.287997
     -1.24445      9.34069      0.00000        -0.010423     -0.011403      0.286461
      1.24458      9.34069      0.00000         0.003709      0.008307      0.280481
      3.73361      9.34069      0.00000        -0.008032      0.012219      0.294634
     -4.97800     11.49629      0.00000        -0.000943      0.035479      0.292056
     -2.48898     11.49629      0.00000        -0.010854     -0.010526      0.281492
      0.00005     11.49629      0.00000        -0.002373      0.027305      0.296712
      2.48907     11.49629      0.00000         0.008806      0.003313      0.280531
      0.00000      0.00000      2.03235        -0.004031     -0.002833     -0.316935
      2.48903      0.00000      2.03235         0.000833     -0.015252     -0.338065
      4.97805      0.00000      2.03235         0.014221      0.028040     -0.302427
      7.46708      0.00000      2.03235         0.010084      0.022705     -0.322052
     -1.24453      2.15559      2.03235        -0.001457      0.004134     -0.337440
      1.24449      2.15559      2.03235        -0.007620      0.003618     -0.308228
      3.73352      2.15559      2.03235         0.005722      0.016561     -0.313124
      6.22254      2.15559      2.03235         0.010035      0.007729     -0.327784
     -2.48899      4.31106      2.03235         0.004341      0.013603     -0.359859
      0.00003      4.31106      2.03235        -0.002252      0.014594     -0.306272
      2.48906      4.31106      2.03235         0.003834      0.027929     -0.323682
      4.97809      4.31106      2.03235         0.006069      0.015863     -0.322547
     -3.73352      6.46665      2.03235        -0.005577      0.032409     -0.335262
     -1.24450      6.46665      2.03235         0.007559      0.020485     -0.346692
      1.24452      6.46665      2.03235         0.001563      0.019691     -0.299586
      3.73355      6.46665      2.03235        -0.007946      0.002096     -0.327796
     -4.97806      8.62225      2.03235         0.010802      0.010960     -0.319799
     -2.48903      8.62225      2.03235         0.010613      0.044469     -0.392592
     -0.00001      8.62225      2.03235         0.001712      0.013410     -0.313908
      2.48902      8.62225      2.03235        -0.001993      0.012920     -0.311524
     -6.22251     10.77771      2.03235        -0.005925      0.021081     -0.317571
     -3.73349     10.77771      2.03235         0.010907      0.012923     -0.332152
     -1.24447     10.77771      2.03235        -0.001872     -0.005382     -0.324608
      1.24456     10.77771      2.03235         0.003838      0.001269     -0.316488
     -0.00002      1.43702      4.06448        -0.005343     -0.031706      0.013015
      2.48900      1.43702      4.06448        -0.018262     -0.005563      0.074975
      4.97803      1.43702      4.06448         0.000554     -0.026493     -0.000095
      7.46706      1.43702      4.06448         0.010168     -0.035512      0.044999
     -1.24456      3.59261      4.06448         0.015358     -0.001434      0.025667
      1.24447      3.59261      4.06448         0.004589      0.019485      0.070594
      3.73349      3.59261      4.06448        -0.004205      0.019415      0.085964
      6.22252      3.59261      4.06448        -0.005190      0.007122      0.022593
     -2.48901      5.74808      4.06448        -0.009782     -0.028102      0.026773
      0.00001      5.74808      4.06448         0.052807     -0.024031      0.060421
      2.48904      5.74808      4.06448        -0.007014     -0.024223      0.159783
      4.97806      5.74808      4.06448        -0.052937     -0.024210      0.063053
     -3.73355      7.90367      4.06448        -0.039478     -0.017145      0.071882
     -1.24452      7.90367      4.06448         0.033260     -0.056813      0.083367
      1.24450      7.90367      4.06448         0.011213     -0.029860      0.055265
      3.73353      7.90367      4.06448        -0.008281     -0.050901      0.055221
     -4.97808     10.05927      4.06448        -0.003752     -0.026636      0.029762
     -2.48906     10.05927      4.06448        -0.000191     -0.046455      0.036458
     -0.00003     10.05927      4.06448        -0.023780     -0.023261      0.005911
      2.48899     10.05927      4.06448         0.005749     -0.025923     -0.001137
     -6.22254     12.21474      4.06448        -0.004467     -0.014463      0.001704
     -3.73352     12.21473      4.06448        -0.015969     -0.006791      0.015164
     -1.24449     12.21474      4.06448         0.010320     -0.008283      0.006138
      1.24453     12.21474      4.06448        -0.006513     -0.013890      0.009964
      1.23648      0.70406      6.11531        -0.000977     -0.001615      0.001710
      3.72983      0.70999      6.10998        -0.001721     -0.002021      0.000921
      6.21753      0.70930      6.11353        -0.001424     -0.001795     -0.001451
      8.70520      0.70326      6.11610         0.000229      0.000548     -0.000226
     -0.00607      2.85953      6.10711        -0.000750     -0.002516     -0.001260
      2.48362      2.86922      6.11105        -0.000080     -0.005127     -0.006950
      4.97191      2.86656      6.10463         0.001335     -0.001778     -0.001474
      7.46259      2.86500      6.11516        -0.001038     -0.003234      0.005336
     -1.24800      5.02141      6.10679        -0.000722     -0.002646      0.001925
      1.23987      5.02092      6.15200         0.000968     -0.004853     -0.001484
      3.72739      5.02436      6.14779        -0.000056     -0.002850     -0.000818
      6.21461      5.02331      6.10980         0.001963     -0.001384      0.000742
     -2.49488      7.18130      6.11428         0.001130     -0.001566      0.003699
     -0.00555      7.17767      6.11164         0.004034     -0.001698      0.000454
      2.48496      7.18054      6.14165        -0.000690      0.001141     -0.001743
      4.97809      7.18110      6.10586        -0.004147      0.001291      0.005990
     -3.73447      9.33846      6.11485         0.001339     -0.001219     -0.004080
     -1.25178      9.33222      6.11847        -0.000300     -0.000158      0.000894
      1.23628      9.32996      6.10496         0.004548     -0.001678     -0.002260
      3.73460      9.33112      6.10737        -0.002785     -0.002517      0.000645
     -4.97687     11.48876      6.11358        -0.002384      0.000378      0.003179
     -2.49040     11.48968      6.11781         0.001223      0.001286      0.001560
     -0.00610     11.48429      6.11047         0.000011      0.000033      0.003061
      2.48395     11.48433      6.11769        -0.001329     -0.001214      0.002749
      2.48364     12.91697      8.08822        -0.000443     -0.002168     -0.001811
     -4.97871     12.93049      8.08002        -0.000190     -0.000880      0.000143
     -2.48642     12.92422      8.08091        -0.001365     -0.005098     -0.000870
     -0.00951     12.91852      8.08324        -0.002593     -0.004472     -0.000920
      8.70385      2.12998      8.08148         0.000696      0.000263      0.000664
      1.23892      2.13717      8.07506        -0.001235     -0.002261     -0.001287
      3.72800      2.14120      8.07294        -0.000667      0.000963      0.000752
      6.22552      2.13873      8.07849        -0.000708     -0.003286      0.000869
      7.46435      4.30874      8.07190         0.001151     -0.003732     -0.003356
     -0.03950      4.27226      8.07126        -0.003539     -0.001895      0.001842
      2.47570      4.26450      8.18900        -0.002018     -0.096660     -0.069154
      5.01035      4.27504      8.07274         0.000637     -0.001718      0.001179
      6.21863      6.45567      8.07134         0.004633     -0.002398      0.001460
     -1.24558      6.44994      8.07267        -0.003689     -0.004884     -0.000997
      1.21755      6.47526      8.18409         0.041420     -0.020251      0.029250
      3.76831      6.49238      8.17540        -0.039284     -0.024887      0.025483
     -4.97762      8.62380      8.07209         0.000818     -0.000494      0.001053
     -2.49280      8.60420      8.08460         0.002630      0.000214      0.000302
     -0.00615      8.61463      8.07440         0.001094      0.000260     -0.000151
      2.48562      8.66946      8.06865         0.002766     -0.001458     -0.001624
     -6.21642     10.78264      8.07882         0.003090     -0.002383     -0.000739
     -3.73581     10.77549      8.08537        -0.001286     -0.000792      0.000259
     -1.24774     10.77154      8.08334        -0.000757     -0.000449      0.001822
      1.23307     10.77875      8.07680        -0.001004     -0.001546      0.000724
      2.51135      5.71795      9.32935         0.001051      0.146183      0.002291
 -----------------------------------------------------------------------------------
    total drift:                                0.029407     -0.042377      0.047077


--------------------------------------------------------------------------------------------------------



  FREE ENERGIE OF THE ION-ELECTRON SYSTEM (eV)
  ---------------------------------------------------
  free  energy   TOTEN  =      -817.087360 eV

  energy  without entropy=     -816.840638  energy(sigma->0) =     -817.025679
 
 d Force =-0.1110857E-03[-0.585E-02, 0.563E-02]  d Energy =-0.8534166E-04-0.257E-04
 d Force =-0.6212957E-01[-0.154E+00, 0.293E-01]  d Ewald  =-0.6047529E-01-0.165E-02


--------------------------------------------------------------------------------------------------------


    POTLOK:  cpu time    0.45: real time    0.45


--------------------------------------------------------------------------------------------------------


 stress matrix after NEB project (eV)
    -62.29991      3.82322     -0.39793
      3.82317    -30.77048     -1.15963
     -0.39778     -1.15979    -13.42121
  FORCES: max atom, RMS     0.146204    0.013291
  FORCE total and by dimension    0.146204    0.146183
  Stress total and by dimension   70.996273   62.299914
 Finite differences progress:
  Degree of freedom:   2/  3
  Displacement:        2/  2
  Total:               4/  6
  LATTYP: Found a simple monoclinic cell.
 ALAT       =    17.9486009422
 B/A-ratio  =     1.2886297308
 C/A-ratio  =     1.4411545266
 COS(beta)  =    -0.9607691321
  
  Lattice vectors:
  
 A1 = ( -12.4451508522, -12.9333095551,   0.0000000000)
 A2 = (   0.0000000000,   0.0000000000, -23.1291007996)
 A3 = (  22.4012513161,  12.9333095551,   0.0000000000)
 Subroutine PRICEL returns:
 Original cell was already a primitive cell.
 

Analysis of symmetry for initial positions (statically):

 Routine SETGRP: Setting up the symmetry group for a 
 simple monoclinic supercell.


 Subroutine GETGRP returns: Found  1 space group operations
 (whereof  1 operations were pure point group operations)
 out of a pool of  4 trial point group operations.


The static configuration has the point symmetry C_1 .

Analysis of symmetry for dynamics (positions and initial velocities):

 Subroutine DYNSYM returns: Found  1 space group operations
 (whereof  1 operations were pure point group operations)
 out of a pool of  1 trial space group operations
 (whereof  1 operations were pure point group operations)
 and found also     1 'primitive' translations


The dynamic configuration has the point symmetry C_1 .

Analysis of constrained symmetry for selective dynamics:

 Subroutine DYNSYM returns: Found  1 space group operations
 (whereof  1 operations were pure point group operations)
 out of a pool of  1 trial space group operations
 (whereof  1 operations were pure point group operations)
 and found also     1 'primitive' translations


The constrained configuration has the point symmetry C_1 .

Analysis of magnetic symmetry:

 Subroutine MAGSYM returns: Found  1 space group operations
 (whereof  1 operations were pure point group operations)
 out of a pool of  1 trial space group operations
 (whereof  1 operations were pure point group operations)
 and found also     1 'primitive' translations


The magnetic configuration has the point symmetry C_1 .
 
 KPOINTS: k-points                                

Automatic generation of k-mesh.
 
 Subroutine IBZKPT returns following result:
 ===========================================
 
 Found      1 irreducible k-points:
 
 Following reciprocal coordinates:
            Coordinates               Weight
  0.000000  0.000000  0.000000      1.000000
 
 Following cartesian coordinates:
            Coordinates               Weight
  0.000000  0.000000  0.000000      1.000000
 
    WAVPRE:  cpu time    0.07: real time    0.07
    FEWALD:  cpu time    0.07: real time    0.07
    ORTHCH:  cpu time    2.58: real time    2.59
     LOOP+:  cpu time  346.75: real time  349.57


----------------------------------------- Iteration    6(   1)  ---------------------------------------


    POTLOK:  cpu time    0.37: real time    0.37
    SETDIJ:  cpu time    0.08: real time    0.08
     EDDAV:  cpu time   20.75: real time   20.95
       DOS:  cpu time    0.00: real time    0.00
    CHARGE:  cpu time    1.05: real time    1.07
    MIXING:  cpu time    0.01: real time    0.01
    --------------------------------------------
      LOOP:  cpu time   22.26: real time   22.48

 eigenvalue-minimisations  :  2944
 total energy-change (2. order) : 0.8654980E-02  (-0.4362221E+00)
 number of electron    1085.9999545 magnetization     202.1054301
 augmentation part      617.2886921 magnetization     179.6129054

 Broyden mixing:
  rms(total) = 0.46185E-01    rms(broyden)= 0.46122E-01
  rms(prec ) = 0.46830E-01
  weight for this iteration     100.00

 Free energy of the ion-electron system (eV)
  ---------------------------------------------------
  alpha Z        PSCENC =      2067.85644204
  Ewald energy   TEWEN  =    423725.25245677
  -1/2 Hartree   DENC   =   -519555.11687485
  -exchange  EXHF       =         0.00000000
  -V(xc)+E(xc)   XCENC  =      1982.09512569
  PAW double counting   =    106757.59709638  -113112.86461397
  entropy T*S    EENTRO =        -0.24764655
  eigenvalues    EBANDS =      -717.60333815
  atomic energy  EATOM  =     98035.95264826
  ---------------------------------------------------
  free energy    TOTEN  =      -817.07870438 eV

  energy without entropy =     -816.83105783  energy(sigma->0) =     -817.01679274


--------------------------------------------------------------------------------------------------------




----------------------------------------- Iteration    6(   2)  ---------------------------------------


    POTLOK:  cpu time    0.35: real time    0.35
    SETDIJ:  cpu time    0.05: real time    0.05
    EDDIAG:  cpu time    4.37: real time    4.42
  RMM-DIIS:  cpu time    7.20: real time    7.26
    ORTHCH:  cpu time    1.66: real time    1.67
       DOS:  cpu time    0.00: real time    0.00
    CHARGE:  cpu time    1.03: real time    1.07
    MIXING:  cpu time    0.01: real time    0.01
    --------------------------------------------
      LOOP:  cpu time   14.68: real time   14.84

 eigenvalue-minimisations  :  2964
 total energy-change (2. order) :-0.1084892E-01  (-0.8021853E-02)
 number of electron    1085.9999544 magnetization     202.1057467
 augmentation part      617.3062761 magnetization     179.6401233

 Broyden mixing:
  rms(total) = 0.10144E+00    rms(broyden)= 0.10144E+00
  rms(prec ) = 0.11410E+00
  weight for this iteration     100.00

 eigenvalues of (default mixing * dielectric matrix)
  average eigenvalue GAMMA=   0.0597
  0.0597

 Free energy of the ion-electron system (eV)
  ---------------------------------------------------
  alpha Z        PSCENC =      2067.85644204
  Ewald energy   TEWEN  =    423725.25245677
  -1/2 Hartree   DENC   =   -519553.31672617
  -exchange  EXHF       =         0.00000000
  -V(xc)+E(xc)   XCENC  =      1982.11606571
  PAW double counting   =    106751.44966799  -113106.58979430
  entropy T*S    EENTRO =        -0.24713818
  eigenvalues    EBANDS =      -719.56317541
  atomic energy  EATOM  =     98035.95264826
  ---------------------------------------------------
  free energy    TOTEN  =      -817.08955329 eV

  energy without entropy =     -816.84241511  energy(sigma->0) =     -817.02776875


--------------------------------------------------------------------------------------------------------




----------------------------------------- Iteration    6(   3)  ---------------------------------------


    POTLOK:  cpu time    0.35: real time    0.35
    SETDIJ:  cpu time    0.05: real time    0.05
    EDDIAG:  cpu time    4.34: real time    4.39
  RMM-DIIS:  cpu time    7.18: real time    7.25
    ORTHCH:  cpu time    1.67: real time    1.68
       DOS:  cpu time    0.00: real time    0.00
    CHARGE:  cpu time    1.06: real time    1.06
    MIXING:  cpu time    0.01: real time    0.01
    --------------------------------------------
      LOOP:  cpu time   14.66: real time   14.80

 eigenvalue-minimisations  :  2963
 total energy-change (2. order) : 0.3313362E-02  (-0.5934312E-03)
 number of electron    1085.9999545 magnetization     202.1106220
 augmentation part      617.3024976 magnetization     179.6269440

 Broyden mixing:
  rms(total) = 0.35215E-01    rms(broyden)= 0.35208E-01
  rms(prec ) = 0.43903E-01
  weight for this iteration     100.00

 eigenvalues of (default mixing * dielectric matrix)
  average eigenvalue GAMMA=   0.4052
  0.7059  0.1046

 Free energy of the ion-electron system (eV)
  ---------------------------------------------------
  alpha Z        PSCENC =      2067.85644204
  Ewald energy   TEWEN  =    423725.25245677
  -1/2 Hartree   DENC   =   -519553.75694013
  -exchange  EXHF       =         0.00000000
  -V(xc)+E(xc)   XCENC  =      1982.11347073
  PAW double counting   =    106751.11825958  -113106.26979765
  entropy T*S    EENTRO =        -0.24804670
  eigenvalues    EBANDS =      -719.10473283
  atomic energy  EATOM  =     98035.95264826
  ---------------------------------------------------
  free energy    TOTEN  =      -817.08623993 eV

  energy without entropy =     -816.83819323  energy(sigma->0) =     -817.02422826


--------------------------------------------------------------------------------------------------------




----------------------------------------- Iteration    6(   4)  ---------------------------------------


    POTLOK:  cpu time    0.35: real time    0.35
    SETDIJ:  cpu time    0.05: real time    0.05
    EDDIAG:  cpu time    4.39: real time    4.44
  RMM-DIIS:  cpu time    7.22: real time    7.25
    ORTHCH:  cpu time    1.66: real time    1.66
       DOS:  cpu time    0.00: real time    0.00
    CHARGE:  cpu time    1.05: real time    1.06
    MIXING:  cpu time    0.01: real time    0.01
    --------------------------------------------
      LOOP:  cpu time   14.74: real time   14.83

 eigenvalue-minimisations  :  2966
 total energy-change (2. order) :-0.1400726E-01  (-0.5239595E-03)
 number of electron    1085.9999542 magnetization     202.1152682
 augmentation part      617.2980988 magnetization     179.6428459

 Broyden mixing:
  rms(total) = 0.16187E+00    rms(broyden)= 0.16186E+00
  rms(prec ) = 0.22662E+00
  weight for this iteration     100.00

 eigenvalues of (default mixing * dielectric matrix)
  average eigenvalue GAMMA=   0.4263
  1.0974  0.1133  0.0681

 Free energy of the ion-electron system (eV)
  ---------------------------------------------------
  alpha Z        PSCENC =      2067.85644204
  Ewald energy   TEWEN  =    423725.25245677
  -1/2 Hartree   DENC   =   -519553.67454146
  -exchange  EXHF       =         0.00000000
  -V(xc)+E(xc)   XCENC  =      1982.12224127
  PAW double counting   =    106749.25945900  -113104.45988796
  entropy T*S    EENTRO =        -0.24388566
  eigenvalues    EBANDS =      -719.16517947
  atomic energy  EATOM  =     98035.95264826
  ---------------------------------------------------
  free energy    TOTEN  =      -817.10024720 eV

  energy without entropy =     -816.85636154  energy(sigma->0) =     -817.03927578


--------------------------------------------------------------------------------------------------------




----------------------------------------- Iteration    6(   5)  ---------------------------------------


    POTLOK:  cpu time    0.35: real time    0.35
    SETDIJ:  cpu time    0.05: real time    0.05
    EDDIAG:  cpu time    4.33: real time    4.38
  RMM-DIIS:  cpu time    7.19: real time    7.26
    ORTHCH:  cpu time    1.68: real time    1.68
       DOS:  cpu time    0.00: real time    0.00
    CHARGE:  cpu time    1.06: real time    1.06
    MIXING:  cpu time    0.01: real time    0.01
    --------------------------------------------
      LOOP:  cpu time   14.67: real time   14.81

 eigenvalue-minimisations  :  2967
 total energy-change (2. order) : 0.1459181E-01  (-0.3199913E-03)
 number of electron    1085.9999545 magnetization     202.1179241
 augmentation part      617.2943788 magnetization     179.6398319

 Broyden mixing:
  rms(total) = 0.31969E-01    rms(broyden)= 0.31955E-01
  rms(prec ) = 0.36720E-01
  weight for this iteration     100.00

 eigenvalues of (default mixing * dielectric matrix)
  average eigenvalue GAMMA=   0.4417
  1.2837  0.3052  0.1109  0.0669

 Free energy of the ion-electron system (eV)
  ---------------------------------------------------
  alpha Z        PSCENC =      2067.85644204
  Ewald energy   TEWEN  =    423725.25245677
  -1/2 Hartree   DENC   =   -519552.98923967
  -exchange  EXHF       =         0.00000000
  -V(xc)+E(xc)   XCENC  =      1982.12683465
  PAW double counting   =    106747.37933292  -113102.61749360
  entropy T*S    EENTRO =        -0.24676511
  eigenvalues    EBANDS =      -719.79987165
  atomic energy  EATOM  =     98035.95264826
  ---------------------------------------------------
  free energy    TOTEN  =      -817.08565538 eV

  energy without entropy =     -816.83889028  energy(sigma->0) =     -817.02396411


--------------------------------------------------------------------------------------------------------




----------------------------------------- Iteration    6(   6)  ---------------------------------------


    POTLOK:  cpu time    0.35: real time    0.35
    SETDIJ:  cpu time    0.05: real time    0.05
    EDDIAG:  cpu time    4.40: real time    4.45
  RMM-DIIS:  cpu time    7.15: real time    7.27
    ORTHCH:  cpu time    1.66: real time    1.66
       DOS:  cpu time    0.00: real time    0.00
    CHARGE:  cpu time    1.06: real time    1.07
    MIXING:  cpu time    0.01: real time    0.01
    --------------------------------------------
      LOOP:  cpu time   14.69: real time   14.86

 eigenvalue-minimisations  :  2964
 total energy-change (2. order) :-0.9677217E-03  (-0.1913970E-03)
 number of electron    1085.9999544 magnetization     202.1256333
 augmentation part      617.2950431 magnetization     179.6361868

 Broyden mixing:
  rms(total) = 0.55826E-01    rms(broyden)= 0.55823E-01
  rms(prec ) = 0.64308E-01
  weight for this iteration     100.00

 eigenvalues of (default mixing * dielectric matrix)
  average eigenvalue GAMMA=   0.5795
  1.8860  0.7281  0.0666  0.1170  0.1002

 Free energy of the ion-electron system (eV)
  ---------------------------------------------------
  alpha Z        PSCENC =      2067.85644204
  Ewald energy   TEWEN  =    423725.25245677
  -1/2 Hartree   DENC   =   -519554.19150212
  -exchange  EXHF       =         0.00000000
  -V(xc)+E(xc)   XCENC  =      1982.12369191
  PAW double counting   =    106746.66073573  -113101.89502582
  entropy T*S    EENTRO =        -0.24861004
  eigenvalues    EBANDS =      -718.59745985
  atomic energy  EATOM  =     98035.95264826
  ---------------------------------------------------
  free energy    TOTEN  =      -817.08662310 eV

  energy without entropy =     -816.83801307  energy(sigma->0) =     -817.02447060


--------------------------------------------------------------------------------------------------------




----------------------------------------- Iteration    6(   7)  ---------------------------------------


    POTLOK:  cpu time    0.35: real time    0.35
    SETDIJ:  cpu time    0.05: real time    0.05
    EDDIAG:  cpu time    4.39: real time    4.41
  RMM-DIIS:  cpu time    7.25: real time    7.28
    ORTHCH:  cpu time    1.66: real time    1.67
       DOS:  cpu time    0.00: real time    0.00
    CHARGE:  cpu time    1.06: real time    1.06
    MIXING:  cpu time    0.01: real time    0.01
    --------------------------------------------
      LOOP:  cpu time   14.78: real time   14.84

 eigenvalue-minimisations  :  2967
 total energy-change (2. order) : 0.6985395E-03  (-0.9485617E-04)
 number of electron    1085.9999545 magnetization     202.1272918
 augmentation part      617.3010293 magnetization     179.6510871

 Broyden mixing:
  rms(total) = 0.40392E-01    rms(broyden)= 0.40390E-01
  rms(prec ) = 0.45876E-01
  weight for this iteration     100.00

 eigenvalues of (default mixing * dielectric matrix)
  average eigenvalue GAMMA=   0.5334
  2.0180  0.7659  0.1396  0.0663  0.1113  0.0993

 Free energy of the ion-electron system (eV)
  ---------------------------------------------------
  alpha Z        PSCENC =      2067.85644204
  Ewald energy   TEWEN  =    423725.25245677
  -1/2 Hartree   DENC   =   -519552.54738694
  -exchange  EXHF       =         0.00000000
  -V(xc)+E(xc)   XCENC  =      1982.12536187
  PAW double counting   =    106744.98689475  -113100.18833751
  entropy T*S    EENTRO =        -0.24692629
  eigenvalues    EBANDS =      -720.27707752
  atomic energy  EATOM  =     98035.95264826
  ---------------------------------------------------
  free energy    TOTEN  =      -817.08592457 eV

  energy without entropy =     -816.83899827  energy(sigma->0) =     -817.02419299


--------------------------------------------------------------------------------------------------------




----------------------------------------- Iteration    6(   8)  ---------------------------------------


    POTLOK:  cpu time    0.35: real time    0.35
    SETDIJ:  cpu time    0.05: real time    0.05
    EDDIAG:  cpu time    4.35: real time    4.43
  RMM-DIIS:  cpu time    7.18: real time    7.26
    ORTHCH:  cpu time    1.67: real time    1.67
       DOS:  cpu time    0.00: real time    0.00
    CHARGE:  cpu time    1.05: real time    1.07
    MIXING:  cpu time    0.01: real time    0.01
    --------------------------------------------
      LOOP:  cpu time   14.66: real time   14.84

 eigenvalue-minimisations  :  2960
 total energy-change (2. order) : 0.5955323E-03  (-0.5208049E-04)
 number of electron    1085.9999545 magnetization     202.1300296
 augmentation part      617.3000241 magnetization     179.6491152

 Broyden mixing:
  rms(total) = 0.11479E-01    rms(broyden)= 0.11477E-01
  rms(prec ) = 0.13495E-01
  weight for this iteration     100.00

 eigenvalues of (default mixing * dielectric matrix)
  average eigenvalue GAMMA=   0.5583
  2.1590  0.8439  0.5162  0.0664  0.1226  0.1092  0.0906

 Free energy of the ion-electron system (eV)
  ---------------------------------------------------
  alpha Z        PSCENC =      2067.85644204
  Ewald energy   TEWEN  =    423725.25245677
  -1/2 Hartree   DENC   =   -519552.88839879
  -exchange  EXHF       =         0.00000000
  -V(xc)+E(xc)   XCENC  =      1982.12436206
  PAW double counting   =    106744.77182313  -113099.97402506
  entropy T*S    EENTRO =        -0.24710681
  eigenvalues    EBANDS =      -719.93353065
  atomic energy  EATOM  =     98035.95264826
  ---------------------------------------------------
  free energy    TOTEN  =      -817.08532903 eV

  energy without entropy =     -816.83822223  energy(sigma->0) =     -817.02355233


--------------------------------------------------------------------------------------------------------




----------------------------------------- Iteration    6(   9)  ---------------------------------------


    POTLOK:  cpu time    0.35: real time    0.35
    SETDIJ:  cpu time    0.05: real time    0.05
    EDDIAG:  cpu time    4.36: real time    4.39
  RMM-DIIS:  cpu time    7.21: real time    7.24
    ORTHCH:  cpu time    1.67: real time    1.68
       DOS:  cpu time    0.00: real time    0.00
    CHARGE:  cpu time    1.04: real time    1.07
    MIXING:  cpu time    0.01: real time    0.01
    --------------------------------------------
      LOOP:  cpu time   14.69: real time   14.81

 eigenvalue-minimisations  :  2959
 total energy-change (2. order) :-0.2034820E-03  (-0.2021707E-04)
 number of electron    1085.9999544 magnetization     202.1326925
 augmentation part      617.2987567 magnetization     179.6481347

 Broyden mixing:
  rms(total) = 0.22077E-01    rms(broyden)= 0.22076E-01
  rms(prec ) = 0.25476E-01
  weight for this iteration     100.00

 eigenvalues of (default mixing * dielectric matrix)
  average eigenvalue GAMMA=   0.5518
  2.2529  1.0129  0.6549  0.0664  0.1257  0.1165  0.0962  0.0890

 Free energy of the ion-electron system (eV)
  ---------------------------------------------------
  alpha Z        PSCENC =      2067.85644204
  Ewald energy   TEWEN  =    423725.25245677
  -1/2 Hartree   DENC   =   -519553.15769743
  -exchange  EXHF       =         0.00000000
  -V(xc)+E(xc)   XCENC  =      1982.12371049
  PAW double counting   =    106744.68008894  -113099.89202084
  entropy T*S    EENTRO =        -0.24755751
  eigenvalues    EBANDS =      -719.65360325
  atomic energy  EATOM  =     98035.95264826
  ---------------------------------------------------
  free energy    TOTEN  =      -817.08553251 eV

  energy without entropy =     -816.83797500  energy(sigma->0) =     -817.02364314


--------------------------------------------------------------------------------------------------------




----------------------------------------- Iteration    6(  10)  ---------------------------------------


    POTLOK:  cpu time    0.35: real time    0.35
    SETDIJ:  cpu time    0.05: real time    0.05
    EDDIAG:  cpu time    4.41: real time    4.42
  RMM-DIIS:  cpu time    7.16: real time    7.22
    ORTHCH:  cpu time    1.67: real time    1.68
       DOS:  cpu time    0.00: real time    0.00
    CHARGE:  cpu time    1.06: real time    1.07
    MIXING:  cpu time    0.01: real time    0.01
    --------------------------------------------
      LOOP:  cpu time   14.72: real time   14.80

 eigenvalue-minimisations  :  2953
 total energy-change (2. order) : 0.1314003E-03  (-0.9120953E-05)
 number of electron    1085.9999545 magnetization     202.1337712
 augmentation part      617.2984602 magnetization     179.6514453

 Broyden mixing:
  rms(total) = 0.50488E-02    rms(broyden)= 0.50478E-02
  rms(prec ) = 0.56236E-02
  weight for this iteration     100.00

 eigenvalues of (default mixing * dielectric matrix)
  average eigenvalue GAMMA=   0.5170
  2.2637  1.0351  0.6624  0.1969  0.1329  0.0664  0.1064  0.1027  0.0861

 Free energy of the ion-electron system (eV)
  ---------------------------------------------------
  alpha Z        PSCENC =      2067.85644204
  Ewald energy   TEWEN  =    423725.25245677
  -1/2 Hartree   DENC   =   -519552.81267996
  -exchange  EXHF       =         0.00000000
  -V(xc)+E(xc)   XCENC  =      1982.12440030
  PAW double counting   =    106744.61941912  -113099.83885255
  entropy T*S    EENTRO =        -0.24702039
  eigenvalues    EBANDS =      -719.99221472
  atomic energy  EATOM  =     98035.95264826
  ---------------------------------------------------
  free energy    TOTEN  =      -817.08540111 eV

  energy without entropy =     -816.83838072  energy(sigma->0) =     -817.02364602


--------------------------------------------------------------------------------------------------------




----------------------------------------- Iteration    6(  11)  ---------------------------------------


    POTLOK:  cpu time    0.35: real time    0.35
    SETDIJ:  cpu time    0.05: real time    0.05
    EDDIAG:  cpu time    4.33: real time    4.39
  RMM-DIIS:  cpu time    7.18: real time    7.22
    ORTHCH:  cpu time    1.68: real time    1.68
       DOS:  cpu time    0.00: real time    0.00
    CHARGE:  cpu time    1.08: real time    1.09
    MIXING:  cpu time    0.01: real time    0.01
    --------------------------------------------
      LOOP:  cpu time   14.69: real time   14.81

 eigenvalue-minimisations  :  2955
 total energy-change (2. order) :-0.2162307E-04  (-0.2058191E-05)
 number of electron    1085.9999545 magnetization     202.1389423
 augmentation part      617.2980456 magnetization     179.6556922

 Broyden mixing:
  rms(total) = 0.38124E-02    rms(broyden)= 0.38121E-02
  rms(prec ) = 0.42575E-02
  weight for this iteration     100.00

 eigenvalues of (default mixing * dielectric matrix)
  average eigenvalue GAMMA=   0.5631
  2.3021  1.2552  0.8220  0.6415  0.0664  0.1319  0.1179  0.1109  0.0968  0.0864

 Free energy of the ion-electron system (eV)
  ---------------------------------------------------
  alpha Z        PSCENC =      2067.85644204
  Ewald energy   TEWEN  =    423725.25245677
  -1/2 Hartree   DENC   =   -519552.90533780
  -exchange  EXHF       =         0.00000000
  -V(xc)+E(xc)   XCENC  =      1982.12412790
  PAW double counting   =    106744.61500618  -113099.83598127
  entropy T*S    EENTRO =        -0.24719581
  eigenvalues    EBANDS =      -719.89758901
  atomic energy  EATOM  =     98035.95264826
  ---------------------------------------------------
  free energy    TOTEN  =      -817.08542274 eV

  energy without entropy =     -816.83822692  energy(sigma->0) =     -817.02362378


--------------------------------------------------------------------------------------------------------




----------------------------------------- Iteration    6(  12)  ---------------------------------------


    POTLOK:  cpu time    0.37: real time    0.37
    SETDIJ:  cpu time    0.05: real time    0.05
    EDDIAG:  cpu time    4.37: real time    4.44
  RMM-DIIS:  cpu time    7.02: real time    7.09
    ORTHCH:  cpu time    1.67: real time    1.68
       DOS:  cpu time    0.00: real time    0.00
    CHARGE:  cpu time    1.07: real time    1.07
    MIXING:  cpu time    0.01: real time    0.01
    --------------------------------------------
      LOOP:  cpu time   14.56: real time   14.72

 eigenvalue-minimisations  :  2906
 total energy-change (2. order) :-0.1050291E-03  (-0.1236997E-05)
 number of electron    1085.9999545 magnetization     202.1406981
 augmentation part      617.2980004 magnetization     179.6564248

 Broyden mixing:
  rms(total) = 0.40377E-02    rms(broyden)= 0.40376E-02
  rms(prec ) = 0.45284E-02
  weight for this iteration     100.00

 eigenvalues of (default mixing * dielectric matrix)
  average eigenvalue GAMMA=   0.5408
  2.3096  1.3785  0.8616  0.6478  0.0664  0.1398  0.1398  0.1161  0.1057  0.0971
  0.0863

 Free energy of the ion-electron system (eV)
  ---------------------------------------------------
  alpha Z        PSCENC =      2067.85644204
  Ewald energy   TEWEN  =    423725.25245677
  -1/2 Hartree   DENC   =   -519552.78011080
  -exchange  EXHF       =         0.00000000
  -V(xc)+E(xc)   XCENC  =      1982.12353937
  PAW double counting   =    106744.56481018  -113099.78709383
  entropy T*S    EENTRO =        -0.24703881
  eigenvalues    EBANDS =      -720.02118094
  atomic energy  EATOM  =     98035.95264826
  ---------------------------------------------------
  free energy    TOTEN  =      -817.08552777 eV

  energy without entropy =     -816.83848895  energy(sigma->0) =     -817.02376806


--------------------------------------------------------------------------------------------------------




----------------------------------------- Iteration    6(  13)  ---------------------------------------


    POTLOK:  cpu time    0.35: real time    0.37
    SETDIJ:  cpu time    0.05: real time    0.05
    EDDIAG:  cpu time    4.42: real time    4.44
  RMM-DIIS:  cpu time    6.52: real time    6.73
    ORTHCH:  cpu time    1.67: real time    1.69
       DOS:  cpu time    0.00: real time    0.00
    CHARGE:  cpu time    1.08: real time    1.09
    MIXING:  cpu time    0.01: real time    0.01
    --------------------------------------------
      LOOP:  cpu time   14.11: real time   14.38

 eigenvalue-minimisations  :  2732
 total energy-change (2. order) :-0.2554692E-04  (-0.6740687E-06)
 number of electron    1085.9999545 magnetization     202.1436633
 augmentation part      617.2980608 magnetization     179.6593443

 Broyden mixing:
  rms(total) = 0.20472E-02    rms(broyden)= 0.20470E-02
  rms(prec ) = 0.23737E-02
  weight for this iteration     100.00

 eigenvalues of (default mixing * dielectric matrix)
  average eigenvalue GAMMA=   0.5527
  2.3637  1.4892  0.9037  0.6571  0.4979  0.0664  0.1360  0.1204  0.0863  0.1107
  0.0966  0.1041

 Free energy of the ion-electron system (eV)
  ---------------------------------------------------
  alpha Z        PSCENC =      2067.85644204
  Ewald energy   TEWEN  =    423725.25245677
  -1/2 Hartree   DENC   =   -519552.77932874
  -exchange  EXHF       =         0.00000000
  -V(xc)+E(xc)   XCENC  =      1982.12336953
  PAW double counting   =    106744.55787623  -113099.78006836
  entropy T*S    EENTRO =        -0.24716525
  eigenvalues    EBANDS =      -720.02178379
  atomic energy  EATOM  =     98035.95264826
  ---------------------------------------------------
  free energy    TOTEN  =      -817.08555331 eV

  energy without entropy =     -816.83838806  energy(sigma->0) =     -817.02376200


--------------------------------------------------------------------------------------------------------




----------------------------------------- Iteration    6(  14)  ---------------------------------------


    POTLOK:  cpu time    0.37: real time    0.37
    SETDIJ:  cpu time    0.05: real time    0.05
    EDDIAG:  cpu time    4.85: real time    4.94
  RMM-DIIS:  cpu time    6.18: real time    6.22
    ORTHCH:  cpu time    1.68: real time    1.68
       DOS:  cpu time    0.00: real time    0.00
    CHARGE:  cpu time    1.05: real time    1.06
    MIXING:  cpu time    0.01: real time    0.01
    --------------------------------------------
      LOOP:  cpu time   14.20: real time   14.34

 eigenvalue-minimisations  :  2471
 total energy-change (2. order) :-0.5446597E-04  (-0.5086760E-06)
 number of electron    1085.9999545 magnetization     202.1476721
 augmentation part      617.2981550 magnetization     179.6622634

 Broyden mixing:
  rms(total) = 0.35330E-02    rms(broyden)= 0.35329E-02
  rms(prec ) = 0.40655E-02
  weight for this iteration     100.00

 eigenvalues of (default mixing * dielectric matrix)
  average eigenvalue GAMMA=   0.5799
  2.4996  1.8257  0.9877  0.7659  0.6314  0.0664  0.1350  0.1227  0.1227  0.1064
  0.0982  0.0864  0.0910

 Free energy of the ion-electron system (eV)
  ---------------------------------------------------
  alpha Z        PSCENC =      2067.85644204
  Ewald energy   TEWEN  =    423725.25245677
  -1/2 Hartree   DENC   =   -519552.75762867
  -exchange  EXHF       =         0.00000000
  -V(xc)+E(xc)   XCENC  =      1982.12298476
  PAW double counting   =    106744.54194851  -113099.76282181
  entropy T*S    EENTRO =        -0.24716719
  eigenvalues    EBANDS =      -720.04447045
  atomic energy  EATOM  =     98035.95264826
  ---------------------------------------------------
  free energy    TOTEN  =      -817.08560778 eV

  energy without entropy =     -816.83844059  energy(sigma->0) =     -817.02381598


--------------------------------------------------------------------------------------------------------




----------------------------------------- Iteration    6(  15)  ---------------------------------------


    POTLOK:  cpu time    0.35: real time    0.35
    SETDIJ:  cpu time    0.05: real time    0.05
    EDDIAG:  cpu time    4.38: real time    4.40
  RMM-DIIS:  cpu time    5.43: real time    5.45
    ORTHCH:  cpu time    1.69: real time    1.70
       DOS:  cpu time    0.00: real time    0.00
    CHARGE:  cpu time    1.03: real time    1.04
    MIXING:  cpu time    0.01: real time    0.01
    --------------------------------------------
      LOOP:  cpu time   12.95: real time   13.00

 eigenvalue-minimisations  :  2146
 total energy-change (2. order) :-0.5783107E-04  (-0.4569878E-06)
 number of electron    1085.9999545 magnetization     202.1491708
 augmentation part      617.2984081 magnetization     179.6632886

 Broyden mixing:
  rms(total) = 0.14274E-02    rms(broyden)= 0.14273E-02
  rms(prec ) = 0.15996E-02
  weight for this iteration     100.00

 eigenvalues of (default mixing * dielectric matrix)
  average eigenvalue GAMMA=   0.5639
  2.5361  1.8779  0.9920  0.7859  0.6323  0.2466  0.0664  0.1399  0.1270  0.1104
  0.1104  0.0968  0.0856  0.0873

 Free energy of the ion-electron system (eV)
  ---------------------------------------------------
  alpha Z        PSCENC =      2067.85644204
  Ewald energy   TEWEN  =    423725.25245677
  -1/2 Hartree   DENC   =   -519552.68068978
  -exchange  EXHF       =         0.00000000
  -V(xc)+E(xc)   XCENC  =      1982.12267416
  PAW double counting   =    106744.52611822  -113099.74549838
  entropy T*S    EENTRO =        -0.24710720
  eigenvalues    EBANDS =      -720.12270970
  atomic energy  EATOM  =     98035.95264826
  ---------------------------------------------------
  free energy    TOTEN  =      -817.08566561 eV

  energy without entropy =     -816.83855841  energy(sigma->0) =     -817.02388881


--------------------------------------------------------------------------------------------------------




----------------------------------------- Iteration    6(  16)  ---------------------------------------


    POTLOK:  cpu time    0.38: real time    0.39
    SETDIJ:  cpu time    0.06: real time    0.06
    EDDIAG:  cpu time    4.42: real time    4.44
  RMM-DIIS:  cpu time    4.23: real time    4.28
    ORTHCH:  cpu time    1.70: real time    1.71
       DOS:  cpu time    0.00: real time    0.00
    CHARGE:  cpu time    1.07: real time    1.07
    MIXING:  cpu time    0.02: real time    0.02
    --------------------------------------------
      LOOP:  cpu time   11.88: real time   11.96

 eigenvalue-minimisations  :  1652
 total energy-change (2. order) :-0.2336591E-04  (-0.1549749E-06)
 number of electron    1085.9999545 magnetization     202.1537730
 augmentation part      617.2982613 magnetization     179.6674055

 Broyden mixing:
  rms(total) = 0.16000E-02    rms(broyden)= 0.15999E-02
  rms(prec ) = 0.17452E-02
  weight for this iteration     100.00

 eigenvalues of (default mixing * dielectric matrix)
  average eigenvalue GAMMA=   0.5953
  2.6475  1.9698  1.0125  1.0125  0.7068  0.6406  0.0664  0.1385  0.1288  0.1153
  0.1153  0.1056  0.0969  0.0861  0.0868

 Free energy of the ion-electron system (eV)
  ---------------------------------------------------
  alpha Z        PSCENC =      2067.85644204
  Ewald energy   TEWEN  =    423725.25245677
  -1/2 Hartree   DENC   =   -519552.68777886
  -exchange  EXHF       =         0.00000000
  -V(xc)+E(xc)   XCENC  =      1982.12257398
  PAW double counting   =    106744.52916601  -113099.74917404
  entropy T*S    EENTRO =        -0.24718002
  eigenvalues    EBANDS =      -720.11484311
  atomic energy  EATOM  =     98035.95264826
  ---------------------------------------------------
  free energy    TOTEN  =      -817.08568898 eV

  energy without entropy =     -816.83850896  energy(sigma->0) =     -817.02389397


--------------------------------------------------------------------------------------------------------




----------------------------------------- Iteration    6(  17)  ---------------------------------------


    POTLOK:  cpu time    0.35: real time    0.37
    SETDIJ:  cpu time    0.05: real time    0.05
    EDDIAG:  cpu time    4.41: real time    4.42
  RMM-DIIS:  cpu time    4.58: real time    4.60
    ORTHCH:  cpu time    1.66: real time    1.69
       DOS:  cpu time    0.00: real time    0.00
    CHARGE:  cpu time    1.09: real time    1.10
    MIXING:  cpu time    0.02: real time    0.02
    --------------------------------------------
      LOOP:  cpu time   12.17: real time   12.26

 eigenvalue-minimisations  :  1781
 total energy-change (2. order) :-0.6915677E-04  (-0.2435194E-06)
 number of electron    1085.9999545 magnetization     202.1556675
 augmentation part      617.2979409 magnetization     179.6680504

 Broyden mixing:
  rms(total) = 0.98019E-03    rms(broyden)= 0.98014E-03
  rms(prec ) = 0.10551E-02
  weight for this iteration     100.00

 eigenvalues of (default mixing * dielectric matrix)
  average eigenvalue GAMMA=   0.5837
  2.6744  2.0394  1.0534  1.0534  0.7171  0.6381  0.2237  0.0664  0.1403  0.1296
  0.1188  0.1076  0.1076  0.0970  0.0868  0.0859

 Free energy of the ion-electron system (eV)
  ---------------------------------------------------
  alpha Z        PSCENC =      2067.85644204
  Ewald energy   TEWEN  =    423725.25245677
  -1/2 Hartree   DENC   =   -519552.63836505
  -exchange  EXHF       =         0.00000000
  -V(xc)+E(xc)   XCENC  =      1982.12231744
  PAW double counting   =    106744.53361420  -113099.75567308
  entropy T*S    EENTRO =        -0.24712180
  eigenvalues    EBANDS =      -720.16207692
  atomic energy  EATOM  =     98035.95264826
  ---------------------------------------------------
  free energy    TOTEN  =      -817.08575813 eV

  energy without entropy =     -816.83863633  energy(sigma->0) =     -817.02397768


--------------------------------------------------------------------------------------------------------




----------------------------------------- Iteration    6(  18)  ---------------------------------------


    POTLOK:  cpu time    0.37: real time    0.37
    SETDIJ:  cpu time    0.05: real time    0.05
    EDDIAG:  cpu time    4.40: real time    4.41
  RMM-DIIS:  cpu time    4.24: real time    4.30
    ORTHCH:  cpu time    1.71: real time    1.72
       DOS:  cpu time    0.00: real time    0.00
    CHARGE:  cpu time    1.08: real time    1.08
    MIXING:  cpu time    0.02: real time    0.02
    --------------------------------------------
      LOOP:  cpu time   11.86: real time   11.96

 eigenvalue-minimisations  :  1653
 total energy-change (2. order) :-0.2594263E-04  (-0.1121522E-06)
 number of electron    1085.9999545 magnetization     202.1628009
 augmentation part      617.2979254 magnetization     179.6747084

 Broyden mixing:
  rms(total) = 0.10676E-02    rms(broyden)= 0.10676E-02
  rms(prec ) = 0.11492E-02
  weight for this iteration     100.00

 eigenvalues of (default mixing * dielectric matrix)
  average eigenvalue GAMMA=   0.6387
  2.9221  2.3404  1.3703  1.1077  0.7746  0.6421  0.6421  0.0664  0.1400  0.1305
  0.1222  0.1159  0.1092  0.1035  0.0970  0.0860  0.0868

 Free energy of the ion-electron system (eV)
  ---------------------------------------------------
  alpha Z        PSCENC =      2067.85644204
  Ewald energy   TEWEN  =    423725.25245677
  -1/2 Hartree   DENC   =   -519552.62722516
  -exchange  EXHF       =         0.00000000
  -V(xc)+E(xc)   XCENC  =      1982.12219500
  PAW double counting   =    106744.53356095  -113099.75523868
  entropy T*S    EENTRO =        -0.24714194
  eigenvalues    EBANDS =      -720.17348131
  atomic energy  EATOM  =     98035.95264826
  ---------------------------------------------------
  free energy    TOTEN  =      -817.08578408 eV

  energy without entropy =     -816.83864213  energy(sigma->0) =     -817.02399859


--------------------------------------------------------------------------------------------------------




----------------------------------------- Iteration    6(  19)  ---------------------------------------


    POTLOK:  cpu time    0.37: real time    0.38
    SETDIJ:  cpu time    0.05: real time    0.05
    EDDIAG:  cpu time    4.45: real time    4.46
  RMM-DIIS:  cpu time    4.89: real time    4.95
    ORTHCH:  cpu time    1.68: real time    1.68
       DOS:  cpu time    0.00: real time    0.00
    CHARGE:  cpu time    1.07: real time    1.08
    MIXING:  cpu time    0.02: real time    0.02
    --------------------------------------------
      LOOP:  cpu time   12.53: real time   12.62

 eigenvalue-minimisations  :  1911
 total energy-change (2. order) :-0.8456496E-04  (-0.3959315E-06)
 number of electron    1085.9999545 magnetization     202.1655307
 augmentation part      617.2983281 magnetization     179.6759842

 Broyden mixing:
  rms(total) = 0.88465E-03    rms(broyden)= 0.88462E-03
  rms(prec ) = 0.98605E-03
  weight for this iteration     100.00

 eigenvalues of (default mixing * dielectric matrix)
  average eigenvalue GAMMA=   0.6409
  3.1675  2.4142  1.4493  1.0914  0.7995  0.6574  0.6546  0.2444  0.0664  0.1400
  0.1318  0.1232  0.1132  0.1094  0.1051  0.0969  0.0860  0.0868

 Free energy of the ion-electron system (eV)
  ---------------------------------------------------
  alpha Z        PSCENC =      2067.85644204
  Ewald energy   TEWEN  =    423725.25245677
  -1/2 Hartree   DENC   =   -519552.53114980
  -exchange  EXHF       =         0.00000000
  -V(xc)+E(xc)   XCENC  =      1982.12179295
  PAW double counting   =    106744.51886459  -113099.73758698
  entropy T*S    EENTRO =        -0.24709577
  eigenvalues    EBANDS =      -720.27224071
  atomic energy  EATOM  =     98035.95264826
  ---------------------------------------------------
  free energy    TOTEN  =      -817.08586864 eV

  energy without entropy =     -816.83877287  energy(sigma->0) =     -817.02409470


--------------------------------------------------------------------------------------------------------




----------------------------------------- Iteration    6(  20)  ---------------------------------------


    POTLOK:  cpu time    0.35: real time    0.35
    SETDIJ:  cpu time    0.05: real time    0.05
    EDDIAG:  cpu time    4.36: real time    4.37
  RMM-DIIS:  cpu time    4.36: real time    4.39
    ORTHCH:  cpu time    1.69: real time    1.70
       DOS:  cpu time    0.00: real time    0.00
    CHARGE:  cpu time    1.08: real time    1.08
    MIXING:  cpu time    0.02: real time    0.02
    --------------------------------------------
      LOOP:  cpu time   11.91: real time   11.96

 eigenvalue-minimisations  :  1684
 total energy-change (2. order) :-0.2652466E-04  (-0.1444480E-06)
 number of electron    1085.9999545 magnetization     202.1726285
 augmentation part      617.2982065 magnetization     179.6824721

 Broyden mixing:
  rms(total) = 0.11315E-02    rms(broyden)= 0.11315E-02
  rms(prec ) = 0.12376E-02
  weight for this iteration     100.00

 eigenvalues of (default mixing * dielectric matrix)
  average eigenvalue GAMMA=   0.7187
  4.3342  2.4691  1.6776  1.0121  1.0121  0.7321  0.6214  0.6214  0.0664  0.1402
  0.1331  0.0860  0.0868  0.1255  0.0969  0.1149  0.1149  0.1038  0.1073

 Free energy of the ion-electron system (eV)
  ---------------------------------------------------
  alpha Z        PSCENC =      2067.85644204
  Ewald energy   TEWEN  =    423725.25245677
  -1/2 Hartree   DENC   =   -519552.51114411
  -exchange  EXHF       =         0.00000000
  -V(xc)+E(xc)   XCENC  =      1982.12165974
  PAW double counting   =    106744.51233615  -113099.73131090
  entropy T*S    EENTRO =        -0.24711381
  eigenvalues    EBANDS =      -720.29186931
  atomic energy  EATOM  =     98035.95264826
  ---------------------------------------------------
  free energy    TOTEN  =      -817.08589517 eV

  energy without entropy =     -816.83878136  energy(sigma->0) =     -817.02411671


--------------------------------------------------------------------------------------------------------




----------------------------------------- Iteration    6(  21)  ---------------------------------------


    POTLOK:  cpu time    0.36: real time    0.37
    SETDIJ:  cpu time    0.05: real time    0.05
    EDDIAG:  cpu time    4.41: real time    4.42
  RMM-DIIS:  cpu time    4.86: real time    4.89
    ORTHCH:  cpu time    1.67: real time    1.69
       DOS:  cpu time    0.00: real time    0.00
    CHARGE:  cpu time    1.06: real time    1.07
    MIXING:  cpu time    0.02: real time    0.02
    --------------------------------------------
      LOOP:  cpu time   12.43: real time   12.52

 eigenvalue-minimisations  :  1895
 total energy-change (2. order) :-0.5386566E-04  (-0.3786577E-06)
 number of electron    1085.9999545 magnetization     202.1744238
 augmentation part      617.2979096 magnetization     179.6824534

 Broyden mixing:
  rms(total) = 0.77148E-03    rms(broyden)= 0.77145E-03
  rms(prec ) = 0.83741E-03
  weight for this iteration     100.00

 eigenvalues of (default mixing * dielectric matrix)
  average eigenvalue GAMMA=   0.7338
  4.9586  2.4819  1.7484  1.0467  1.0467  0.7402  0.6320  0.6320  0.2179  0.0664
  0.1401  0.1317  0.0860  0.0868  0.1256  0.0970  0.1173  0.1034  0.1090  0.1090

 Free energy of the ion-electron system (eV)
  ---------------------------------------------------
  alpha Z        PSCENC =      2067.85644204
  Ewald energy   TEWEN  =    423725.25245677
  -1/2 Hartree   DENC   =   -519552.44780807
  -exchange  EXHF       =         0.00000000
  -V(xc)+E(xc)   XCENC  =      1982.12133201
  PAW double counting   =    106744.48658794  -113099.70745386
  entropy T*S    EENTRO =        -0.24709932
  eigenvalues    EBANDS =      -720.35305480
  atomic energy  EATOM  =     98035.95264826
  ---------------------------------------------------
  free energy    TOTEN  =      -817.08594903 eV

  energy without entropy =     -816.83884971  energy(sigma->0) =     -817.02417420


--------------------------------------------------------------------------------------------------------




----------------------------------------- Iteration    6(  22)  ---------------------------------------


    POTLOK:  cpu time    0.35: real time    0.35
    SETDIJ:  cpu time    0.05: real time    0.05
    EDDIAG:  cpu time    4.30: real time    4.39
  RMM-DIIS:  cpu time    4.25: real time    4.31
    ORTHCH:  cpu time    1.69: real time    1.70
       DOS:  cpu time    0.00: real time    0.00
    CHARGE:  cpu time    1.05: real time    1.08
    MIXING:  cpu time    0.02: real time    0.02
    --------------------------------------------
      LOOP:  cpu time   11.72: real time   11.90

 eigenvalue-minimisations  :  1654
 total energy-change (2. order) :-0.1109979E-04  (-0.8507361E-07)
 number of electron    1085.9999545 magnetization     202.1781452
 augmentation part      617.2979446 magnetization     179.6858260

 Broyden mixing:
  rms(total) = 0.63127E-03    rms(broyden)= 0.63124E-03
  rms(prec ) = 0.68229E-03
  weight for this iteration     100.00

 eigenvalues of (default mixing * dielectric matrix)
  average eigenvalue GAMMA=   0.8650
  7.3903  2.5171  1.9751  1.1578  1.1578  0.7883  0.7161  0.5851  0.5851  0.0664
  0.1403  0.1349  0.0860  0.0868  0.1282  0.1216  0.0969  0.1142  0.1100  0.1052
  0.1028

 Free energy of the ion-electron system (eV)
  ---------------------------------------------------
  alpha Z        PSCENC =      2067.85644204
  Ewald energy   TEWEN  =    423725.25245677
  -1/2 Hartree   DENC   =   -519552.43266066
  -exchange  EXHF       =         0.00000000
  -V(xc)+E(xc)   XCENC  =      1982.12123967
  PAW double counting   =    106744.47562437  -113099.69639444
  entropy T*S    EENTRO =        -0.24711214
  eigenvalues    EBANDS =      -720.36820400
  atomic energy  EATOM  =     98035.95264826
  ---------------------------------------------------
  free energy    TOTEN  =      -817.08596013 eV

  energy without entropy =     -816.83884799  energy(sigma->0) =     -817.02418210


--------------------------------------------------------------------------------------------------------




----------------------------------------- Iteration    6(  23)  ---------------------------------------


    POTLOK:  cpu time    0.36: real time    0.37
    SETDIJ:  cpu time    0.05: real time    0.05
    EDDIAG:  cpu time    4.40: real time    4.42
  RMM-DIIS:  cpu time    4.38: real time    4.43
    ORTHCH:  cpu time    1.69: real time    1.69
       DOS:  cpu time    0.00: real time    0.00
    CHARGE:  cpu time    1.40: real time    1.40
    MIXING:  cpu time    0.02: real time    0.02
    --------------------------------------------
      LOOP:  cpu time   12.31: real time   12.39

 eigenvalue-minimisations  :  1700
 total energy-change (2. order) :-0.2128429E-04  (-0.1212466E-06)
 number of electron    1085.9999545 magnetization     202.1786908
 augmentation part      617.2981108 magnetization     179.6855587

 Broyden mixing:
  rms(total) = 0.38100E-03    rms(broyden)= 0.38098E-03
  rms(prec ) = 0.41108E-03
  weight for this iteration     100.00

 eigenvalues of (default mixing * dielectric matrix)
  average eigenvalue GAMMA=   0.8641
  7.9354  2.5235  2.0113  1.1766  1.1766  0.7880  0.7323  0.5912  0.5912  0.1918
  0.0664  0.1407  0.1329  0.1299  0.0860  0.0868  0.1206  0.0970  0.1146  0.1089
  0.1059  0.1022

 Free energy of the ion-electron system (eV)
  ---------------------------------------------------
  alpha Z        PSCENC =      2067.85644204
  Ewald energy   TEWEN  =    423725.25245677
  -1/2 Hartree   DENC   =   -519552.39155708
  -exchange  EXHF       =         0.00000000
  -V(xc)+E(xc)   XCENC  =      1982.12105601
  PAW double counting   =    106744.44331066  -113099.66269064
  entropy T*S    EENTRO =        -0.24709671
  eigenvalues    EBANDS =      -720.41055072
  atomic energy  EATOM  =     98035.95264826
  ---------------------------------------------------
  free energy    TOTEN  =      -817.08598142 eV

  energy without entropy =     -816.83888470  energy(sigma->0) =     -817.02420724


--------------------------------------------------------------------------------------------------------




----------------------------------------- Iteration    6(  24)  ---------------------------------------


    POTLOK:  cpu time    0.35: real time    0.35
    SETDIJ:  cpu time    0.05: real time    0.05
    EDDIAG:  cpu time    4.44: real time    4.48
  RMM-DIIS:  cpu time    4.15: real time    4.18
    ORTHCH:  cpu time    1.67: real time    1.67
       DOS:  cpu time    0.00: real time    0.00
    CHARGE:  cpu time    1.02: real time    1.06
    MIXING:  cpu time    0.02: real time    0.02
    --------------------------------------------
      LOOP:  cpu time   11.71: real time   11.82

 eigenvalue-minimisations  :  1598
 total energy-change (2. order) :-0.3442707E-05  (-0.2471886E-07)
 number of electron    1085.9999545 magnetization     202.1797413
 augmentation part      617.2980860 magnetization     179.6865255

 Broyden mixing:
  rms(total) = 0.25460E-03    rms(broyden)= 0.25458E-03
  rms(prec ) = 0.27369E-03
  weight for this iteration     100.00

 eigenvalues of (default mixing * dielectric matrix)
  average eigenvalue GAMMA=   0.9255
  9.2229  2.5385  2.1465  1.2286  1.2286  0.8474  0.8474  0.6540  0.5803  0.5803
  0.0664  0.1406  0.1359  0.1307  0.0860  0.0868  0.1236  0.0969  0.1163  0.1127
  0.1089  0.1046  0.1017

 Free energy of the ion-electron system (eV)
  ---------------------------------------------------
  alpha Z        PSCENC =      2067.85644204
  Ewald energy   TEWEN  =    423725.25245677
  -1/2 Hartree   DENC   =   -519552.38720551
  -exchange  EXHF       =         0.00000000
  -V(xc)+E(xc)   XCENC  =      1982.12103536
  PAW double counting   =    106744.43778000  -113099.65716844
  entropy T*S    EENTRO =        -0.24709801
  eigenvalues    EBANDS =      -720.41487535
  atomic energy  EATOM  =     98035.95264826
  ---------------------------------------------------
  free energy    TOTEN  =      -817.08598486 eV

  energy without entropy =     -816.83888685  energy(sigma->0) =     -817.02421036


--------------------------------------------------------------------------------------------------------




----------------------------------------- Iteration    6(  25)  ---------------------------------------


    POTLOK:  cpu time    0.35: real time    0.35
    SETDIJ:  cpu time    0.05: real time    0.05
    EDDIAG:  cpu time    4.36: real time    4.38
  RMM-DIIS:  cpu time    4.23: real time    4.24
    ORTHCH:  cpu time    1.67: real time    1.70
       DOS:  cpu time    0.00: real time    0.00
    CHARGE:  cpu time    1.06: real time    1.06
    MIXING:  cpu time    0.04: real time    0.04
    --------------------------------------------
      LOOP:  cpu time   11.77: real time   11.83

 eigenvalue-minimisations  :  1615
 total energy-change (2. order) :-0.8559771E-05  (-0.2645833E-07)
 number of electron    1085.9999545 magnetization     202.1799652
 augmentation part      617.2980391 magnetization     179.6864599

 Broyden mixing:
  rms(total) = 0.25275E-03    rms(broyden)= 0.25275E-03
  rms(prec ) = 0.27262E-03
  weight for this iteration     100.00

 eigenvalues of (default mixing * dielectric matrix)
  average eigenvalue GAMMA=   0.9124
  9.5156  2.5427  2.1879  1.2386  1.2386  0.8822  0.8822  0.6682  0.5827  0.5827
  0.0664  0.1693  0.1409  0.1363  0.0860  0.0868  0.1291  0.1229  0.1159  0.0970
  0.1108  0.1088  0.1047  0.1011

 Free energy of the ion-electron system (eV)
  ---------------------------------------------------
  alpha Z        PSCENC =      2067.85644204
  Ewald energy   TEWEN  =    423725.25245677
  -1/2 Hartree   DENC   =   -519552.38288509
  -exchange  EXHF       =         0.00000000
  -V(xc)+E(xc)   XCENC  =      1982.12099859
  PAW double counting   =    106744.42497661  -113099.64479104
  entropy T*S    EENTRO =        -0.24709846
  eigenvalues    EBANDS =      -720.41874110
  atomic energy  EATOM  =     98035.95264826
  ---------------------------------------------------
  free energy    TOTEN  =      -817.08599342 eV

  energy without entropy =     -816.83889496  energy(sigma->0) =     -817.02421880


--------------------------------------------------------------------------------------------------------




----------------------------------------- Iteration    6(  26)  ---------------------------------------


    POTLOK:  cpu time    0.36: real time    0.36
    SETDIJ:  cpu time    0.05: real time    0.05
    EDDIAG:  cpu time    4.41: real time    4.42
  RMM-DIIS:  cpu time    4.02: real time    4.03
    ORTHCH:  cpu time    1.69: real time    1.70
       DOS:  cpu time    0.00: real time    0.00
    CHARGE:  cpu time    1.05: real time    1.05
    MIXING:  cpu time    0.02: real time    0.02
    --------------------------------------------
      LOOP:  cpu time   11.61: real time   11.64

 eigenvalue-minimisations  :  1516
 total energy-change (2. order) :-0.1886234E-05  (-0.7816290E-08)
 number of electron    1085.9999545 magnetization     202.1803850
 augmentation part      617.2980280 magnetization     179.6868246

 Broyden mixing:
  rms(total) = 0.12476E-03    rms(broyden)= 0.12475E-03
  rms(prec ) = 0.13670E-03
  weight for this iteration     100.00

 eigenvalues of (default mixing * dielectric matrix)
  average eigenvalue GAMMA=   0.9409
 10.0844  2.5637  2.3224  1.4869  1.0578  1.0578  0.9300  0.7367  0.6213  0.5680
  0.5680  0.0664  0.1409  0.1374  0.0860  0.0868  0.1309  0.1257  0.1198  0.1142
  0.0969  0.1096  0.1068  0.1038  0.1006

 Free energy of the ion-electron system (eV)
  ---------------------------------------------------
  alpha Z        PSCENC =      2067.85644204
  Ewald energy   TEWEN  =    423725.25245677
  -1/2 Hartree   DENC   =   -519552.38251390
  -exchange  EXHF       =         0.00000000
  -V(xc)+E(xc)   XCENC  =      1982.12098266
  PAW double counting   =    106744.42153156  -113099.64138646
  entropy T*S    EENTRO =        -0.24709607
  eigenvalues    EBANDS =      -720.41906017
  atomic energy  EATOM  =     98035.95264826
  ---------------------------------------------------
  free energy    TOTEN  =      -817.08599530 eV

  energy without entropy =     -816.83889923  energy(sigma->0) =     -817.02422129


--------------------------------------------------------------------------------------------------------




----------------------------------------- Iteration    6(  27)  ---------------------------------------


    POTLOK:  cpu time    0.38: real time    0.39
    SETDIJ:  cpu time    0.06: real time    0.06
    EDDIAG:  cpu time    4.43: real time    4.44
  RMM-DIIS:  cpu time    3.64: real time    3.68
    ORTHCH:  cpu time    1.72: real time    1.73
       DOS:  cpu time    0.00: real time    0.00
    CHARGE:  cpu time    1.04: real time    1.04
    MIXING:  cpu time    0.02: real time    0.02
    --------------------------------------------
      LOOP:  cpu time   11.29: real time   11.36

 eigenvalue-minimisations  :  1213
 total energy-change (2. order) :-0.4098241E-05  (-0.8824492E-08)
 number of electron    1085.9999545 magnetization     202.1804669
 augmentation part      617.2980403 magnetization     179.6868127

 Broyden mixing:
  rms(total) = 0.12985E-03    rms(broyden)= 0.12985E-03
  rms(prec ) = 0.14285E-03
  weight for this iteration     100.00

 eigenvalues of (default mixing * dielectric matrix)
  average eigenvalue GAMMA=   0.9204
 10.1765  2.5719  2.3571  1.5320  1.0730  1.0730  0.9278  0.7503  0.6300  0.5711
  0.5711  0.1726  0.0664  0.1409  0.1378  0.0860  0.0868  0.1310  0.1258  0.1190
  0.1144  0.0970  0.1093  0.1067  0.1037  0.1002

 Free energy of the ion-electron system (eV)
  ---------------------------------------------------
  alpha Z        PSCENC =      2067.85644204
  Ewald energy   TEWEN  =    423725.25245677
  -1/2 Hartree   DENC   =   -519552.38126289
  -exchange  EXHF       =         0.00000000
  -V(xc)+E(xc)   XCENC  =      1982.12094455
  PAW double counting   =    106744.41335886  -113099.63300420
  entropy T*S    EENTRO =        -0.24709508
  eigenvalues    EBANDS =      -720.42048771
  atomic energy  EATOM  =     98035.95264826
  ---------------------------------------------------
  free energy    TOTEN  =      -817.08599940 eV

  energy without entropy =     -816.83890432  energy(sigma->0) =     -817.02422563


--------------------------------------------------------------------------------------------------------




----------------------------------------- Iteration    6(  28)  ---------------------------------------


    POTLOK:  cpu time    0.35: real time    0.35
    SETDIJ:  cpu time    0.05: real time    0.05
    EDDIAG:  cpu time    4.45: real time    4.47
  RMM-DIIS:  cpu time    3.41: real time    3.43
    ORTHCH:  cpu time    1.69: real time    1.70
       DOS:  cpu time    0.00: real time    0.00
    --------------------------------------------
      LOOP:  cpu time    9.96: real time   10.01

 eigenvalue-minimisations  :   961
 total energy-change (2. order) :-0.8613133E-06  (-0.2140427E-08)
 number of electron    1085.9999545 magnetization     202.1804669
 augmentation part      617.2980403 magnetization     179.6868127

 Free energy of the ion-electron system (eV)
  ---------------------------------------------------
  alpha Z        PSCENC =      2067.85644204
  Ewald energy   TEWEN  =    423725.25245677
  -1/2 Hartree   DENC   =   -519552.38141220
  -exchange  EXHF       =         0.00000000
  -V(xc)+E(xc)   XCENC  =      1982.12094199
  PAW double counting   =    106744.41163483  -113099.63123178
  entropy T*S    EENTRO =        -0.24709545
  eigenvalues    EBANDS =      -720.42038471
  atomic energy  EATOM  =     98035.95264826
  ---------------------------------------------------
  free energy    TOTEN  =      -817.08600026 eV

  energy without entropy =     -816.83890481  energy(sigma->0) =     -817.02422640


--------------------------------------------------------------------------------------------------------




 average (electrostatic) potential at core
  the test charge radii are     1.0452  0.7215
  (the norm of the test charge is              1.0000)
       1 -86.7479       2 -86.7473       3 -86.7511       4 -86.7506       5 -86.7486
       6 -86.7487       7 -86.7484       8 -86.7500       9 -86.7475      10 -86.7523
      11 -86.7509      12 -86.7456      13 -86.7453      14 -86.7527      15 -86.7520
      16 -86.7531      17 -86.7487      18 -86.7509      19 -86.7529      20 -86.7493
      21 -86.7489      22 -86.7500      23 -86.7498      24 -86.7529      25 -86.8462
      26 -86.8460      27 -86.8476      28 -86.8516      29 -86.8504      30 -86.8522
      31 -86.8519      32 -86.8519      33 -86.8485      34 -86.8510      35 -86.8479
      36 -86.8505      37 -86.8488      38 -86.8478      39 -86.8484      40 -86.8478
      41 -86.8496      42 -86.8476      43 -86.8505      44 -86.8513      45 -86.8482
      46 -86.8456      47 -86.8478      48 -86.8513      49 -86.8213      50 -86.8242
      51 -86.8244      52 -86.8208      53 -86.8199      54 -86.8204      55 -86.8207
      56 -86.8206      57 -86.8303      58 -86.8160      59 -86.8174      60 -86.8145
      61 -86.8344      62 -86.8320      63 -86.8168      64 -86.8168      65 -86.8290
      66 -86.8240      67 -86.8287      68 -86.8257      69 -86.8192      70 -86.8236
      71 -86.8230      72 -86.8217      73 -86.8611      74 -86.8621      75 -86.8594
      76 -86.8598      77 -86.8570      78 -86.8446      79 -86.8557      80 -86.8501
      81 -86.8603      82 -86.8714      83 -86.8707      84 -86.8599      85 -86.8634
      86 -86.8403      87 -86.8674      88 -86.8425      89 -86.8648      90 -86.8634
      91 -86.8576      92 -86.8615      93 -86.8610      94 -86.8667      95 -86.8626
      96 -86.8582      97 -86.7555      98 -86.7564      99 -86.7524     100 -86.7606
     101 -86.7541     102 -86.7665     103 -86.7683     104 -86.7567     105 -86.7460
     106 -86.7614     107 -86.9013     108 -86.7590     109 -86.7569     110 -86.7590
     111 -86.8923     112 -86.8929     113 -86.7588     114 -86.7555     115 -86.7613
     116 -86.7569     117 -86.7526     118 -86.7491     119 -86.7506     120 -86.7545
     121 -74.2326
 
 
 
 E-fermi :   1.8105     XC(G=0):  -6.7340     alpha+bet : -7.7752


 spin component 1

 k-point   1 :       0.0000    0.0000    0.0000
  band No.  band energies     occupation 
      1     -17.0713      1.00000
      2      -6.8737      1.00000
      3      -5.9910      1.00000
      4      -5.9492      1.00000
      5      -5.9341      1.00000
      6      -5.3050      1.00000
      7      -5.2961      1.00000
      8      -5.1284      1.00000
      9      -5.1061      1.00000
     10      -4.9257      1.00000
     11      -4.9174      1.00000
     12      -4.6862      1.00000
     13      -4.5599      1.00000
     14      -4.5339      1.00000
     15      -4.2713      1.00000
     16      -4.2332      1.00000
     17      -4.2278      1.00000
     18      -4.2176      1.00000
     19      -4.0005      1.00000
     20      -3.9223      1.00000
     21      -3.8723      1.00000
     22      -3.8588      1.00000
     23      -3.8196      1.00000
     24      -3.7409      1.00000
     25      -3.7234      1.00000
     26      -3.6736      1.00000
     27      -3.6101      1.00000
     28      -3.5481      1.00000
     29      -3.4899      1.00000
     30      -3.4407      1.00000
     31      -3.4186      1.00000
     32      -3.3976      1.00000
     33      -3.3568      1.00000
     34      -3.3458      1.00000
     35      -3.3428      1.00000
     36      -3.3302      1.00000
     37      -3.3108      1.00000
     38      -3.2966      1.00000
     39      -3.2568      1.00000
     40      -3.2373      1.00000
     41      -3.2097      1.00000
     42      -3.2068      1.00000
     43      -3.1929      1.00000
     44      -3.0871      1.00000
     45      -3.0848      1.00000
     46      -3.0645      1.00000
     47      -3.0493      1.00000
     48      -3.0212      1.00000
     49      -3.0091      1.00000
     50      -2.9961      1.00000
     51      -2.9849      1.00000
     52      -2.9735      1.00000
     53      -2.9514      1.00000
     54      -2.9411      1.00000
     55      -2.9366      1.00000
     56      -2.9275      1.00000
     57      -2.9185      1.00000
     58      -2.9111      1.00000
     59      -2.8599      1.00000
     60      -2.8576      1.00000
     61      -2.8534      1.00000
     62      -2.8515      1.00000
     63      -2.8041      1.00000
     64      -2.7949      1.00000
     65      -2.7785      1.00000
     66      -2.7752      1.00000
     67      -2.7520      1.00000
     68      -2.7451      1.00000
     69      -2.7407      1.00000
     70      -2.7351      1.00000
     71      -2.7280      1.00000
     72      -2.7168      1.00000
     73      -2.7034      1.00000
     74      -2.6984      1.00000
     75      -2.6903      1.00000
     76      -2.6774      1.00000
     77      -2.6714      1.00000
     78      -2.6666      1.00000
     79      -2.6633      1.00000
     80      -2.6603      1.00000
     81      -2.6325      1.00000
     82      -2.6293      1.00000
     83      -2.6285      1.00000
     84      -2.6207      1.00000
     85      -2.6190      1.00000
     86      -2.5990      1.00000
     87      -2.5828      1.00000
     88      -2.5693      1.00000
     89      -2.5596      1.00000
     90      -2.5524      1.00000
     91      -2.5260      1.00000
     92      -2.5150      1.00000
     93      -2.5037      1.00000
     94      -2.5027      1.00000
     95      -2.5009      1.00000
     96      -2.4865      1.00000
     97      -2.4860      1.00000
     98      -2.4819      1.00000
     99      -2.4770      1.00000
    100      -2.4649      1.00000
    101      -2.4640      1.00000
    102      -2.4619      1.00000
    103      -2.4557      1.00000
    104      -2.4480      1.00000
    105      -2.4427      1.00000
    106      -2.4327      1.00000
    107      -2.4292      1.00000
    108      -2.4260      1.00000
    109      -2.4200      1.00000
    110      -2.4187      1.00000
    111      -2.4176      1.00000
    112      -2.4087      1.00000
    113      -2.4042      1.00000
    114      -2.4029      1.00000
    115      -2.4017      1.00000
    116      -2.3972      1.00000
    117      -2.3794      1.00000
    118      -2.3561      1.00000
    119      -2.3352      1.00000
    120      -2.2898      1.00000
    121      -2.2796      1.00000
    122      -2.2410      1.00000
    123      -2.2336      1.00000
    124      -2.2270      1.00000
    125      -2.2210      1.00000
    126      -2.2123      1.00000
    127      -2.2083      1.00000
    128      -2.1989      1.00000
    129      -2.1550      1.00000
    130      -2.1525      1.00000
    131      -2.1514      1.00000
    132      -2.1483      1.00000
    133      -2.1466      1.00000
    134      -2.1408      1.00000
    135      -2.1309      1.00000
    136      -2.1137      1.00000
    137      -2.0817      1.00000
    138      -2.0771      1.00000
    139      -2.0734      1.00000
    140      -2.0713      1.00000
    141      -2.0688      1.00000
    142      -2.0576      1.00000
    143      -2.0382      1.00000
    144      -2.0360      1.00000
    145      -2.0227      1.00000
    146      -2.0202      1.00000
    147      -2.0166      1.00000
    148      -2.0127      1.00000
    149      -2.0090      1.00000
    150      -1.9884      1.00000
    151      -1.9825      1.00000
    152      -1.9494      1.00000
    153      -1.9120      1.00000
    154      -1.9060      1.00000
    155      -1.8808      1.00000
    156      -1.8799      1.00000
    157      -1.8780      1.00000
    158      -1.8735      1.00000
    159      -1.8690      1.00000
    160      -1.8600      1.00000
    161      -1.8579      1.00000
    162      -1.8540      1.00000
    163      -1.8524      1.00000
    164      -1.8438      1.00000
    165      -1.8292      1.00000
    166      -1.8226      1.00000
    167      -1.8134      1.00000
    168      -1.7967      1.00000
    169      -1.7918      1.00000
    170      -1.7697      1.00000
    171      -1.7650      1.00000
    172      -1.7616      1.00000
    173      -1.7410      1.00000
    174      -1.7262      1.00000
    175      -1.7198      1.00000
    176      -1.7076      1.00000
    177      -1.6990      1.00000
    178      -1.6955      1.00000
    179      -1.6857      1.00000
    180      -1.6818      1.00000
    181      -1.6760      1.00000
    182      -1.6570      1.00000
    183      -1.6377      1.00000
    184      -1.6370      1.00000
    185      -1.6328      1.00000
    186      -1.6279      1.00000
    187      -1.6121      1.00000
    188      -1.6041      1.00000
    189      -1.5924      1.00000
    190      -1.5613      1.00000
    191      -1.5578      1.00000
    192      -1.5488      1.00000
    193      -1.5475      1.00000
    194      -1.5425      1.00000
    195      -1.5388      1.00000
    196      -1.5345      1.00000
    197      -1.5319      1.00000
    198      -1.5050      1.00000
    199      -1.4982      1.00000
    200      -1.4784      1.00000
    201      -1.4744      1.00000
    202      -1.4726      1.00000
    203      -1.4655      1.00000
    204      -1.4576      1.00000
    205      -1.4550      1.00000
    206      -1.4391      1.00000
    207      -1.4292      1.00000
    208      -1.4266      1.00000
    209      -1.4207      1.00000
    210      -1.4166      1.00000
    211      -1.4085      1.00000
    212      -1.3772      1.00000
    213      -1.3646      1.00000
    214      -1.3611      1.00000
    215      -1.3578      1.00000
    216      -1.3531      1.00000
    217      -1.3495      1.00000
    218      -1.3473      1.00000
    219      -1.3405      1.00000
    220      -1.3274      1.00000
    221      -1.3258      1.00000
    222      -1.3245      1.00000
    223      -1.3172      1.00000
    224      -1.3115      1.00000
    225      -1.2867      1.00000
    226      -1.2831      1.00000
    227      -1.2503      1.00000
    228      -1.2464      1.00000
    229      -1.2416      1.00000
    230      -1.2359      1.00000
    231      -1.2164      1.00000
    232      -1.2083      1.00000
    233      -1.1806      1.00000
    234      -1.1776      1.00000
    235      -1.1555      1.00000
    236      -1.1363      1.00000
    237      -1.1352      1.00000
    238      -1.1290      1.00000
    239      -1.1185      1.00000
    240      -1.1146      1.00000
    241      -1.1138      1.00000
    242      -1.1104      1.00000
    243      -1.1079      1.00000
    244      -1.0946      1.00000
    245      -1.0922      1.00000
    246      -1.0864      1.00000
    247      -1.0799      1.00000
    248      -1.0795      1.00000
    249      -1.0792      1.00000
    250      -1.0736      1.00000
    251      -1.0689      1.00000
    252      -1.0506      1.00000
    253      -1.0453      1.00000
    254      -1.0452      1.00000
    255      -1.0410      1.00000
    256      -1.0374      1.00000
    257      -1.0323      1.00000
    258      -1.0244      1.00000
    259      -1.0202      1.00000
    260      -1.0177      1.00000
    261      -1.0052      1.00000
    262      -0.9917      1.00000
    263      -0.9889      1.00000
    264      -0.9871      1.00000
    265      -0.9671      1.00000
    266      -0.9644      1.00000
    267      -0.9572      1.00000
    268      -0.9561      1.00000
    269      -0.9506      1.00000
    270      -0.9402      1.00000
    271      -0.9381      1.00000
    272      -0.9370      1.00000
    273      -0.9332      1.00000
    274      -0.9327      1.00000
    275      -0.9305      1.00000
    276      -0.9297      1.00000
    277      -0.9292      1.00000
    278      -0.9277      1.00000
    279      -0.9257      1.00000
    280      -0.9083      1.00000
    281      -0.8943      1.00000
    282      -0.8882      1.00000
    283      -0.8859      1.00000
    284      -0.8818      1.00000
    285      -0.8725      1.00000
    286      -0.8693      1.00000
    287      -0.8655      1.00000
    288      -0.8617      1.00000
    289      -0.8550      1.00000
    290      -0.8537      1.00000
    291      -0.8518      1.00000
    292      -0.8462      1.00000
    293      -0.8417      1.00000
    294      -0.8396      1.00000
    295      -0.8391      1.00000
    296      -0.8365      1.00000
    297      -0.8325      1.00000
    298      -0.8282      1.00000
    299      -0.8262      1.00000
    300      -0.8257      1.00000
    301      -0.8236      1.00000
    302      -0.8199      1.00000
    303      -0.8181      1.00000
    304      -0.8150      1.00000
    305      -0.8124      1.00000
    306      -0.8101      1.00000
    307      -0.8078      1.00000
    308      -0.8063      1.00000
    309      -0.7877      1.00000
    310      -0.7832      1.00000
    311      -0.7747      1.00000
    312      -0.7673      1.00000
    313      -0.7499      1.00000
    314      -0.7482      1.00000
    315      -0.7469      1.00000
    316      -0.7301      1.00000
    317      -0.7243      1.00000
    318      -0.7182      1.00000
    319      -0.7105      1.00000
    320      -0.7025      1.00000
    321      -0.7019      1.00000
    322      -0.6997      1.00000
    323      -0.6941      1.00000
    324      -0.6905      1.00000
    325      -0.6876      1.00000
    326      -0.6858      1.00000
    327      -0.6835      1.00000
    328      -0.6757      1.00000
    329      -0.6745      1.00000
    330      -0.6705      1.00000
    331      -0.6688      1.00000
    332      -0.6637      1.00000
    333      -0.6600      1.00000
    334      -0.6587      1.00000
    335      -0.6554      1.00000
    336      -0.6536      1.00000
    337      -0.6500      1.00000
    338      -0.6480      1.00000
    339      -0.6453      1.00000
    340      -0.6435      1.00000
    341      -0.6416      1.00000
    342      -0.6384      1.00000
    343      -0.6347      1.00000
    344      -0.6316      1.00000
    345      -0.6294      1.00000
    346      -0.6268      1.00000
    347      -0.6140      1.00000
    348      -0.6090      1.00000
    349      -0.6004      1.00000
    350      -0.5987      1.00000
    351      -0.5960      1.00000
    352      -0.5938      1.00000
    353      -0.5923      1.00000
    354      -0.5876      1.00000
    355      -0.5814      1.00000
    356      -0.5802      1.00000
    357      -0.5756      1.00000
    358      -0.5691      1.00000
    359      -0.5656      1.00000
    360      -0.5502      1.00000
    361      -0.5434      1.00000
    362      -0.5333      1.00000
    363      -0.5230      1.00000
    364      -0.5126      1.00000
    365      -0.5007      1.00000
    366      -0.4854      1.00000
    367      -0.4800      1.00000
    368      -0.4744      1.00000
    369      -0.4697      1.00000
    370      -0.4648      1.00000
    371      -0.4610      1.00000
    372      -0.4594      1.00000
    373      -0.4529      1.00000
    374      -0.4500      1.00000
    375      -0.4456      1.00000
    376      -0.4416      1.00000
    377      -0.4381      1.00000
    378      -0.4360      1.00000
    379      -0.4294      1.00000
    380      -0.4234      1.00000
    381      -0.4215      1.00000
    382      -0.4165      1.00000
    383      -0.3837      1.00000
    384      -0.3700      1.00000
    385      -0.3679      1.00000
    386      -0.3541      1.00000
    387      -0.3445      1.00000
    388      -0.3390      1.00000
    389      -0.3351      1.00000
    390      -0.3302      1.00000
    391      -0.3244      1.00000
    392      -0.3147      1.00000
    393      -0.3047      1.00000
    394      -0.2964      1.00000
    395      -0.2943      1.00000
    396      -0.2889      1.00000
    397      -0.2550      1.00000
    398      -0.2502      1.00000
    399      -0.2486      1.00000
    400      -0.2401      1.00000
    401      -0.2370      1.00000
    402      -0.2341      1.00000
    403      -0.2298      1.00000
    404      -0.2223      1.00000
    405      -0.2146      1.00000
    406      -0.2095      1.00000
    407      -0.2050      1.00000
    408      -0.1981      1.00000
    409      -0.1960      1.00000
    410      -0.1946      1.00000
    411      -0.1865      1.00000
    412      -0.1819      1.00000
    413      -0.1729      1.00000
    414      -0.1392      1.00000
    415      -0.1101      1.00000
    416      -0.0962      1.00000
    417      -0.0833      1.00000
    418      -0.0787      1.00000
    419      -0.0764      1.00000
    420      -0.0684      1.00000
    421      -0.0652      1.00000
    422      -0.0615      1.00000
    423      -0.0493      1.00000
    424      -0.0423      1.00000
    425      -0.0385      1.00000
    426      -0.0349      1.00000
    427      -0.0329      1.00000
    428      -0.0296      1.00000
    429      -0.0240      1.00000
    430      -0.0228      1.00000
    431      -0.0206      1.00000
    432      -0.0176      1.00000
    433      -0.0144      1.00000
    434      -0.0124      1.00000
    435      -0.0094      1.00000
    436      -0.0071      1.00000
    437       0.0033      1.00000
    438       0.0083      1.00000
    439       0.0106      1.00000
    440       0.0165      1.00000
    441       0.0183      1.00000
    442       0.0356      1.00000
    443       0.0423      1.00000
    444       0.0500      1.00000
    445       0.0581      1.00000
    446       0.0608      1.00000
    447       0.0619      1.00000
    448       0.0671      1.00000
    449       0.0784      1.00000
    450       0.0849      1.00000
    451       0.0963      1.00000
    452       0.1121      1.00000
    453       0.1126      1.00000
    454       0.1162      1.00000
    455       0.1167      1.00000
    456       0.1251      1.00000
    457       0.1264      1.00000
    458       0.1387      1.00000
    459       0.1395      1.00000
    460       0.1408      1.00000
    461       0.1452      1.00000
    462       0.1483      1.00000
    463       0.1541      1.00000
    464       0.1559      1.00000
    465       0.1622      1.00000
    466       0.1655      1.00000
    467       0.1682      1.00000
    468       0.1720      1.00000
    469       0.1769      1.00000
    470       0.1780      1.00000
    471       0.1833      1.00000
    472       0.1854      1.00000
    473       0.1895      1.00000
    474       0.1995      1.00000
    475       0.2063      1.00000
    476       0.2154      1.00000
    477       0.2225      1.00000
    478       0.2237      1.00000
    479       0.2262      1.00000
    480       0.2417      1.00000
    481       0.2465      1.00000
    482       0.2567      1.00000
    483       0.2632      1.00000
    484       0.2790      1.00000
    485       0.2964      1.00000
    486       0.3036      1.00000
    487       0.3121      1.00000
    488       0.3152      1.00000
    489       0.3173      1.00000
    490       0.3198      1.00000
    491       0.3265      1.00000
    492       0.3291      1.00000
    493       0.3363      1.00000
    494       0.3450      1.00000
    495       0.3500      1.00000
    496       0.3591      1.00000
    497       0.3643      1.00000
    498       0.3820      1.00000
    499       0.3864      1.00000
    500       0.3925      1.00000
    501       0.4001      1.00000
    502       0.4067      1.00000
    503       0.4191      1.00000
    504       0.4209      1.00000
    505       0.4247      1.00000
    506       0.4273      1.00000
    507       0.4328      1.00000
    508       0.4364      1.00000
    509       0.4409      1.00000
    510       0.4475      1.00000
    511       0.4644      1.00000
    512       0.4671      1.00000
    513       0.4717      1.00000
    514       0.4768      1.00000
    515       0.4868      1.00000
    516       0.4921      1.00000
    517       0.4944      1.00000
    518       0.5053      1.00000
    519       0.5082      1.00000
    520       0.5114      1.00000
    521       0.5174      1.00000
    522       0.5183      1.00000
    523       0.5216      1.00000
    524       0.5229      1.00000
    525       0.5245      1.00000
    526       0.5304      1.00000
    527       0.5320      1.00000
    528       0.5355      1.00000
    529       0.5405      1.00000
    530       0.5484      1.00000
    531       0.5588      1.00000
    532       0.5617      1.00000
    533       0.5724      1.00000
    534       0.5823      1.00000
    535       0.5837      1.00000
    536       0.5863      1.00000
    537       0.5912      1.00000
    538       0.6027      1.00000
    539       0.6083      1.00000
    540       0.6124      1.00000
    541       0.6149      1.00000
    542       0.6181      1.00000
    543       0.6237      1.00000
    544       0.6264      1.00000
    545       0.6301      1.00000
    546       0.6468      1.00000
    547       0.6521      1.00000
    548       0.6596      1.00000
    549       0.6637      1.00000
    550       0.6745      1.00000
    551       0.6868      1.00000
    552       0.6947      1.00000
    553       0.6987      1.00000
    554       0.7019      1.00000
    555       0.7040      1.00000
    556       0.7042      1.00000
    557       0.7089      1.00000
    558       0.7220      1.00000
    559       0.7361      1.00000
    560       0.7423      1.00000
    561       0.7657      1.00000
    562       0.7900      1.00000
    563       0.8060      1.00000
    564       0.8067      1.00000
    565       0.8112      1.00000
    566       0.8147      1.00000
    567       0.8267      1.00000
    568       0.8367      1.00000
    569       0.8491      1.00000
    570       0.8539      1.00000
    571       0.8595      1.00000
    572       0.8645      1.00000
    573       0.8692      1.00000
    574       0.8702      1.00000
    575       0.8733      1.00000
    576       0.8772      1.00000
    577       0.8937      1.00000
    578       0.8985      1.00000
    579       0.8993      1.00000
    580       0.9045      1.00000
    581       0.9062      1.00000
    582       0.9081      1.00000
    583       0.9127      1.00000
    584       0.9183      1.00000
    585       0.9215      1.00000
    586       0.9253      1.00000
    587       0.9264      1.00000
    588       0.9352      1.00000
    589       0.9406      1.00000
    590       0.9460      1.00000
    591       0.9472      1.00000
    592       0.9505      1.00000
    593       0.9515      1.00000
    594       0.9613      1.00000
    595       0.9669      1.00000
    596       0.9742      1.00000
    597       0.9775      1.00000
    598       0.9814      1.00000
    599       1.0033      1.00000
    600       1.0195      1.00000
    601       1.0214      1.00000
    602       1.0229      1.00000
    603       1.0265      1.00000
    604       1.0336      1.00000
    605       1.0377      1.00000
    606       1.0472      1.00000
    607       1.0493      1.00000
    608       1.0497      1.00000
    609       1.0573      1.00000
    610       1.0618      1.00000
    611       1.0633      1.00000
    612       1.0683      0.99999
    613       1.0714      0.99999
    614       1.0723      0.99999
    615       1.0831      0.99999
    616       1.0946      0.99999
    617       1.1154      0.99998
    618       1.1429      0.99995
    619       1.1532      0.99993
    620       1.1584      0.99992
    621       1.1594      0.99992
    622       1.1632      0.99991
    623       1.1920      0.99981
    624       1.1999      0.99977
    625       1.2033      0.99975
    626       1.2060      0.99973
    627       1.2063      0.99973
    628       1.2072      0.99972
    629       1.2115      0.99969
    630       1.2212      0.99962
    631       1.2328      0.99951
    632       1.2440      0.99938
    633       1.2527      0.99926
    634       1.2719      0.99892
    635       1.3069      0.99804
    636       1.3762      0.99560
    637       1.4354      0.99587
    638       1.4473      0.99680
    639       1.4611      0.99848
    640       1.6062      1.05037
    641       1.6219      1.05154
    642       1.6366      1.04860
    643       1.6955      0.97677
    644       1.7735      0.69059
    645       1.8474      0.30992
    646       1.9159      0.04656
    647       2.0232     -0.04838
    648       2.0630     -0.03185
    649       2.2056      0.00487
    650       2.2292      0.00479
    651       2.2379      0.00460
    652       2.3106      0.00207
    653       2.3716      0.00070
    654       2.5337      0.00001
    655       2.5892      0.00000
    656       2.8429      0.00000
    657       2.8478      0.00000
    658       2.8521      0.00000
    659       2.8585      0.00000
    660       2.8764      0.00000
    661       2.8776      0.00000
    662       2.8934      0.00000
    663       2.9037      0.00000
    664       2.9617      0.00000
    665       3.0124      0.00000
    666       3.2086      0.00000
    667       3.2142      0.00000
    668       3.2182      0.00000
    669       3.2231      0.00000
    670       3.2279      0.00000
    671       3.2480      0.00000
    672       3.2797      0.00000
    673       3.2963      0.00000
    674       3.3639      0.00000
    675       3.3906      0.00000
    676       3.5304      0.00000
    677       3.6779      0.00000
    678       3.7211      0.00000
    679       4.0281      0.00000
    680       4.0293      0.00000
    681       4.0341      0.00000
    682       4.0451      0.00000
    683       4.0471      0.00000
    684       4.0501      0.00000
    685       4.0609      0.00000
    686       4.0784      0.00000
    687       4.1183      0.00000
    688       4.1269      0.00000
    689       4.1331      0.00000
    690       4.1409      0.00000
    691       4.2317      0.00000
    692       4.2601      0.00000
    693       4.3477      0.00000
    694       4.4147      0.00000
    695       4.4276      0.00000
    696       4.4323      0.00000
    697       4.4783      0.00000
    698       4.4889      0.00000
    699       4.6273      0.00000
    700       4.6417      0.00000
    701       4.7793      0.00000
    702       4.9236      0.00000
    703       4.9576      0.00000
    704       5.0565      0.00000
    705       5.0962      0.00000
    706       5.1419      0.00000
    707       5.2130      0.00000
    708       5.3855      0.00000
    709       5.4025      0.00000
    710       5.4947      0.00000
    711       5.4965      0.00000
    712       5.5541      0.00000
    713       5.5868      0.00000
    714       5.6529      0.00000
    715       5.6673      0.00000
    716       5.7969      0.00000
    717       5.9024      0.00000
    718       6.0234      0.00000
    719       6.0607      0.00000
    720       6.1954      0.00000
    721       6.4111      0.00000
    722       6.4830      0.00000
    723       6.6880      0.00000
    724       6.7587      0.00000
    725       6.8024      0.00000
    726       6.9794      0.00000
    727       7.0179      0.00000
    728       7.1040      0.00000
    729       7.1057      0.00000
    730       7.1850      0.00000
    731       7.2087      0.00000
    732       7.2759      0.00000
    733       7.3119      0.00000
    734       7.3668      0.00000
    735       7.4497      0.00000
    736       7.5912      0.00000

 spin component 2

 k-point   1 :       0.0000    0.0000    0.0000
  band No.  band energies     occupation 
      1     -16.7305      1.00000
      2      -6.8726      1.00000
      3      -5.9738      1.00000
      4      -5.9374      1.00000
      5      -5.9214      1.00000
      6      -5.2700      1.00000
      7      -5.2625      1.00000
      8      -5.0877      1.00000
      9      -5.0651      1.00000
     10      -4.8585      1.00000
     11      -4.8533      1.00000
     12      -4.5716      1.00000
     13      -4.4707      1.00000
     14      -4.4497      1.00000
     15      -4.1134      1.00000
     16      -4.0884      1.00000
     17      -4.0846      1.00000
     18      -4.0762      1.00000
     19      -3.7848      1.00000
     20      -3.7454      1.00000
     21      -3.6237      1.00000
     22      -3.6062      1.00000
     23      -3.4817      1.00000
     24      -3.4203      1.00000
     25      -3.3114      1.00000
     26      -3.2624      1.00000
     27      -3.2301      1.00000
     28      -3.2093      1.00000
     29      -3.0936      1.00000
     30      -3.0626      1.00000
     31      -3.0523      1.00000
     32      -3.0168      1.00000
     33      -2.9552      1.00000
     34      -2.8960      1.00000
     35      -2.7972      1.00000
     36      -2.7389      1.00000
     37      -2.5810      1.00000
     38      -2.5431      1.00000
     39      -2.5158      1.00000
     40      -2.4392      1.00000
     41      -2.4374      1.00000
     42      -2.3906      1.00000
     43      -2.3463      1.00000
     44      -2.2990      1.00000
     45      -2.2924      1.00000
     46      -2.2820      1.00000
     47      -2.2734      1.00000
     48      -2.2275      1.00000
     49      -2.1477      1.00000
     50      -2.1449      1.00000
     51      -2.1435      1.00000
     52      -2.0971      1.00000
     53      -2.0933      1.00000
     54      -2.0774      1.00000
     55      -2.0767      1.00000
     56      -2.0146      1.00000
     57      -2.0113      1.00000
     58      -1.9674      1.00000
     59      -1.9525      1.00000
     60      -1.9325      1.00000
     61      -1.9110      1.00000
     62      -1.9097      1.00000
     63      -1.8964      1.00000
     64      -1.8960      1.00000
     65      -1.8945      1.00000
     66      -1.8872      1.00000
     67      -1.8858      1.00000
     68      -1.8840      1.00000
     69      -1.8717      1.00000
     70      -1.8660      1.00000
     71      -1.7963      1.00000
     72      -1.7808      1.00000
     73      -1.7762      1.00000
     74      -1.7623      1.00000
     75      -1.6894      1.00000
     76      -1.6867      1.00000
     77      -1.6796      1.00000
     78      -1.6783      1.00000
     79      -1.6472      1.00000
     80      -1.6096      1.00000
     81      -1.6008      1.00000
     82      -1.5789      1.00000
     83      -1.5516      1.00000
     84      -1.5186      1.00000
     85      -1.5053      1.00000
     86      -1.4651      1.00000
     87      -1.4618      1.00000
     88      -1.4566      1.00000
     89      -1.4494      1.00000
     90      -1.4381      1.00000
     91      -1.4318      1.00000
     92      -1.4311      1.00000
     93      -1.4119      1.00000
     94      -1.4112      1.00000
     95      -1.3864      1.00000
     96      -1.3792      1.00000
     97      -1.3691      1.00000
     98      -1.3655      1.00000
     99      -1.3555      1.00000
    100      -1.3395      1.00000
    101      -1.3358      1.00000
    102      -1.3202      1.00000
    103      -1.3143      1.00000
    104      -1.3057      1.00000
    105      -1.2979      1.00000
    106      -1.2790      1.00000
    107      -1.2737      1.00000
    108      -1.2607      1.00000
    109      -1.2539      1.00000
    110      -1.2379      1.00000
    111      -1.2119      1.00000
    112      -1.1738      1.00000
    113      -1.1709      1.00000
    114      -1.1225      1.00000
    115      -1.1055      1.00000
    116      -1.1014      1.00000
    117      -1.0985      1.00000
    118      -1.0955      1.00000
    119      -1.0873      1.00000
    120      -1.0770      1.00000
    121      -1.0683      1.00000
    122      -1.0660      1.00000
    123      -1.0618      1.00000
    124      -1.0239      1.00000
    125      -1.0115      1.00000
    126      -1.0024      1.00000
    127      -0.9872      1.00000
    128      -0.9704      1.00000
    129      -0.8867      1.00000
    130      -0.8816      1.00000
    131      -0.8712      1.00000
    132      -0.8694      1.00000
    133      -0.8672      1.00000
    134      -0.8636      1.00000
    135      -0.8548      1.00000
    136      -0.8419      1.00000
    137      -0.8348      1.00000
    138      -0.8235      1.00000
    139      -0.8171      1.00000
    140      -0.8155      1.00000
    141      -0.7994      1.00000
    142      -0.7934      1.00000
    143      -0.7588      1.00000
    144      -0.7575      1.00000
    145      -0.7517      1.00000
    146      -0.7407      1.00000
    147      -0.7298      1.00000
    148      -0.7228      1.00000
    149      -0.7223      1.00000
    150      -0.6843      1.00000
    151      -0.6475      1.00000
    152      -0.6444      1.00000
    153      -0.6402      1.00000
    154      -0.6366      1.00000
    155      -0.6156      1.00000
    156      -0.6085      1.00000
    157      -0.6023      1.00000
    158      -0.5941      1.00000
    159      -0.5779      1.00000
    160      -0.5632      1.00000
    161      -0.5576      1.00000
    162      -0.5251      1.00000
    163      -0.5175      1.00000
    164      -0.5093      1.00000
    165      -0.5050      1.00000
    166      -0.4903      1.00000
    167      -0.4875      1.00000
    168      -0.4704      1.00000
    169      -0.4655      1.00000
    170      -0.4575      1.00000
    171      -0.4554      1.00000
    172      -0.4532      1.00000
    173      -0.4253      1.00000
    174      -0.4009      1.00000
    175      -0.4001      1.00000
    176      -0.3935      1.00000
    177      -0.3786      1.00000
    178      -0.3661      1.00000
    179      -0.3554      1.00000
    180      -0.3509      1.00000
    181      -0.3428      1.00000
    182      -0.2990      1.00000
    183      -0.2949      1.00000
    184      -0.2862      1.00000
    185      -0.2849      1.00000
    186      -0.2805      1.00000
    187      -0.2742      1.00000
    188      -0.2600      1.00000
    189      -0.2540      1.00000
    190      -0.2281      1.00000
    191      -0.2243      1.00000
    192      -0.2214      1.00000
    193      -0.2177      1.00000
    194      -0.1634      1.00000
    195      -0.1590      1.00000
    196      -0.1501      1.00000
    197      -0.1441      1.00000
    198      -0.1394      1.00000
    199      -0.1368      1.00000
    200      -0.1354      1.00000
    201      -0.1283      1.00000
    202      -0.0814      1.00000
    203      -0.0765      1.00000
    204      -0.0540      1.00000
    205      -0.0485      1.00000
    206      -0.0412      1.00000
    207      -0.0343      1.00000
    208      -0.0233      1.00000
    209      -0.0179      1.00000
    210      -0.0109      1.00000
    211      -0.0060      1.00000
    212       0.0069      1.00000
    213       0.0198      1.00000
    214       0.0428      1.00000
    215       0.0477      1.00000
    216       0.0785      1.00000
    217       0.0837      1.00000
    218       0.1254      1.00000
    219       0.1276      1.00000
    220       0.1312      1.00000
    221       0.1342      1.00000
    222       0.1374      1.00000
    223       0.1437      1.00000
    224       0.1481      1.00000
    225       0.1487      1.00000
    226       0.1523      1.00000
    227       0.2004      1.00000
    228       0.2082      1.00000
    229       0.2178      1.00000
    230       0.2222      1.00000
    231       0.2230      1.00000
    232       0.2241      1.00000
    233       0.2307      1.00000
    234       0.2325      1.00000
    235       0.2337      1.00000
    236       0.2380      1.00000
    237       0.2412      1.00000
    238       0.2462      1.00000
    239       0.2598      1.00000
    240       0.2645      1.00000
    241       0.2656      1.00000
    242       0.2759      1.00000
    243       0.2778      1.00000
    244       0.2895      1.00000
    245       0.3200      1.00000
    246       0.3288      1.00000
    247       0.3344      1.00000
    248       0.3376      1.00000
    249       0.3418      1.00000
    250       0.3480      1.00000
    251       0.3575      1.00000
    252       0.3665      1.00000
    253       0.3773      1.00000
    254       0.3855      1.00000
    255       0.4071      1.00000
    256       0.4254      1.00000
    257       0.4316      1.00000
    258       0.4403      1.00000
    259       0.4443      1.00000
    260       0.4501      1.00000
    261       0.4702      1.00000
    262       0.4741      1.00000
    263       0.4882      1.00000
    264       0.4897      1.00000
    265       0.4939      1.00000
    266       0.5053      1.00000
    267       0.5113      1.00000
    268       0.5270      1.00000
    269       0.5328      1.00000
    270       0.5357      1.00000
    271       0.5374      1.00000
    272       0.5384      1.00000
    273       0.5430      1.00000
    274       0.5502      1.00000
    275       0.5555      1.00000
    276       0.5592      1.00000
    277       0.5620      1.00000
    278       0.5661      1.00000
    279       0.5689      1.00000
    280       0.5742      1.00000
    281       0.5779      1.00000
    282       0.5841      1.00000
    283       0.6004      1.00000
    284       0.6025      1.00000
    285       0.6117      1.00000
    286       0.6378      1.00000
    287       0.6481      1.00000
    288       0.6547      1.00000
    289       0.6644      1.00000
    290       0.6770      1.00000
    291       0.6849      1.00000
    292       0.6910      1.00000
    293       0.6961      1.00000
    294       0.7068      1.00000
    295       0.7166      1.00000
    296       0.7229      1.00000
    297       0.7235      1.00000
    298       0.7299      1.00000
    299       0.7353      1.00000
    300       0.7375      1.00000
    301       0.7426      1.00000
    302       0.7452      1.00000
    303       0.7552      1.00000
    304       0.7657      1.00000
    305       0.7705      1.00000
    306       0.7781      1.00000
    307       0.7849      1.00000
    308       0.7887      1.00000
    309       0.7894      1.00000
    310       0.7943      1.00000
    311       0.8008      1.00000
    312       0.8042      1.00000
    313       0.8049      1.00000
    314       0.8060      1.00000
    315       0.8150      1.00000
    316       0.8168      1.00000
    317       0.8208      1.00000
    318       0.8256      1.00000
    319       0.8280      1.00000
    320       0.8414      1.00000
    321       0.8454      1.00000
    322       0.8509      1.00000
    323       0.8531      1.00000
    324       0.8549      1.00000
    325       0.8577      1.00000
    326       0.8613      1.00000
    327       0.8646      1.00000
    328       0.8670      1.00000
    329       0.8705      1.00000
    330       0.8775      1.00000
    331       0.8824      1.00000
    332       0.8881      1.00000
    333       0.8935      1.00000
    334       0.9264      1.00000
    335       0.9457      1.00000
    336       0.9619      1.00000
    337       0.9655      1.00000
    338       0.9694      1.00000
    339       0.9716      1.00000
    340       0.9741      1.00000
    341       0.9769      1.00000
    342       0.9780      1.00000
    343       0.9825      1.00000
    344       0.9860      1.00000
    345       0.9945      1.00000
    346       0.9951      1.00000
    347       0.9981      1.00000
    348       1.0066      1.00000
    349       1.0095      1.00000
    350       1.0106      1.00000
    351       1.0143      1.00000
    352       1.0185      1.00000
    353       1.0317      1.00000
    354       1.0340      1.00000
    355       1.0366      1.00000
    356       1.0384      1.00000
    357       1.0426      1.00000
    358       1.0509      1.00000
    359       1.0550      1.00000
    360       1.0564      1.00000
    361       1.0601      1.00000
    362       1.0639      1.00000
    363       1.0656      0.99999
    364       1.0678      0.99999
    365       1.0742      0.99999
    366       1.0835      0.99999
    367       1.0865      0.99999
    368       1.1089      0.99998
    369       1.1155      0.99998
    370       1.1297      0.99996
    371       1.1538      0.99993
    372       1.1607      0.99991
    373       1.1654      0.99990
    374       1.1728      0.99988
    375       1.1807      0.99986
    376       1.1897      0.99982
    377       1.1915      0.99981
    378       1.1964      0.99979
    379       1.2074      0.99972
    380       1.2174      0.99965
    381       1.2295      0.99954
    382       1.2390      0.99944
    383       1.2460      0.99935
    384       1.2611      0.99912
    385       1.2782      0.99879
    386       1.2955      0.99836
    387       1.3013      0.99820
    388       1.3094      0.99796
    389       1.3239      0.99748
    390       1.3335      0.99714
    391       1.3350      0.99708
    392       1.3385      0.99695
    393       1.3538      0.99638
    394       1.3603      0.99614
    395       1.3706      0.99578
    396       1.3713      0.99575
    397       1.3780      0.99555
    398       1.3834      0.99540
    399       1.3869      0.99531
    400       1.3895      0.99525
    401       1.3931      0.99519
    402       1.3984      0.99511
    403       1.4193      0.99520
    404       1.4329      0.99572
    405       1.4545      0.99759
    406       1.4618      0.99857
    407       1.4865      1.00351
    408       1.4915      1.00483
    409       1.4964      1.00625
    410       1.5083      1.01011
    411       1.5124      1.01162
    412       1.5146      1.01246
    413       1.5354      1.02115
    414       1.5395      1.02304
    415       1.5423      1.02431
    416       1.5542      1.03000
    417       1.5585      1.03210
    418       1.5667      1.03598
    419       1.5682      1.03669
    420       1.5872      1.04485
    421       1.5918      1.04648
    422       1.6022      1.04952
    423       1.6382      1.04800
    424       1.6415      1.04657
    425       1.6463      1.04398
    426       1.6619      1.03127
    427       1.6932      0.98177
    428       1.6977      0.97166
    429       1.7345      0.86028
    430       1.7446      0.82104
    431       1.7463      0.81389
    432       1.7480      0.80684
    433       1.7636      0.73772
    434       1.7693      0.71096
    435       1.7828      0.64449
    436       1.7903      0.60607
    437       1.7940      0.58712
    438       1.7956      0.57886
    439       1.8018      0.54619
    440       1.8087      0.50992
    441       1.8117      0.49406
    442       1.8167      0.46716
    443       1.8249      0.42446
    444       1.8266      0.41536
    445       1.8286      0.40480
    446       1.8332      0.38102
    447       1.8364      0.36481
    448       1.8381      0.35653
    449       1.8391      0.35134
    450       1.8403      0.34508
    451       1.8427      0.33304
    452       1.8522      0.28691
    453       1.8532      0.28208
    454       1.8568      0.26499
    455       1.8608      0.24684
    456       1.8840      0.14935
    457       1.8902      0.12653
    458       1.9126      0.05553
    459       1.9214      0.03300
    460       1.9300      0.01367
    461       1.9341      0.00564
    462       1.9397     -0.00458
    463       1.9486     -0.01827
    464       1.9553     -0.02696
    465       1.9787     -0.04614
    466       1.9823     -0.04779
    467       1.9933     -0.05091
    468       2.0079     -0.05137
    469       2.0341     -0.04475
    470       2.0352     -0.04434
    471       2.0411     -0.04192
    472       2.0460     -0.03982
    473       2.0555     -0.03546
    474       2.0595     -0.03356
    475       2.0675     -0.02971
    476       2.0741     -0.02656
    477       2.0920     -0.01835
    478       2.0925     -0.01811
    479       2.0985     -0.01558
    480       2.1015     -0.01437
    481       2.1029     -0.01383
    482       2.1084     -0.01169
    483       2.1094     -0.01133
    484       2.1132     -0.00998
    485       2.1199     -0.00771
    486       2.1306     -0.00454
    487       2.1332     -0.00387
    488       2.1688      0.00268
    489       2.1712      0.00294
    490       2.1821      0.00390
    491       2.1851      0.00410
    492       2.2057      0.00487
    493       2.2103      0.00492
    494       2.2124      0.00493
    495       2.2170      0.00493
    496       2.2189      0.00492
    497       2.2235      0.00488
    498       2.2261      0.00484
    499       2.2317      0.00474
    500       2.2352      0.00466
    501       2.2404      0.00453
    502       2.2440      0.00443
    503       2.2493      0.00426
    504       2.2506      0.00422
    505       2.2599      0.00389
    506       2.2765      0.00328
    507       2.2815      0.00309
    508       2.2847      0.00297
    509       2.2925      0.00268
    510       2.2933      0.00266
    511       2.2958      0.00257
    512       2.3006      0.00240
    513       2.3024      0.00234
    514       2.3078      0.00216
    515       2.3123      0.00202
    516       2.3212      0.00175
    517       2.3299      0.00152
    518       2.3381      0.00132
    519       2.3407      0.00126
    520       2.3549      0.00097
    521       2.3578      0.00092
    522       2.3669      0.00077
    523       2.3677      0.00075
    524       2.3754      0.00064
    525       2.3780      0.00061
    526       2.3850      0.00053
    527       2.3908      0.00046
    528       2.3992      0.00039
    529       2.4066      0.00033
    530       2.4155      0.00027
    531       2.4179      0.00025
    532       2.4242      0.00022
    533       2.4307      0.00018
    534       2.4370      0.00016
    535       2.4400      0.00015
    536       2.4438      0.00013
    537       2.4501      0.00011
    538       2.4693      0.00007
    539       2.4710      0.00006
    540       2.4798      0.00005
    541       2.4844      0.00004
    542       2.4981      0.00003
    543       2.5015      0.00003
    544       2.5105      0.00002
    545       2.5127      0.00002
    546       2.5171      0.00002
    547       2.5177      0.00002
    548       2.5208      0.00002
    549       2.5270      0.00001
    550       2.5278      0.00001
    551       2.5364      0.00001
    552       2.5562      0.00001
    553       2.5573      0.00000
    554       2.5763      0.00000
    555       2.5849      0.00000
    556       2.6134      0.00000
    557       2.6221      0.00000
    558       2.6319      0.00000
    559       2.6425      0.00000
    560       2.6532      0.00000
    561       2.6576      0.00000
    562       2.6606      0.00000
    563       2.6684      0.00000
    564       2.6770      0.00000
    565       2.6817      0.00000
    566       2.6847      0.00000
    567       2.6899      0.00000
    568       2.6922      0.00000
    569       2.6930      0.00000
    570       2.7080      0.00000
    571       2.7148      0.00000
    572       2.7492      0.00000
    573       2.7584      0.00000
    574       2.7637      0.00000
    575       2.7696      0.00000
    576       2.7736      0.00000
    577       2.7824      0.00000
    578       2.7941      0.00000
    579       2.7992      0.00000
    580       2.8035      0.00000
    581       2.8050      0.00000
    582       2.8187      0.00000
    583       2.8239      0.00000
    584       2.8285      0.00000
    585       2.8318      0.00000
    586       2.8358      0.00000
    587       2.8376      0.00000
    588       2.8392      0.00000
    589       2.8437      0.00000
    590       2.8456      0.00000
    591       2.8472      0.00000
    592       2.8479      0.00000
    593       2.8482      0.00000
    594       2.8503      0.00000
    595       2.8567      0.00000
    596       2.8605      0.00000
    597       2.8642      0.00000
    598       2.8673      0.00000
    599       2.8738      0.00000
    600       2.8765      0.00000
    601       2.8779      0.00000
    602       2.8808      0.00000
    603       2.8850      0.00000
    604       2.8871      0.00000
    605       2.8882      0.00000
    606       2.9019      0.00000
    607       2.9145      0.00000
    608       2.9217      0.00000
    609       2.9278      0.00000
    610       2.9310      0.00000
    611       2.9339      0.00000
    612       2.9357      0.00000
    613       2.9394      0.00000
    614       2.9419      0.00000
    615       2.9423      0.00000
    616       2.9455      0.00000
    617       2.9464      0.00000
    618       2.9511      0.00000
    619       2.9522      0.00000
    620       2.9547      0.00000
    621       2.9714      0.00000
    622       2.9751      0.00000
    623       2.9769      0.00000
    624       2.9796      0.00000
    625       2.9813      0.00000
    626       2.9824      0.00000
    627       3.0182      0.00000
    628       3.0203      0.00000
    629       3.0241      0.00000
    630       3.0326      0.00000
    631       3.0333      0.00000
    632       3.0485      0.00000
    633       3.0501      0.00000
    634       3.0512      0.00000
    635       3.0573      0.00000
    636       3.0774      0.00000
    637       3.0998      0.00000
    638       3.1163      0.00000
    639       3.1308      0.00000
    640       3.1534      0.00000
    641       3.1560      0.00000
    642       3.1586      0.00000
    643       3.1735      0.00000
    644       3.2080      0.00000
    645       3.3055      0.00000
    646       3.3211      0.00000
    647       3.3647      0.00000
    648       3.3838      0.00000
    649       3.4000      0.00000
    650       3.4500      0.00000
    651       3.4939      0.00000
    652       3.5902      0.00000
    653       3.6263      0.00000
    654       3.7519      0.00000
    655       3.7972      0.00000
    656       3.9709      0.00000
    657       3.9833      0.00000
    658       4.0607      0.00000
    659       4.0705      0.00000
    660       4.1352      0.00000
    661       4.1381      0.00000
    662       4.1466      0.00000
    663       4.1523      0.00000
    664       4.1553      0.00000
    665       4.1771      0.00000
    666       4.1867      0.00000
    667       4.2912      0.00000
    668       4.3102      0.00000
    669       4.3288      0.00000
    670       4.3452      0.00000
    671       4.4100      0.00000
    672       4.4157      0.00000
    673       4.4254      0.00000
    674       4.4744      0.00000
    675       4.5188      0.00000
    676       4.5432      0.00000
    677       4.6386      0.00000
    678       4.6562      0.00000
    679       4.7147      0.00000
    680       4.7187      0.00000
    681       4.7960      0.00000
    682       4.8376      0.00000
    683       4.8527      0.00000
    684       4.9438      0.00000
    685       4.9481      0.00000
    686       4.9519      0.00000
    687       4.9544      0.00000
    688       4.9661      0.00000
    689       4.9798      0.00000
    690       5.0029      0.00000
    691       5.0110      0.00000
    692       5.0167      0.00000
    693       5.0853      0.00000
    694       5.1351      0.00000
    695       5.1645      0.00000
    696       5.1749      0.00000
    697       5.1859      0.00000
    698       5.1970      0.00000
    699       5.5590      0.00000
    700       5.6852      0.00000
    701       5.6943      0.00000
    702       5.7050      0.00000
    703       5.7231      0.00000
    704       5.7733      0.00000
    705       5.8638      0.00000
    706       6.0560      0.00000
    707       6.0655      0.00000
    708       6.0827      0.00000
    709       6.1195      0.00000
    710       6.1436      0.00000
    711       6.1480      0.00000
    712       6.2129      0.00000
    713       6.2584      0.00000
    714       6.3269      0.00000
    715       6.3625      0.00000
    716       6.4760      0.00000
    717       6.5081      0.00000
    718       6.6070      0.00000
    719       6.7535      0.00000
    720       6.7701      0.00000
    721       6.7891      0.00000
    722       6.8691      0.00000
    723       7.0913      0.00000
    724       7.2649      0.00000
    725       7.3342      0.00000
    726       7.3405      0.00000
    727       7.3810      0.00000
    728       7.6368      0.00000
    729       7.6473      0.00000
    730       7.6552      0.00000
    731       7.6613      0.00000
    732       7.7080      0.00000
    733       7.7116      0.00000
    734       7.7431      0.00000
    735       7.8012      0.00000
    736       7.8539      0.00000


--------------------------------------------------------------------------------------------------------


 soft charge-density along one line, spin component           1
         0         1         2         3         4         5         6         7         8         9
 total charge-density along one line
 
 soft charge-density along one line, spin component           2
         0         1         2         3         4         5         6         7         8         9
 total charge-density along one line
 
 pseudopotential strength for first ion, spin component:           1
 -6.360  -0.003  -0.000  -0.024   0.002  -6.786  -0.003  -0.000
 -0.003  -6.417  -0.004  -0.002  -0.026  -0.003  -6.841  -0.004
 -0.000  -0.004  -6.418  -0.002  -0.007  -0.000  -0.004  -6.843
 -0.024  -0.002  -0.002  -6.427  -0.006  -0.023  -0.002  -0.002
  0.002  -0.026  -0.007  -0.006  -6.374   0.002  -0.025  -0.007
 -6.786  -0.003  -0.000  -0.023   0.002  -7.161  -0.003  -0.000
 -0.003  -6.841  -0.004  -0.002  -0.025  -0.003  -7.214  -0.004
 -0.000  -0.004  -6.843  -0.002  -0.007  -0.000  -0.004  -7.216
 -0.023  -0.002  -0.002  -6.852  -0.006  -0.022  -0.002  -0.002
  0.002  -0.025  -0.007  -0.006  -6.800   0.001  -0.024  -0.006
  0.000   0.000   0.005   0.001  -0.000   0.000   0.000   0.005
  0.001   0.000   0.009   0.002  -0.001   0.001   0.000   0.009
 -0.000  -0.001  -0.000  -0.000  -0.001  -0.000  -0.001  -0.000
 -0.000   0.000   0.007  -0.000   0.000  -0.000   0.000   0.007
 -0.000  -0.000   0.000  -0.001  -0.000  -0.000  -0.000   0.000
 -0.000   0.001  -0.000  -0.000  -0.002  -0.000   0.001  -0.000
 -0.000   0.000   0.011  -0.000   0.000  -0.000   0.000   0.011
 -0.000  -0.000   0.000   0.001  -0.000  -0.000  -0.000   0.000
 pseudopotential strength for first ion, spin component:           2
 -4.996  -0.004  -0.003   0.020  -0.001  -5.481  -0.004  -0.003
 -0.004  -4.977   0.003   0.002   0.021  -0.004  -5.462   0.003
 -0.003   0.003  -5.001  -0.002   0.010  -0.003   0.003  -5.485
  0.020   0.002  -0.002  -4.975  -0.002   0.019   0.002  -0.002
 -0.001   0.021   0.010  -0.002  -4.997  -0.001   0.021   0.010
 -5.481  -0.004  -0.003   0.019  -0.001  -5.911  -0.004  -0.003
 -0.004  -5.462   0.003   0.002   0.021  -0.004  -5.893   0.003
 -0.003   0.003  -5.485  -0.002   0.010  -0.003   0.003  -5.915
  0.019   0.002  -0.002  -5.461  -0.002   0.019   0.002  -0.002
 -0.001   0.021   0.010  -0.002  -5.481  -0.001   0.020   0.009
 -0.001  -0.000  -0.002   0.001   0.001  -0.001  -0.000  -0.002
 -0.001  -0.000  -0.003   0.001   0.002  -0.001  -0.000  -0.003
 -0.000  -0.006  -0.000   0.000  -0.000  -0.000  -0.006  -0.000
  0.000   0.000  -0.009  -0.000  -0.000   0.000   0.000  -0.008
  0.000   0.000   0.000  -0.006  -0.000   0.000   0.000   0.000
 -0.000  -0.006  -0.000   0.000   0.000  -0.000  -0.005  -0.000
  0.000   0.000  -0.010  -0.000  -0.000   0.000   0.000  -0.010
  0.001   0.000   0.000  -0.006  -0.000   0.001   0.000   0.000
 total augmentation occupancy for first ion, spin component:           1
  2.701  -0.008  -0.037   0.054  -0.010  -1.327   0.007   0.028  -0.031   0.011   0.001   0.000  -0.000   0.004   0.024   0.000
 -0.008   2.734  -0.004  -0.003   0.053   0.007  -1.164  -0.002  -0.001  -0.034  -0.003  -0.001  -0.180  -0.001  -0.000   0.009
 -0.037  -0.004   2.819  -0.004   0.046   0.027  -0.002  -1.312   0.003  -0.038   0.339   0.018  -0.003  -0.121   0.001   0.000
  0.054  -0.003  -0.004   2.713  -0.008  -0.032  -0.001   0.003  -1.158   0.004   0.000   0.001  -0.002  -0.000  -0.178   0.000
 -0.010   0.053   0.046  -0.008   2.516   0.011  -0.033  -0.038   0.004  -1.208  -0.039  -0.007   0.026  -0.005  -0.001  -0.001
 -1.327   0.007   0.027  -0.032   0.011   1.529  -0.006  -0.021  -0.018  -0.009  -0.001  -0.000   0.000  -0.003  -0.032  -0.000
  0.007  -1.164  -0.002  -0.001  -0.033  -0.006   1.135   0.003   0.001  -0.016   0.002   0.000   0.190   0.001   0.001  -0.021
  0.028  -0.002  -1.312   0.003  -0.038  -0.021   0.003   1.357  -0.002   0.024  -0.430   0.018   0.001   0.232  -0.001  -0.000
 -0.031  -0.001   0.003  -1.158   0.004  -0.018   0.001  -0.002   1.133  -0.004  -0.001  -0.001   0.001   0.000   0.190  -0.000
  0.011  -0.034  -0.038   0.004  -1.208  -0.009  -0.016   0.024  -0.004   1.445   0.029   0.006  -0.034   0.004   0.001   0.002
  0.001  -0.003   0.339   0.000  -0.039  -0.001   0.002  -0.430  -0.001   0.029   2.052  -0.192  -0.001   0.189  -0.000   0.000
  0.000  -0.001   0.018   0.001  -0.007  -0.000   0.000   0.018  -0.001   0.006  -0.192   0.028  -0.000  -0.033  -0.000  -0.000
 -0.000  -0.180  -0.003  -0.002   0.026   0.000   0.190   0.001   0.001  -0.034  -0.001  -0.000   0.268   0.000   0.000  -0.024
  0.004  -0.001  -0.121  -0.000  -0.005  -0.003   0.001   0.232   0.000   0.004   0.189  -0.033   0.000   0.174   0.001  -0.000
  0.024  -0.000   0.001  -0.178  -0.001  -0.032   0.001  -0.001   0.190   0.001  -0.000  -0.000   0.000   0.001   0.259   0.000
  0.000   0.009   0.000   0.000  -0.001  -0.000  -0.021  -0.000  -0.000   0.002   0.000  -0.000  -0.024  -0.000   0.000   0.002
  0.000   0.000  -0.008   0.000   0.000  -0.000  -0.000  -0.015   0.000  -0.000  -0.031   0.004  -0.000  -0.017   0.000  -0.000
 -0.001   0.000  -0.000   0.008   0.000   0.002  -0.000   0.000  -0.021   0.000  -0.000  -0.000   0.000   0.000  -0.023   0.000
 total augmentation occupancy for first ion, spin component:           2
  2.008  -0.008  -0.039   0.059  -0.016  -0.950   0.005   0.028  -0.015   0.012  -0.002   0.000  -0.000   0.004   0.003   0.000
 -0.008   2.012   0.016   0.007   0.068   0.005  -0.914  -0.006  -0.002  -0.019  -0.005  -0.001   0.003   0.000  -0.002  -0.009
 -0.039   0.016   2.032  -0.002   0.063   0.028  -0.007  -0.941   0.002  -0.035   0.023   0.050   0.003  -0.049  -0.000  -0.000
  0.059   0.007  -0.002   2.023   0.004  -0.015  -0.002   0.002  -0.914  -0.000   0.002   0.002  -0.000  -0.000   0.002  -0.000
 -0.016   0.068   0.063   0.004   1.891   0.012  -0.018  -0.035  -0.000  -0.850  -0.022  -0.007   0.005  -0.004  -0.001  -0.000
 -0.950   0.005   0.028  -0.015   0.012   0.248  -0.003  -0.019   0.006  -0.010  -0.000  -0.001   0.000  -0.003   0.002  -0.000
  0.005  -0.914  -0.007  -0.002  -0.018  -0.003   0.246   0.003   0.001   0.007   0.004   0.000  -0.006  -0.001   0.001   0.006
  0.028  -0.006  -0.941   0.002  -0.035  -0.019   0.003   0.260  -0.002   0.021   0.017  -0.031  -0.001  -0.004  -0.000   0.000
 -0.015  -0.002   0.002  -0.914  -0.000   0.006   0.001  -0.002   0.242  -0.000  -0.001  -0.001   0.001   0.000  -0.006   0.000
  0.012  -0.019  -0.035  -0.000  -0.850  -0.010   0.007   0.021  -0.000   0.175   0.016   0.004   0.001   0.002   0.000  -0.000
 -0.002  -0.005   0.023   0.002  -0.022  -0.000   0.004   0.017  -0.001   0.016  -0.275   0.083   0.000  -0.021  -0.001  -0.000
  0.000  -0.001   0.050   0.002  -0.007  -0.001   0.000  -0.031  -0.001   0.004   0.083  -0.011  -0.000   0.006  -0.000   0.000
 -0.000   0.003   0.003  -0.000   0.005   0.000  -0.006  -0.001   0.001   0.001   0.000  -0.000  -0.025   0.000  -0.000   0.004
  0.004   0.000  -0.049  -0.000  -0.004  -0.003  -0.001  -0.004   0.000   0.002  -0.021   0.006   0.000  -0.021   0.001  -0.000
  0.003  -0.002  -0.000   0.002  -0.001   0.002   0.001  -0.000  -0.006   0.000  -0.001  -0.000  -0.000   0.001  -0.031   0.000
  0.000  -0.009  -0.000  -0.000  -0.000  -0.000   0.006   0.000   0.000  -0.000  -0.000   0.000   0.004  -0.000   0.000  -0.000
  0.000   0.000  -0.014   0.000  -0.000  -0.000  -0.000   0.009  -0.000   0.000   0.003  -0.002  -0.000   0.003  -0.000   0.000
  0.000   0.000   0.000  -0.009   0.000  -0.000  -0.000  -0.000   0.006  -0.000   0.000  -0.000   0.000  -0.000   0.004  -0.000


------------------------ aborting loop because EDIFF is reached ----------------------------------------


    CHARGE:  cpu time    1.07: real time    1.08
    FORLOC:  cpu time    0.08: real time    0.08
    FORNL :  cpu time    3.00: real time    3.01
    STRESS:  cpu time    8.76: real time    8.80
    FORCOR:  cpu time    0.39: real time    0.39
    FORHAR:  cpu time    0.11: real time    0.11
    MIXING:  cpu time    0.03: real time    0.03

  FORCE on cell =-STRESS in cart. coord.  units (eV):
  Direction    XX          YY          ZZ          XY          YZ          ZX
  --------------------------------------------------------------------------------------
  Alpha Z  2067.85644  2067.85644  2067.85644
  Ewald  484324.11653484330.10697************     3.30243     6.89727     3.47275
  Hartree508595.25874508598.00057************     6.39563    -1.37479    -1.42826
  E(xc)   -5564.28143 -5564.05172 -5570.87473    -0.16396     0.42989     0.28132
  Local  ************************************   -19.35251     8.45667     7.73449
  n-local  -668.54029  -630.00681  -703.41156     6.17836     3.10557     2.18871
  augment 18701.14379 18692.77953 18674.42641     4.03102   -10.80372    -8.01289
  Kinetic  9176.18320  9190.57533  9251.95375     3.43817    -8.04597    -4.65086
  Fock        0.00000     0.00000     0.00000     0.00000     0.00000     0.00000
  -------------------------------------------------------------------------------------
  Total     -62.46875   -31.04230   -13.73375     3.82916    -1.33508    -0.41473
  in kB     -33.60591   -16.69963    -7.38826     2.05995    -0.71823    -0.22311
  external pressure =      -19.23 kB  Pullay stress =        0.00 kB


 VOLUME and BASIS-vectors are now :
 -----------------------------------------------------------------------------
  energy-cutoff  :      450.00
  volume of cell :     2978.23
      direct lattice vectors                 reciprocal lattice vectors
     9.956100464  0.000000000  0.000000000     0.100440931  0.057989601  0.000000000
    -7.467050076 12.933309555  0.000000000     0.000000000  0.077319730  0.000000000
     0.000000000  0.000000000 23.129100800     0.000000000  0.000000000  0.043235576

  length of vectors
     9.956100464 14.934099667 23.129100800     0.115979198  0.077319730  0.043235576


 FORCES acting on ions
    electron-ion (+dipol)            ewald-force                    non-local-force                 convergence-correction
 -----------------------------------------------------------------------------------------------
   -.233E-01 0.105E+00 0.306E+04   0.927E-02 -.136E+00 -.306E+04   0.187E-01 0.294E-01 -.135E+01   -.263E-03 -.156E-03 0.248E-03
   0.440E-02 0.118E+00 0.306E+04   -.293E-01 -.153E+00 -.306E+04   0.151E-01 0.466E-01 -.137E+01   -.399E-03 -.145E-03 0.246E-03
   -.206E-01 0.185E+00 0.306E+04   -.715E-03 -.199E+00 -.306E+04   0.222E-01 0.201E-01 -.129E+01   0.302E-03 -.309E-03 0.240E-03
   -.312E-01 0.111E+00 0.306E+04   0.303E-01 -.182E+00 -.306E+04   0.105E-01 0.732E-01 -.126E+01   0.361E-03 -.298E-03 0.242E-03
   -.949E-01 0.156E+00 0.306E+04   0.886E-01 -.183E+00 -.306E+04   0.119E-03 0.403E-01 -.138E+01   0.738E-04 -.387E-03 0.178E-03
   0.297E-01 0.105E+00 0.306E+04   -.344E-01 -.128E+00 -.306E+04   0.141E-01 0.301E-01 -.138E+01   -.375E-03 -.419E-03 0.103E-03
   0.513E-01 0.170E+00 0.306E+04   -.967E-01 -.197E+00 -.306E+04   0.420E-01 0.393E-01 -.139E+01   -.257E-03 -.398E-03 -.276E-04
   -.409E-01 0.260E+00 0.306E+04   0.261E-01 -.253E+00 -.306E+04   0.205E-01 0.471E-02 -.132E+01   0.558E-03 -.377E-03 0.688E-04
   -.160E+00 0.109E+00 0.306E+04   0.134E+00 -.107E+00 -.306E+04   0.179E-01 0.250E-01 -.132E+01   0.309E-03 -.125E-03 0.166E-03
   -.544E-01 0.106E+00 0.306E+04   0.905E-01 -.809E-01 -.306E+04   -.253E-01 -.221E-01 -.132E+01   -.286E-03 -.336E-03 0.152E-03
   0.971E-01 0.575E-01 0.306E+04   -.142E+00 -.862E-01 -.306E+04   0.328E-01 0.575E-01 -.134E+01   -.350E-03 -.259E-03 -.120E-03
   0.544E-01 0.111E+00 0.306E+04   -.816E-01 -.111E+00 -.306E+04   0.267E-01 -.150E-02 -.137E+01   0.327E-03 -.367E-04 -.104E-03
   -.109E+00 -.137E+00 0.306E+04   0.377E-01 0.102E+00 -.306E+04   0.638E-01 0.487E-01 -.140E+01   0.309E-03 0.392E-04 -.122E-03
   -.140E+00 -.925E-01 0.306E+04   0.127E+00 0.354E-01 -.306E+04   0.164E-01 0.675E-01 -.132E+01   -.914E-04 -.777E-04 0.392E-04
   0.690E-02 -.463E-01 0.306E+04   -.354E-01 -.205E-01 -.306E+04   0.326E-01 0.647E-01 -.130E+01   -.249E-03 0.198E-03 -.162E-03
   0.171E+00 -.615E-01 0.306E+04   -.120E+00 0.461E-01 -.306E+04   -.429E-01 0.231E-01 -.131E+01   0.315E-04 0.277E-03 -.326E-03
   0.118E-01 -.374E+00 0.306E+04   -.964E-02 0.315E+00 -.306E+04   0.107E-01 0.619E-01 -.129E+01   -.318E-04 0.252E-03 -.919E-04
   -.745E-01 -.246E+00 0.306E+04   0.341E-01 0.298E+00 -.306E+04   0.307E-01 -.633E-01 -.131E+01   0.129E-03 0.106E-03 0.407E-04
   -.268E-01 -.249E+00 0.306E+04   0.109E-01 0.224E+00 -.306E+04   0.194E-01 0.325E-01 -.130E+01   0.127E-03 0.430E-03 0.525E-04
   0.523E-01 -.241E+00 0.306E+04   -.509E-01 0.245E+00 -.306E+04   -.875E-02 0.739E-02 -.125E+01   -.224E-03 0.564E-03 -.598E-04
   -.339E-01 -.188E+00 0.306E+04   -.589E-02 0.155E+00 -.306E+04   0.394E-01 0.674E-01 -.129E+01   -.367E-03 0.396E-03 0.250E-03
   -.555E-01 -.242E+00 0.306E+04   0.663E-02 0.139E+00 -.306E+04   0.387E-01 0.918E-01 -.138E+01   -.501E-04 0.253E-03 0.226E-03
   0.197E-02 -.136E+00 0.306E+04   0.223E-02 0.127E+00 -.306E+04   -.665E-02 0.353E-01 -.138E+01   0.471E-03 0.363E-03 0.284E-03
   0.260E-01 -.104E+00 0.306E+04   -.183E-02 0.140E+00 -.306E+04   -.151E-01 -.341E-01 -.125E+01   -.540E-04 0.446E-03 0.242E-03
   -.366E-01 0.545E-01 0.155E+04   0.371E-01 -.695E-01 -.155E+04   -.409E-02 0.125E-01 -.468E+00   0.153E-05 -.196E-03 0.726E-03
   0.630E-01 0.406E-01 0.155E+04   -.683E-01 -.613E-01 -.155E+04   0.638E-02 0.596E-02 -.398E+00   -.244E-03 -.224E-03 0.877E-03
   0.252E-01 0.205E+00 0.155E+04   -.941E-02 -.216E+00 -.155E+04   -.145E-02 0.392E-01 -.414E+00   -.115E-03 -.302E-03 0.922E-03
   -.504E-01 0.156E+00 0.155E+04   0.366E-01 -.140E+00 -.155E+04   0.242E-01 0.683E-02 -.430E+00   0.357E-03 -.306E-03 0.741E-03
   -.215E+00 0.583E+00 0.155E+04   0.179E+00 -.622E+00 -.155E+04   0.348E-01 0.440E-01 -.481E+00   0.406E-03 -.345E-03 0.611E-03
   -.101E+00 0.239E+00 0.155E+04   0.118E+00 -.241E+00 -.155E+04   -.240E-01 0.554E-02 -.407E+00   -.242E-03 -.302E-03 0.542E-03
   0.266E+00 0.260E+00 0.155E+04   -.269E+00 -.269E+00 -.155E+04   0.928E-02 0.242E-01 -.421E+00   -.410E-03 -.543E-03 0.411E-03
   0.288E-01 0.608E+00 0.155E+04   -.118E-01 -.648E+00 -.155E+04   -.744E-02 0.483E-01 -.513E+00   0.245E-03 -.564E-03 0.554E-03
   -.123E+00 0.395E+00 0.155E+04   0.110E+00 -.417E+00 -.155E+04   0.169E-01 0.345E-01 -.526E+00   0.727E-03 -.235E-03 0.640E-03
   -.737E+00 0.107E+00 0.155E+04   0.719E+00 -.100E+00 -.155E+04   0.164E-01 0.772E-02 -.448E+00   -.196E-04 -.202E-03 0.883E-03
   0.149E+00 -.243E+00 0.155E+04   -.154E+00 0.209E+00 -.155E+04   0.101E-01 0.611E-01 -.446E+00   -.592E-03 -.404E-03 0.594E-03
   0.723E+00 0.132E+00 0.155E+04   -.692E+00 -.132E+00 -.155E+04   -.249E-01 0.160E-01 -.514E+00   -.115E-03 -.361E-03 0.522E-03
   0.278E+00 -.622E-01 0.155E+04   -.291E+00 0.439E-01 -.155E+04   0.751E-02 0.502E-01 -.536E+00   0.407E-03 -.597E-04 0.346E-03
   -.516E+00 -.669E-01 0.155E+04   0.511E+00 0.639E-01 -.155E+04   0.113E-01 0.236E-01 -.545E+00   0.446E-03 -.308E-03 0.581E-03
   -.518E+00 0.366E+00 0.155E+04   0.501E+00 -.352E+00 -.155E+04   0.194E-01 0.568E-02 -.462E+00   -.454E-03 -.212E-03 0.853E-03
   0.746E+00 0.365E+00 0.155E+04   -.720E+00 -.337E+00 -.155E+04   -.331E-01 -.257E-01 -.465E+00   -.399E-03 -.370E-04 0.552E-03
   0.174E+00 -.406E+00 0.155E+04   -.197E+00 0.376E+00 -.155E+04   0.340E-01 0.388E-01 -.453E+00   -.170E-03 0.743E-03 0.576E-03
   -.108E+00 -.634E+00 0.155E+04   0.124E+00 0.620E+00 -.155E+04   -.553E-02 0.561E-01 -.619E+00   0.314E-03 0.317E-03 0.461E-03
   -.168E+00 -.242E+00 0.155E+04   0.175E+00 0.240E+00 -.155E+04   -.426E-02 0.140E-01 -.485E+00   0.169E-03 0.268E-03 0.858E-03
   0.899E-01 0.768E-01 0.155E+04   -.867E-01 -.984E-01 -.155E+04   -.513E-02 0.329E-01 -.376E+00   -.314E-03 0.639E-03 0.816E-03
   0.900E-02 -.583E+00 0.155E+04   -.356E-01 0.573E+00 -.155E+04   0.214E-01 0.296E-01 -.418E+00   -.229E-03 0.752E-03 0.987E-03
   -.871E-01 -.600E+00 0.155E+04   0.701E-01 0.567E+00 -.155E+04   0.281E-01 0.451E-01 -.445E+00   -.203E-03 0.746E-03 0.999E-03
   0.698E-01 -.504E+00 0.155E+04   -.548E-01 0.494E+00 -.155E+04   -.171E-01 0.395E-02 -.458E+00   0.288E-03 0.548E-03 0.999E-03
   0.145E-01 -.523E+00 0.155E+04   0.475E-02 0.509E+00 -.155E+04   -.154E-01 0.152E-01 -.404E+00   0.142E-03 0.580E-03 0.962E-03
   0.128E+00 0.235E+01 0.229E+02   -.120E+00 -.233E+01 -.229E+02   -.123E-01 -.470E-01 0.362E-01   0.173E-04 -.413E-03 0.888E-03
   0.860E+00 0.148E+01 0.228E+02   -.870E+00 -.140E+01 -.227E+02   -.779E-02 -.829E-01 0.365E-02   -.454E-03 -.774E-03 0.752E-03
   -.256E+00 0.228E+01 0.238E+02   0.253E+00 -.232E+01 -.238E+02   0.450E-02 0.201E-01 0.448E-01   -.952E-04 -.833E-03 0.876E-03
   -.402E+00 0.183E+01 0.219E+02   0.391E+00 -.187E+01 -.219E+02   0.208E-01 0.586E-02 0.134E+00   0.530E-03 -.579E-03 0.878E-03
   -.468E+00 0.184E+01 0.255E+02   0.490E+00 -.186E+01 -.256E+02   -.835E-02 0.181E-01 0.719E-01   0.643E-03 -.655E-04 0.959E-03
   -.121E+01 -.311E+01 0.226E+02   0.119E+01 0.306E+01 -.226E+02   0.301E-01 0.630E-01 0.888E-01   -.622E-03 0.376E-04 0.922E-03
   0.215E+01 -.298E+01 0.234E+02   -.213E+01 0.298E+01 -.234E+02   -.257E-01 0.191E-01 0.891E-01   -.420E-03 -.135E-03 0.107E-02
   -.156E+00 0.170E+01 0.256E+02   0.135E+00 -.167E+01 -.257E+02   0.173E-01 -.163E-01 0.915E-01   0.397E-03 -.234E-03 0.112E-02
   -.261E+00 -.185E+00 0.265E+02   0.257E+00 0.188E+00 -.265E+02   -.588E-02 -.324E-01 0.638E-01   0.780E-03 -.411E-03 0.107E-02
   -.505E+01 0.143E+01 0.236E+02   0.505E+01 -.140E+01 -.236E+02   0.553E-01 -.496E-01 0.960E-01   0.162E-03 -.371E-03 0.106E-02
   0.869E+00 0.112E+01 0.182E+02   -.869E+00 -.114E+01 -.182E+02   -.661E-02 -.136E-01 0.880E-01   -.726E-03 -.951E-04 0.136E-02
   0.482E+01 0.188E+01 0.247E+02   -.482E+01 -.188E+01 -.247E+02   -.517E-01 -.234E-01 0.679E-01   -.215E-03 -.159E-03 0.137E-02
   -.837E+00 -.200E+01 0.260E+02   0.756E+00 0.196E+01 -.260E+02   0.412E-01 0.264E-01 0.688E-01   -.152E-04 0.515E-03 0.121E-02
   -.642E-01 -.163E+01 0.248E+02   0.141E+00 0.157E+01 -.248E+02   -.441E-01 0.114E-01 0.906E-01   0.698E-03 0.130E-03 0.102E-02
   -.223E+01 0.276E+01 0.243E+02   0.221E+01 -.278E+01 -.243E+02   0.347E-01 -.514E-02 0.695E-01   -.138E-03 0.294E-03 0.128E-02
   0.335E+01 0.211E+01 0.249E+02   -.332E+01 -.212E+01 -.249E+02   -.426E-01 -.427E-01 0.313E-01   -.545E-03 0.656E-03 0.143E-02
   -.612E+00 -.236E+01 0.238E+02   0.615E+00 0.235E+01 -.238E+02   -.676E-02 -.123E-01 0.679E-01   -.398E-03 0.111E-02 0.126E-02
   -.389E+00 -.191E+01 0.219E+02   0.399E+00 0.190E+01 -.220E+02   -.981E-02 -.403E-01 0.140E+00   0.864E-04 0.935E-03 0.114E-02
   0.139E+01 -.144E+01 0.238E+02   -.143E+01 0.147E+01 -.239E+02   0.110E-01 -.562E-01 0.670E-01   0.421E-03 0.552E-03 0.110E-02
   -.156E+00 -.208E+01 0.241E+02   0.167E+00 0.206E+01 -.241E+02   -.462E-02 -.432E-02 0.249E-01   -.111E-03 0.743E-03 0.123E-02
   0.325E+00 -.158E+00 0.212E+02   -.317E+00 0.158E+00 -.212E+02   -.116E-01 -.154E-01 0.586E-01   -.925E-04 -.195E-03 0.977E-03
   -.351E+00 0.441E+00 0.217E+02   0.339E+00 -.449E+00 -.217E+02   -.270E-02 0.163E-02 0.164E-01   -.315E-03 -.213E-03 0.959E-03
   0.454E+00 0.410E-01 0.216E+02   -.452E+00 -.356E-01 -.216E+02   0.778E-02 -.140E-01 0.359E-01   0.121E-03 -.268E-03 0.889E-03
   -.393E+00 -.583E+00 0.216E+02   0.389E+00 0.611E+00 -.216E+02   -.288E-02 -.429E-01 0.494E-01   0.286E-03 -.230E-03 0.920E-03
   0.128E-01 0.433E+01 -.150E+04   -.144E-01 -.431E+01 0.150E+04   0.743E-03 -.216E-01 0.463E+00   -.206E-03 -.610E-03 0.550E-03
   -.427E+00 0.513E+01 -.150E+04   0.409E+00 -.516E+01 0.150E+04   0.165E-01 0.281E-01 0.467E+00   -.214E-03 -.723E-03 0.719E-03
   -.104E+01 0.309E+01 -.150E+04   0.110E+01 -.306E+01 0.150E+04   -.618E-01 -.325E-01 0.400E+00   0.822E-04 -.523E-03 0.576E-03
   0.587E+00 0.270E+01 -.150E+04   -.612E+00 -.264E+01 0.150E+04   0.251E-01 -.601E-01 0.401E+00   0.341E-03 -.396E-03 0.436E-03
   0.162E+01 0.797E+01 -.149E+04   -.165E+01 -.796E+01 0.148E+04   0.308E-01 -.123E-01 0.449E+00   -.263E-04 0.518E-04 0.529E-03
   0.290E+00 0.442E+01 -.149E+04   -.283E+00 -.402E+01 0.149E+04   -.618E-02 -.389E+00 0.692E-01   -.309E-03 0.223E-03 0.108E-02
   -.188E+01 0.857E+01 -.149E+04   0.192E+01 -.858E+01 0.148E+04   -.397E-01 0.729E-02 0.442E+00   -.625E-04 0.779E-04 0.110E-02
   -.474E+00 0.681E+01 -.150E+04   0.468E+00 -.686E+01 0.150E+04   0.535E-02 0.546E-01 0.512E+00   0.398E-03 0.949E-05 0.777E-03
   0.262E+01 0.697E+00 -.148E+04   -.254E+01 -.682E+00 0.148E+04   -.791E-01 -.179E-01 0.419E+00   0.446E-03 -.194E-03 0.791E-03
   -.572E+00 0.142E+00 -.150E+04   0.605E+00 -.134E+00 0.150E+04   -.291E-01 -.909E-02 0.453E+00   -.269E-04 0.767E-04 0.105E-02
   0.144E+01 0.147E+01 -.150E+04   -.149E+01 -.143E+01 0.150E+04   0.472E-01 -.489E-01 0.528E+00   -.427E-03 0.712E-04 0.155E-02
   -.376E+01 0.158E+01 -.148E+04   0.373E+01 -.159E+01 0.148E+04   0.373E-01 0.843E-02 0.468E+00   0.214E-04 -.146E-03 0.135E-02
   -.170E+01 -.406E+01 -.149E+04   0.177E+01 0.412E+01 0.149E+04   -.653E-01 -.640E-01 0.575E+00   0.230E-03 -.361E-05 0.139E-02
   -.648E+00 -.149E+01 -.149E+04   0.925E+00 0.132E+01 0.149E+04   -.274E+00 0.168E+00 0.389E-01   0.415E-03 -.851E-04 0.989E-03
   0.129E+01 0.441E-01 -.149E+04   -.127E+01 -.105E+00 0.149E+04   -.181E-01 0.550E-01 0.409E+00   -.245E-03 0.959E-04 0.128E-02
   0.609E+00 -.175E+01 -.148E+04   -.936E+00 0.157E+01 0.148E+04   0.324E+00 0.186E+00 0.862E-02   -.396E-03 0.190E-03 0.158E-02
   -.392E+01 -.681E+01 -.150E+04   0.392E+01 0.681E+01 0.150E+04   0.191E-02 -.756E-02 0.474E+00   -.289E-03 0.752E-03 0.132E-02
   0.270E+01 -.655E+01 -.150E+04   -.268E+01 0.657E+01 0.150E+04   -.192E-01 -.139E-01 0.448E+00   0.296E-03 0.454E-03 0.998E-03
   0.274E+01 -.794E+01 -.149E+04   -.276E+01 0.793E+01 0.149E+04   0.173E-01 0.105E-01 0.472E+00   0.246E-03 0.294E-03 0.862E-03
   -.185E+01 -.948E+01 -.149E+04   0.185E+01 0.949E+01 0.149E+04   -.419E-03 -.796E-02 0.487E+00   -.255E-03 0.554E-03 0.113E-02
   -.582E+00 -.294E+01 -.150E+04   0.585E+00 0.298E+01 0.150E+04   -.514E-02 -.444E-01 0.408E+00   -.169E-03 -.375E-05 0.663E-03
   0.294E+00 -.900E+00 -.151E+04   -.280E+00 0.932E+00 0.151E+04   -.122E-01 -.321E-01 0.402E+00   -.235E-03 0.766E-05 0.686E-03
   0.134E+01 -.336E+01 -.150E+04   -.136E+01 0.345E+01 0.150E+04   0.172E-01 -.879E-01 0.362E+00   0.253E-03 -.112E-03 0.418E-03
   -.832E+00 -.406E+01 -.150E+04   0.835E+00 0.410E+01 0.150E+04   -.359E-02 -.477E-01 0.443E+00   0.151E-03 -.569E-04 0.467E-03
   0.156E+01 0.227E+01 -.307E+04   -.153E+01 -.213E+01 0.307E+04   -.275E-01 -.136E+00 0.142E+01   0.257E-03 -.404E-03 -.109E-03
   -.229E+01 0.837E+01 -.306E+04   0.224E+01 -.840E+01 0.306E+04   0.450E-01 0.255E-01 0.133E+01   -.127E-03 -.506E-03 0.651E-04
   0.107E+01 0.500E+01 -.307E+04   -.103E+01 -.499E+01 0.307E+04   -.500E-01 -.124E-01 0.140E+01   -.342E-03 -.539E-03 0.266E-04
   0.799E-01 0.157E+01 -.307E+04   -.488E-01 -.155E+01 0.307E+04   -.336E-01 -.167E-01 0.142E+01   0.210E-03 -.375E-03 -.659E-04
   0.713E+01 0.136E+02 -.306E+04   -.711E+01 -.135E+02 0.306E+04   -.143E-01 -.925E-01 0.141E+01   0.250E-03 0.115E-04 0.200E-04
   0.117E+02 0.331E+02 -.305E+04   -.116E+02 -.330E+02 0.304E+04   -.875E-01 -.142E+00 0.145E+01   0.111E-03 0.108E-03 0.279E-03
   -.135E+02 0.328E+02 -.304E+04   0.134E+02 -.327E+02 0.304E+04   0.842E-01 -.118E+00 0.144E+01   -.341E-03 0.207E-03 0.400E-03
   -.515E+01 0.145E+02 -.306E+04   0.520E+01 -.145E+02 0.306E+04   -.496E-01 -.518E-01 0.138E+01   -.164E-04 0.115E-03 0.140E-03
   -.679E-01 0.115E+02 -.306E+04   0.879E-01 -.114E+02 0.305E+04   -.184E-01 -.119E+00 0.127E+01   0.949E-04 0.219E-03 0.207E-03
   0.345E+02 0.232E+02 -.303E+04   -.351E+02 -.236E+02 0.302E+04   0.683E+00 0.394E+00 0.209E+01   0.448E-03 0.238E-03 0.224E-03
   -.145E+01 0.145E+03 -.296E+04   0.146E+01 -.146E+03 0.296E+04   -.483E-02 0.108E+01 0.837E+00   -.491E-04 0.404E-03 0.472E-03
   -.313E+02 0.237E+02 -.303E+04   0.321E+02 -.242E+02 0.303E+04   -.800E+00 0.446E+00 0.208E+01   -.488E-03 0.320E-03 0.412E-03
   -.269E+02 -.815E+01 -.304E+04   0.268E+02 0.823E+01 0.304E+04   0.116E+00 -.860E-01 0.148E+01   -.156E-03 0.142E-03 0.515E-03
   0.250E+02 -.962E+01 -.304E+04   -.249E+02 0.971E+01 0.304E+04   -.145E+00 -.946E-01 0.148E+01   0.217E-03 0.748E-04 0.376E-03
   0.123E+03 -.737E+02 -.296E+04   -.124E+03 0.743E+02 0.296E+04   0.925E+00 -.587E+00 0.963E+00   0.398E-03 -.144E-03 0.548E-03
   -.120E+03 -.709E+02 -.295E+04   0.120E+03 0.715E+02 0.295E+04   -.941E+00 -.575E+00 0.810E+00   -.442E-03 -.899E-04 0.672E-03
   -.204E+02 -.296E+02 -.305E+04   0.204E+02 0.294E+02 0.304E+04   -.479E-01 0.180E+00 0.147E+01   -.225E-03 0.351E-03 0.407E-03
   -.683E+00 -.150E+02 -.307E+04   0.735E+00 0.150E+02 0.306E+04   -.487E-01 -.747E-01 0.143E+01   -.129E-03 0.219E-03 0.419E-03
   0.191E+02 -.284E+02 -.305E+04   -.192E+02 0.283E+02 0.305E+04   0.532E-01 0.123E+00 0.149E+01   0.298E-03 0.462E-04 0.304E-03
   0.160E+01 -.433E+02 -.303E+04   -.159E+01 0.441E+02 0.302E+04   -.125E-01 -.775E+00 0.204E+01   0.614E-04 0.159E-03 0.286E-03
   -.370E+01 -.137E+02 -.306E+04   0.378E+01 0.136E+02 0.306E+04   -.841E-01 0.482E-01 0.134E+01   0.996E-04 -.138E-03 -.165E-04
   -.542E+01 -.500E+01 -.307E+04   0.536E+01 0.494E+01 0.307E+04   0.596E-01 0.561E-01 0.144E+01   -.305E-03 -.975E-05 0.290E-04
   0.489E+01 -.315E+01 -.307E+04   -.482E+01 0.320E+01 0.307E+04   -.730E-01 -.467E-01 0.142E+01   -.110E-03 -.150E-03 0.213E-04
   0.438E+01 -.127E+02 -.306E+04   -.443E+01 0.128E+02 0.306E+04   0.437E-01 -.666E-01 0.132E+01   0.317E-03 -.291E-03 -.386E-04
   -.214E+01 -.114E+01 -.237E+04   0.229E+01 0.147E+01 0.240E+04   -.159E+00 -.325E+00 -.267E+02   -.353E-04 0.430E-04 0.611E-03
 -----------------------------------------------------------------------------------------------
   0.259E+00 0.301E+00 0.242E+02   -.444E-13 -.935E-13 -.559E-10   -.228E+00 -.338E+00 -.242E+02   0.821E-05 0.949E-06 0.730E-01
 
 
 POSITION                                       TOTAL-FORCE (eV/Angst)
 -----------------------------------------------------------------------------------
      1.24451      0.71857      0.00000         0.004169     -0.000837      0.279828
      3.73354      0.71857      0.00000        -0.010375      0.011714      0.291399
      6.22256      0.71857      0.00000         0.001002      0.005369      0.286528
      8.71159      0.71857      0.00000         0.009623      0.002771      0.279740
      0.00006      2.87404      0.00000        -0.006287      0.012721      0.286539
      2.48908      2.87404      0.00000         0.008791      0.007689      0.277795
      4.97812      2.87404      0.00000        -0.003892      0.012818      0.280975
      7.46714      2.87404      0.00000         0.006057      0.012365      0.295446
     -1.24448      5.02963      0.00000        -0.007856      0.026703      0.299978
      1.24455      5.02963      0.00000         0.010219      0.002862      0.272468
      3.73357      5.02963      0.00000        -0.012764      0.028824      0.278112
      6.22260      5.02963      0.00000        -0.000322     -0.001159      0.278642
     -2.48901      7.18523      0.00000        -0.007005      0.014163      0.273553
      0.00001      7.18523      0.00000         0.002619      0.010610      0.263208
      2.48904      7.18523      0.00000         0.003581     -0.001700      0.273962
      4.97806      7.18523      0.00000         0.007951      0.008284      0.277369
     -3.73347      9.34069      0.00000         0.012524      0.003729      0.287445
     -1.24445      9.34069      0.00000        -0.009821     -0.010901      0.286514
      1.24458      9.34069      0.00000         0.003349      0.008533      0.280160
      3.73361      9.34069      0.00000        -0.007754      0.012300      0.293983
     -4.97800     11.49629      0.00000        -0.001020      0.035329      0.291505
     -2.48898     11.49629      0.00000        -0.010490     -0.010266      0.281299
      0.00005     11.49629      0.00000        -0.002236      0.027011      0.296326
      2.48907     11.49629      0.00000         0.008732      0.002962      0.279945
      0.00000      0.00000      2.03235        -0.003817     -0.002326     -0.316430
      2.48903      0.00000      2.03235         0.000510     -0.014708     -0.337336
      4.97805      0.00000      2.03235         0.013955      0.028180     -0.302733
      7.46708      0.00000      2.03235         0.010531      0.023322     -0.320983
     -1.24453      2.15559      2.03235        -0.001172      0.004798     -0.337877
      1.24449      2.15559      2.03235        -0.007388      0.003772     -0.308092
      3.73352      2.15559      2.03235         0.005664      0.015723     -0.313010
      6.22254      2.15559      2.03235         0.009556      0.008133     -0.328122
     -2.48899      4.31106      2.03235         0.004378      0.012713     -0.359325
      0.00003      4.31106      2.03235        -0.002343      0.014402     -0.305790
      2.48906      4.31106      2.03235         0.004028      0.027371     -0.324138
      4.97809      4.31106      2.03235         0.005958      0.015703     -0.321682
     -3.73352      6.46665      2.03235        -0.004723      0.032153     -0.335595
     -1.24450      6.46665      2.03235         0.006399      0.020580     -0.347573
      1.24452      6.46665      2.03235         0.001472      0.019637     -0.300314
      3.73355      6.46665      2.03235        -0.007707      0.002294     -0.328143
     -4.97806      8.62225      2.03235         0.010401      0.010016     -0.319682
     -2.48903      8.62225      2.03235         0.010646      0.043020     -0.392083
     -0.00001      8.62225      2.03235         0.002092      0.012273     -0.314856
      2.48902      8.62225      2.03235        -0.002568      0.012253     -0.310011
     -6.22251     10.77771      2.03235        -0.005646      0.020731     -0.317617
     -3.73349     10.77771      2.03235         0.010593      0.012525     -0.332372
     -1.24447     10.77771      2.03235        -0.001972     -0.005249     -0.325216
      1.24456     10.77771      2.03235         0.003645      0.001210     -0.317243
     -0.00002      1.43702      4.06448        -0.004779     -0.030870      0.013516
      2.48900      1.43702      4.06448        -0.018873     -0.006426      0.074337
      4.97803      1.43702      4.06448         0.000638     -0.026478      0.000520
      7.46706      1.43702      4.06448         0.009876     -0.034427      0.045621
     -1.24456      3.59261      4.06448         0.013586     -0.002307      0.024839
      1.24447      3.59261      4.06448         0.005153      0.019434      0.069797
      3.73349      3.59261      4.06448        -0.004378      0.019578      0.083972
      6.22252      3.59261      4.06448        -0.004030      0.006667      0.021720
     -2.48901      5.74808      4.06448        -0.009473     -0.029568      0.026859
      0.00001      5.74808      4.06448         0.051785     -0.023893      0.060217
      2.48904      5.74808      4.06448        -0.007402     -0.025035      0.159243
      4.97806      5.74808      4.06448        -0.052026     -0.024069      0.063521
     -3.73355      7.90367      4.06448        -0.039399     -0.016449      0.071331
     -1.24452      7.90367      4.06448         0.033359     -0.056336      0.082666
      1.24450      7.90367      4.06448         0.011113     -0.029219      0.053412
      3.73353      7.90367      4.06448        -0.007456     -0.049612      0.053147
     -4.97808     10.05927      4.06448        -0.003836     -0.026932      0.029706
     -2.48906     10.05927      4.06448         0.000090     -0.046046      0.037493
     -0.00003     10.05927      4.06448        -0.023787     -0.023542      0.006479
      2.48899     10.05927      4.06448         0.005806     -0.025568     -0.000921
     -6.22254     12.21474      4.06448        -0.004222     -0.015045      0.001737
     -3.73352     12.21473      4.06448        -0.015420     -0.006676      0.014775
     -1.24449     12.21474      4.06448         0.009919     -0.008503      0.005856
      1.24453     12.21474      4.06448        -0.007291     -0.014646      0.009837
      1.23648      0.70406      6.11531        -0.001359     -0.004251     -0.000074
      3.72983      0.70999      6.10998        -0.001691     -0.004406     -0.000221
      6.21753      0.70930      6.11353        -0.000881     -0.002058     -0.000556
      8.70520      0.70326      6.11610         0.000430      0.000337      0.000915
     -0.00607      2.85953      6.10711         0.000219      0.000178      0.001208
      2.48362      2.86922      6.11105        -0.000145      0.004197      0.005160
      4.97191      2.86656      6.10463         0.000750     -0.000683      0.001284
      7.46259      2.86500      6.11516        -0.000845     -0.002589      0.005144
     -1.24800      5.02141      6.10679         0.001167     -0.002660      0.002762
      1.23987      5.02092      6.15200         0.004102     -0.000475      0.006144
      3.72739      5.02436      6.14779        -0.003169      0.000669      0.008548
      6.21461      5.02331      6.10980         0.000135     -0.001311      0.001092
     -2.49488      7.18130      6.11428         0.001057     -0.002295      0.004406
     -0.00555      7.17767      6.11164         0.003107     -0.003740      0.000695
      2.48496      7.18054      6.14165        -0.000684     -0.005136      0.003544
      4.97809      7.18110      6.10586        -0.003247     -0.000252      0.005345
     -3.73447      9.33846      6.11485         0.000894     -0.001563     -0.002997
     -1.25178      9.33222      6.11847         0.000865     -0.000427      0.001622
      1.23628      9.32996      6.10496         0.003739     -0.002241     -0.002035
      3.73460      9.33112      6.10737        -0.002242     -0.002316      0.001274
     -4.97687     11.48876      6.11358        -0.002666      0.000217      0.003235
     -2.49040     11.48968      6.11781         0.000688      0.000723      0.000791
     -0.00610     11.48429      6.11047         0.000791      0.000491      0.003784
      2.48395     11.48433      6.11769        -0.001203     -0.000654      0.002414
      2.48364     12.91697      8.08822        -0.000385     -0.000442     -0.002170
     -4.97871     12.93049      8.08002        -0.000625     -0.000783      0.001307
     -2.48642     12.92422      8.08091        -0.001869     -0.004402     -0.000004
     -0.00951     12.91852      8.08324        -0.002529     -0.005077     -0.001623
      8.70385      2.12998      8.08148         0.002159      0.001026      0.000531
      1.23892      2.13717      8.07506        -0.002495     -0.001343     -0.001038
      3.72800      2.14120      8.07294         0.001243      0.002107      0.000523
      6.22552      2.13873      8.07849        -0.003028     -0.002605      0.000628
      7.46435      4.30874      8.07190         0.001356     -0.002566     -0.000600
     -0.03950      4.27226      8.07126         0.000766     -0.001138      0.001928
      2.47570      4.26450      8.18900         0.007497      0.095341      0.078710
      5.01035      4.27504      8.07274        -0.004598     -0.000654     -0.000165
      6.21863      6.45567      8.07134         0.002209     -0.002143      0.000335
     -1.24558      6.44994      8.07267        -0.001345     -0.004777     -0.002354
      1.21755      6.47526      8.18409         0.085801     -0.047524      0.083561
      3.76831      6.49238      8.17540        -0.086881     -0.055805      0.083011
     -4.97762      8.62380      8.07209         0.001463      0.000527     -0.001259
     -2.49280      8.60420      8.08460         0.002739      0.000455      0.000897
     -0.00615      8.61463      8.07440         0.000042      0.001237     -0.002258
      2.48562      8.66946      8.06865         0.002827     -0.002655      0.000885
     -6.21642     10.78264      8.07882         0.001796     -0.001956     -0.002372
     -3.73581     10.77549      8.08537        -0.000287     -0.001484     -0.000712
     -1.24774     10.77154      8.08334        -0.001238     -0.000720      0.001860
      1.23307     10.77875      8.07680        -0.001073     -0.000499     -0.000653
      2.51135      5.73795      9.34935        -0.003597      0.001678     -0.278625
 -----------------------------------------------------------------------------------
    total drift:                                0.031083     -0.037010      0.045172


--------------------------------------------------------------------------------------------------------



  FREE ENERGIE OF THE ION-ELECTRON SYSTEM (eV)
  ---------------------------------------------------
  free  energy   TOTEN  =      -817.086000 eV

  energy  without entropy=     -816.838905  energy(sigma->0) =     -817.024226
 
 d Force =-0.1284735E-02[-0.554E-02, 0.297E-02]  d Energy =-0.1359367E-02 0.746E-04
 d Force = 0.4801065E+02[ 0.480E+02, 0.481E+02]  d Ewald  = 0.4801025E+02 0.406E-03


--------------------------------------------------------------------------------------------------------


    POTLOK:  cpu time    0.44: real time    0.45


--------------------------------------------------------------------------------------------------------


 stress matrix after NEB project (eV)
    -62.46875      3.82939     -0.41473
      3.82916    -31.04230     -1.33477
     -0.41381     -1.33508    -13.73375
  FORCES: max atom, RMS     0.278654    0.025332
  FORCE total and by dimension    0.278654    0.278625
  Stress total and by dimension   71.328950   62.468751
 Finite differences progress:
  Degree of freedom:   3/  3
  Displacement:        1/  2
  Total:               5/  6
  LATTYP: Found a simple monoclinic cell.
 ALAT       =    17.9486009422
 B/A-ratio  =     1.2886297308
 C/A-ratio  =     1.4411545266
 COS(beta)  =    -0.9607691321
  
  Lattice vectors:
  
 A1 = ( -12.4451508522, -12.9333095551,   0.0000000000)
 A2 = (   0.0000000000,   0.0000000000, -23.1291007996)
 A3 = (  22.4012513161,  12.9333095551,   0.0000000000)
 Subroutine PRICEL returns:
 Original cell was already a primitive cell.
 

Analysis of symmetry for initial positions (statically):

 Routine SETGRP: Setting up the symmetry group for a 
 simple monoclinic supercell.


 Subroutine GETGRP returns: Found  1 space group operations
 (whereof  1 operations were pure point group operations)
 out of a pool of  4 trial point group operations.


The static configuration has the point symmetry C_1 .

Analysis of symmetry for dynamics (positions and initial velocities):

 Subroutine DYNSYM returns: Found  1 space group operations
 (whereof  1 operations were pure point group operations)
 out of a pool of  1 trial space group operations
 (whereof  1 operations were pure point group operations)
 and found also     1 'primitive' translations


The dynamic configuration has the point symmetry C_1 .

Analysis of constrained symmetry for selective dynamics:

 Subroutine DYNSYM returns: Found  1 space group operations
 (whereof  1 operations were pure point group operations)
 out of a pool of  1 trial space group operations
 (whereof  1 operations were pure point group operations)
 and found also     1 'primitive' translations


The constrained configuration has the point symmetry C_1 .

Analysis of magnetic symmetry:

 Subroutine MAGSYM returns: Found  1 space group operations
 (whereof  1 operations were pure point group operations)
 out of a pool of  1 trial space group operations
 (whereof  1 operations were pure point group operations)
 and found also     1 'primitive' translations


The magnetic configuration has the point symmetry C_1 .
 
 KPOINTS: k-points                                

Automatic generation of k-mesh.
 
 Subroutine IBZKPT returns following result:
 ===========================================
 
 Found      1 irreducible k-points:
 
 Following reciprocal coordinates:
            Coordinates               Weight
  0.000000  0.000000  0.000000      1.000000
 
 Following cartesian coordinates:
            Coordinates               Weight
  0.000000  0.000000  0.000000      1.000000
 
    WAVPRE:  cpu time    0.07: real time    0.07
    FEWALD:  cpu time    0.07: real time    0.07
    ORTHCH:  cpu time    2.55: real time    2.59
     LOOP+:  cpu time  394.98: real time  398.29


----------------------------------------- Iteration    7(   1)  ---------------------------------------


    POTLOK:  cpu time    0.36: real time    0.37
    SETDIJ:  cpu time    0.05: real time    0.05
     EDDAV:  cpu time   20.75: real time   20.92
       DOS:  cpu time    0.00: real time    0.00
    CHARGE:  cpu time    1.04: real time    1.04
    MIXING:  cpu time    0.01: real time    0.01
    --------------------------------------------
      LOOP:  cpu time   22.21: real time   22.39

 eigenvalue-minimisations  :  2944
 total energy-change (2. order) : 0.1370166E-01  (-0.8790278E+00)
 number of electron    1085.9999554 magnetization     202.1695233
 augmentation part      617.3198263 magnetization     179.7162286

 Broyden mixing:
  rms(total) = 0.66896E-01    rms(broyden)= 0.66783E-01
  rms(prec ) = 0.67667E-01
  weight for this iteration     100.00

 Free energy of the ion-electron system (eV)
  ---------------------------------------------------
  alpha Z        PSCENC =      2067.85644204
  Ewald energy   TEWEN  =    423821.23579437
  -1/2 Hartree   DENC   =   -519646.71257582
  -exchange  EXHF       =         0.00000000
  -V(xc)+E(xc)   XCENC  =      1982.21936695
  PAW double counting   =    106744.40809818  -113099.62757451
  entropy T*S    EENTRO =        -0.24568130
  eigenvalues    EBANDS =      -722.15881591
  atomic energy  EATOM  =     98035.95264826
  ---------------------------------------------------
  free energy    TOTEN  =      -817.07229774 eV

  energy without entropy =     -816.82661644  energy(sigma->0) =     -817.01087742


--------------------------------------------------------------------------------------------------------




----------------------------------------- Iteration    7(   2)  ---------------------------------------


    POTLOK:  cpu time    0.38: real time    0.38
    SETDIJ:  cpu time    0.06: real time    0.06
    EDDIAG:  cpu time    4.82: real time    4.85
  RMM-DIIS:  cpu time    7.23: real time    7.27
    ORTHCH:  cpu time    1.70: real time    1.71
       DOS:  cpu time    0.00: real time    0.00
    CHARGE:  cpu time    1.03: real time    1.06
    MIXING:  cpu time    0.01: real time    0.01
    --------------------------------------------
      LOOP:  cpu time   15.23: real time   15.34

 eigenvalue-minimisations  :  2965
 total energy-change (2. order) :-0.1724872E-01  (-0.1513410E-01)
 number of electron    1085.9999555 magnetization     202.1688912
 augmentation part      617.2893377 magnetization     179.6722015

 Broyden mixing:
  rms(total) = 0.10141E+00    rms(broyden)= 0.10140E+00
  rms(prec ) = 0.12043E+00
  weight for this iteration     100.00

 eigenvalues of (default mixing * dielectric matrix)
  average eigenvalue GAMMA=   0.1251
  0.1251

 Free energy of the ion-electron system (eV)
  ---------------------------------------------------
  alpha Z        PSCENC =      2067.85644204
  Ewald energy   TEWEN  =    423821.23579437
  -1/2 Hartree   DENC   =   -519649.78676595
  -exchange  EXHF       =         0.00000000
  -V(xc)+E(xc)   XCENC  =      1982.18604470
  PAW double counting   =    106758.14647264  -113113.61131752
  entropy T*S    EENTRO =        -0.24620112
  eigenvalues    EBANDS =      -718.82266388
  atomic energy  EATOM  =     98035.95264826
  ---------------------------------------------------
  free energy    TOTEN  =      -817.08954646 eV

  energy without entropy =     -816.84334533  energy(sigma->0) =     -817.02799618


--------------------------------------------------------------------------------------------------------




----------------------------------------- Iteration    7(   3)  ---------------------------------------


    POTLOK:  cpu time    0.36: real time    0.37
    SETDIJ:  cpu time    0.08: real time    0.08
    EDDIAG:  cpu time    4.39: real time    4.43
  RMM-DIIS:  cpu time    7.23: real time    7.27
    ORTHCH:  cpu time    1.67: real time    1.71
       DOS:  cpu time    0.00: real time    0.00
    CHARGE:  cpu time    1.06: real time    1.08
    MIXING:  cpu time    0.01: real time    0.01
    --------------------------------------------
      LOOP:  cpu time   14.81: real time   14.95

 eigenvalue-minimisations  :  2965
 total energy-change (2. order) : 0.3335612E-03  (-0.1042537E-02)
 number of electron    1085.9999553 magnetization     202.1600891
 augmentation part      617.2963146 magnetization     179.7008105

 Broyden mixing:
  rms(total) = 0.83784E-01    rms(broyden)= 0.83775E-01
  rms(prec ) = 0.11302E+00
  weight for this iteration     100.00

 eigenvalues of (default mixing * dielectric matrix)
  average eigenvalue GAMMA=   0.4718
  0.8552  0.0884

 Free energy of the ion-electron system (eV)
  ---------------------------------------------------
  alpha Z        PSCENC =      2067.85644204
  Ewald energy   TEWEN  =    423821.23579437
  -1/2 Hartree   DENC   =   -519648.85667515
  -exchange  EXHF       =         0.00000000
  -V(xc)+E(xc)   XCENC  =      1982.19208665
  PAW double counting   =    106759.04693999  -113114.48391645
  entropy T*S    EENTRO =        -0.24490019
  eigenvalues    EBANDS =      -719.78763243
  atomic energy  EATOM  =     98035.95264826
  ---------------------------------------------------
  free energy    TOTEN  =      -817.08921290 eV

  energy without entropy =     -816.84431270  energy(sigma->0) =     -817.02798785


--------------------------------------------------------------------------------------------------------




----------------------------------------- Iteration    7(   4)  ---------------------------------------


    POTLOK:  cpu time    0.36: real time    0.36
    SETDIJ:  cpu time    0.05: real time    0.05
    EDDIAG:  cpu time    4.36: real time    4.39
  RMM-DIIS:  cpu time    7.24: real time    7.28
    ORTHCH:  cpu time    1.71: real time    1.72
       DOS:  cpu time    0.00: real time    0.00
    CHARGE:  cpu time    1.07: real time    1.07
    MIXING:  cpu time    0.01: real time    0.01
    --------------------------------------------
      LOOP:  cpu time   14.81: real time   14.91

 eigenvalue-minimisations  :  2970
 total energy-change (2. order) :-0.1714109E-01  (-0.1065778E-02)
 number of electron    1085.9999558 magnetization     202.1523852
 augmentation part      617.3199433 magnetization     179.7006928

 Broyden mixing:
  rms(total) = 0.20113E+00    rms(broyden)= 0.20112E+00
  rms(prec ) = 0.26620E+00
  weight for this iteration     100.00

 eigenvalues of (default mixing * dielectric matrix)
  average eigenvalue GAMMA=   0.4697
  1.2189  0.1224  0.0678

 Free energy of the ion-electron system (eV)
  ---------------------------------------------------
  alpha Z        PSCENC =      2067.85644204
  Ewald energy   TEWEN  =    423821.23579437
  -1/2 Hartree   DENC   =   -519648.31300041
  -exchange  EXHF       =         0.00000000
  -V(xc)+E(xc)   XCENC  =      1982.18547805
  PAW double counting   =    106763.76995453  -113119.07670057
  entropy T*S    EENTRO =        -0.25268231
  eigenvalues    EBANDS =      -720.46428795
  atomic energy  EATOM  =     98035.95264826
  ---------------------------------------------------
  free energy    TOTEN  =      -817.10635398 eV

  energy without entropy =     -816.85367167  energy(sigma->0) =     -817.04318340


--------------------------------------------------------------------------------------------------------




----------------------------------------- Iteration    7(   5)  ---------------------------------------


    POTLOK:  cpu time    0.35: real time    0.36
    SETDIJ:  cpu time    0.05: real time    0.05
    EDDIAG:  cpu time    4.39: real time    4.43
  RMM-DIIS:  cpu time    7.23: real time    7.29
    ORTHCH:  cpu time    1.70: real time    1.70
       DOS:  cpu time    0.00: real time    0.00
    CHARGE:  cpu time    1.08: real time    1.08
    MIXING:  cpu time    0.01: real time    0.01
    --------------------------------------------
      LOOP:  cpu time   14.81: real time   14.93

 eigenvalue-minimisations  :  2970
 total energy-change (2. order) : 0.2037083E-01  (-0.8242685E-03)
 number of electron    1085.9999553 magnetization     202.1459148
 augmentation part      617.3168791 magnetization     179.6675917

 Broyden mixing:
  rms(total) = 0.53095E-01    rms(broyden)= 0.53082E-01
  rms(prec ) = 0.60946E-01
  weight for this iteration     100.00

 eigenvalues of (default mixing * dielectric matrix)
  average eigenvalue GAMMA=   0.5215
  1.5301  0.3847  0.1046  0.0668

 Free energy of the ion-electron system (eV)
  ---------------------------------------------------
  alpha Z        PSCENC =      2067.85644204
  Ewald energy   TEWEN  =    423821.23579437
  -1/2 Hartree   DENC   =   -519650.52468737
  -exchange  EXHF       =         0.00000000
  -V(xc)+E(xc)   XCENC  =      1982.17267231
  PAW double counting   =    106766.89896093  -113122.16622543
  entropy T*S    EENTRO =        -0.24641179
  eigenvalues    EBANDS =      -718.26517646
  atomic energy  EATOM  =     98035.95264826
  ---------------------------------------------------
  free energy    TOTEN  =      -817.08598315 eV

  energy without entropy =     -816.83957136  energy(sigma->0) =     -817.02438020


--------------------------------------------------------------------------------------------------------




----------------------------------------- Iteration    7(   6)  ---------------------------------------


    POTLOK:  cpu time    0.35: real time    0.35
    SETDIJ:  cpu time    0.05: real time    0.05
    EDDIAG:  cpu time    4.39: real time    4.39
  RMM-DIIS:  cpu time    7.18: real time    7.26
    ORTHCH:  cpu time    1.71: real time    1.71
       DOS:  cpu time    0.00: real time    0.00
    CHARGE:  cpu time    1.08: real time    1.08
    MIXING:  cpu time    0.01: real time    0.01
    --------------------------------------------
      LOOP:  cpu time   14.77: real time   14.86

 eigenvalue-minimisations  :  2962
 total energy-change (2. order) :-0.2247409E-02  (-0.4964775E-03)
 number of electron    1085.9999555 magnetization     202.1369364
 augmentation part      617.3065378 magnetization     179.6700319

 Broyden mixing:
  rms(total) = 0.89631E-01    rms(broyden)= 0.89628E-01
  rms(prec ) = 0.10082E+00
  weight for this iteration     100.00

 eigenvalues of (default mixing * dielectric matrix)
  average eigenvalue GAMMA=   0.5984
  1.9697  0.7346  0.0663  0.1023  0.1194

 Free energy of the ion-electron system (eV)
  ---------------------------------------------------
  alpha Z        PSCENC =      2067.85644204
  Ewald energy   TEWEN  =    423821.23579437
  -1/2 Hartree   DENC   =   -519649.13784623
  -exchange  EXHF       =         0.00000000
  -V(xc)+E(xc)   XCENC  =      1982.17388320
  PAW double counting   =    106768.56920511  -113123.89632380
  entropy T*S    EENTRO =        -0.24323054
  eigenvalues    EBANDS =      -719.59880296
  atomic energy  EATOM  =     98035.95264826
  ---------------------------------------------------
  free energy    TOTEN  =      -817.08823056 eV

  energy without entropy =     -816.84500002  energy(sigma->0) =     -817.02742292


--------------------------------------------------------------------------------------------------------




----------------------------------------- Iteration    7(   7)  ---------------------------------------


    POTLOK:  cpu time    0.36: real time    0.37
    SETDIJ:  cpu time    0.05: real time    0.05
    EDDIAG:  cpu time    4.41: real time    4.42
  RMM-DIIS:  cpu time    7.24: real time    7.26
    ORTHCH:  cpu time    1.71: real time    1.72
       DOS:  cpu time    0.00: real time    0.00
    CHARGE:  cpu time    1.07: real time    1.09
    MIXING:  cpu time    0.01: real time    0.01
    --------------------------------------------
      LOOP:  cpu time   14.86: real time   14.94

 eigenvalue-minimisations  :  2962
 total energy-change (2. order) : 0.2876712E-02  (-0.2322463E-03)
 number of electron    1085.9999554 magnetization     202.1345805
 augmentation part      617.2904576 magnetization     179.6472694

 Broyden mixing:
  rms(total) = 0.35390E-01    rms(broyden)= 0.35386E-01
  rms(prec ) = 0.41547E-01
  weight for this iteration     100.00

 eigenvalues of (default mixing * dielectric matrix)
  average eigenvalue GAMMA=   0.5443
  2.0413  0.7694  0.1725  0.0663  0.1203  0.0961

 Free energy of the ion-electron system (eV)
  ---------------------------------------------------
  alpha Z        PSCENC =      2067.85644204
  Ewald energy   TEWEN  =    423821.23579437
  -1/2 Hartree   DENC   =   -519651.73941183
  -exchange  EXHF       =         0.00000000
  -V(xc)+E(xc)   XCENC  =      1982.16744808
  PAW double counting   =    106770.16040454  -113125.58210202
  entropy T*S    EENTRO =        -0.24740647
  eigenvalues    EBANDS =      -716.88917082
  atomic energy  EATOM  =     98035.95264826
  ---------------------------------------------------
  free energy    TOTEN  =      -817.08535385 eV

  energy without entropy =     -816.83794738  energy(sigma->0) =     -817.02350223


--------------------------------------------------------------------------------------------------------




----------------------------------------- Iteration    7(   8)  ---------------------------------------


    POTLOK:  cpu time    0.36: real time    0.37
    SETDIJ:  cpu time    0.05: real time    0.05
    EDDIAG:  cpu time    4.40: real time    4.41
  RMM-DIIS:  cpu time    7.20: real time    7.26
    ORTHCH:  cpu time    1.69: real time    1.69
       DOS:  cpu time    0.00: real time    0.00
    CHARGE:  cpu time    1.17: real time    1.17
    MIXING:  cpu time    0.01: real time    0.01
    --------------------------------------------
      LOOP:  cpu time   14.88: real time   14.97

 eigenvalue-minimisations  :  2968
 total energy-change (2. order) : 0.2602338E-03  (-0.7619377E-04)
 number of electron    1085.9999554 magnetization     202.1288334
 augmentation part      617.2946501 magnetization     179.6509914

 Broyden mixing:
  rms(total) = 0.25866E-01    rms(broyden)= 0.25864E-01
  rms(prec ) = 0.29852E-01
  weight for this iteration     100.00

 eigenvalues of (default mixing * dielectric matrix)
  average eigenvalue GAMMA=   0.5634
  2.1587  0.8947  0.5000  0.0663  0.1261  0.1063  0.0915

 Free energy of the ion-electron system (eV)
  ---------------------------------------------------
  alpha Z        PSCENC =      2067.85644204
  Ewald energy   TEWEN  =    423821.23579437
  -1/2 Hartree   DENC   =   -519651.00749624
  -exchange  EXHF       =         0.00000000
  -V(xc)+E(xc)   XCENC  =      1982.16981172
  PAW double counting   =    106770.24538022  -113125.64694024
  entropy T*S    EENTRO =        -0.24624499
  eigenvalues    EBANDS =      -717.64448877
  atomic energy  EATOM  =     98035.95264826
  ---------------------------------------------------
  free energy    TOTEN  =      -817.08509361 eV

  energy without entropy =     -816.83884862  energy(sigma->0) =     -817.02353236


--------------------------------------------------------------------------------------------------------




----------------------------------------- Iteration    7(   9)  ---------------------------------------


    POTLOK:  cpu time    0.43: real time    0.45
    SETDIJ:  cpu time    0.08: real time    0.08
    EDDIAG:  cpu time    4.74: real time    4.88
  RMM-DIIS:  cpu time    7.24: real time    7.25
    ORTHCH:  cpu time    2.01: real time    2.02
       DOS:  cpu time    0.00: real time    0.00
    CHARGE:  cpu time    1.03: real time    1.04
    MIXING:  cpu time    0.01: real time    0.01
    --------------------------------------------
      LOOP:  cpu time   15.54: real time   15.74

 eigenvalue-minimisations  :  2962
 total energy-change (2. order) :-0.1844179E-05  (-0.3347016E-04)
 number of electron    1085.9999554 magnetization     202.1266422
 augmentation part      617.3024199 magnetization     179.6555584

 Broyden mixing:
  rms(total) = 0.26302E-01    rms(broyden)= 0.26300E-01
  rms(prec ) = 0.30270E-01
  weight for this iteration     100.00

 eigenvalues of (default mixing * dielectric matrix)
  average eigenvalue GAMMA=   0.5270
  2.1967  0.9612  0.5543  0.0663  0.1266  0.1266  0.0923  0.0923

 Free energy of the ion-electron system (eV)
  ---------------------------------------------------
  alpha Z        PSCENC =      2067.85644204
  Ewald energy   TEWEN  =    423821.23579437
  -1/2 Hartree   DENC   =   -519650.72356577
  -exchange  EXHF       =         0.00000000
  -V(xc)+E(xc)   XCENC  =      1982.17439340
  PAW double counting   =    106770.35380464  -113125.69234262
  entropy T*S    EENTRO =        -0.24568425
  eigenvalues    EBANDS =      -717.99658554
  atomic energy  EATOM  =     98035.95264826
  ---------------------------------------------------
  free energy    TOTEN  =      -817.08509546 eV

  energy without entropy =     -816.83941121  energy(sigma->0) =     -817.02367439


--------------------------------------------------------------------------------------------------------




----------------------------------------- Iteration    7(  10)  ---------------------------------------


    POTLOK:  cpu time    0.35: real time    0.35
    SETDIJ:  cpu time    0.05: real time    0.05
    EDDIAG:  cpu time    4.42: real time    4.43
  RMM-DIIS:  cpu time    7.18: real time    7.26
    ORTHCH:  cpu time    1.73: real time    1.73
       DOS:  cpu time    0.00: real time    0.00
    CHARGE:  cpu time    1.07: real time    1.07
    MIXING:  cpu time    0.01: real time    0.01
    --------------------------------------------
      LOOP:  cpu time   14.81: real time   14.92

 eigenvalue-minimisations  :  2962
 total energy-change (2. order) : 0.2406845E-03  (-0.1670171E-04)
 number of electron    1085.9999554 magnetization     202.1226636
 augmentation part      617.3042588 magnetization     179.6526656

 Broyden mixing:
  rms(total) = 0.74993E-02    rms(broyden)= 0.74979E-02
  rms(prec ) = 0.83143E-02
  weight for this iteration     100.00

 eigenvalues of (default mixing * dielectric matrix)
  average eigenvalue GAMMA=   0.5314
  2.1950  1.0281  0.5332  0.5332  0.0663  0.1315  0.1095  0.1000  0.0861

 Free energy of the ion-electron system (eV)
  ---------------------------------------------------
  alpha Z        PSCENC =      2067.85644204
  Ewald energy   TEWEN  =    423821.23579437
  -1/2 Hartree   DENC   =   -519650.99647634
  -exchange  EXHF       =         0.00000000
  -V(xc)+E(xc)   XCENC  =      1982.17552845
  PAW double counting   =    106770.41046882  -113125.73586878
  entropy T*S    EENTRO =        -0.24649486
  eigenvalues    EBANDS =      -717.73689673
  atomic energy  EATOM  =     98035.95264826
  ---------------------------------------------------
  free energy    TOTEN  =      -817.08485477 eV

  energy without entropy =     -816.83835991  energy(sigma->0) =     -817.02323106


--------------------------------------------------------------------------------------------------------




----------------------------------------- Iteration    7(  11)  ---------------------------------------


    POTLOK:  cpu time    0.36: real time    0.36
    SETDIJ:  cpu time    0.05: real time    0.05
    EDDIAG:  cpu time    4.41: real time    4.42
  RMM-DIIS:  cpu time    7.18: real time    7.25
    ORTHCH:  cpu time    1.67: real time    1.70
       DOS:  cpu time    0.00: real time    0.00
    CHARGE:  cpu time    1.07: real time    1.07
    MIXING:  cpu time    0.01: real time    0.01
    --------------------------------------------
      LOOP:  cpu time   14.76: real time   14.88

 eigenvalue-minimisations  :  2958
 total energy-change (2. order) :-0.9426645E-04  (-0.6523222E-05)
 number of electron    1085.9999554 magnetization     202.1165520
 augmentation part      617.3042057 magnetization     179.6482255

 Broyden mixing:
  rms(total) = 0.11008E-01    rms(broyden)= 0.11008E-01
  rms(prec ) = 0.12508E-01
  weight for this iteration     100.00

 eigenvalues of (default mixing * dielectric matrix)
  average eigenvalue GAMMA=   0.5444
  2.2336  1.2357  0.7887  0.5729  0.0663  0.1307  0.1238  0.1096  0.0966  0.0864

 Free energy of the ion-electron system (eV)
  ---------------------------------------------------
  alpha Z        PSCENC =      2067.85644204
  Ewald energy   TEWEN  =    423821.23579437
  -1/2 Hartree   DENC   =   -519650.88864308
  -exchange  EXHF       =         0.00000000
  -V(xc)+E(xc)   XCENC  =      1982.17722997
  PAW double counting   =    106770.45436814  -113125.78545067
  entropy T*S    EENTRO =        -0.24611050
  eigenvalues    EBANDS =      -717.84122758
  atomic energy  EATOM  =     98035.95264826
  ---------------------------------------------------
  free energy    TOTEN  =      -817.08494904 eV

  energy without entropy =     -816.83883854  energy(sigma->0) =     -817.02342141


--------------------------------------------------------------------------------------------------------




----------------------------------------- Iteration    7(  12)  ---------------------------------------


    POTLOK:  cpu time    0.36: real time    0.37
    SETDIJ:  cpu time    0.05: real time    0.05
    EDDIAG:  cpu time    4.41: real time    4.42
  RMM-DIIS:  cpu time    7.17: real time    7.18
    ORTHCH:  cpu time    1.70: real time    1.70
       DOS:  cpu time    0.00: real time    0.00
    CHARGE:  cpu time    1.08: real time    1.08
    MIXING:  cpu time    0.01: real time    0.01
    --------------------------------------------
      LOOP:  cpu time   14.77: real time   14.81

 eigenvalue-minimisations  :  2944
 total energy-change (2. order) :-0.1818231E-04  (-0.3317217E-05)
 number of electron    1085.9999554 magnetization     202.1131510
 augmentation part      617.3018613 magnetization     179.6441842

 Broyden mixing:
  rms(total) = 0.35780E-02    rms(broyden)= 0.35776E-02
  rms(prec ) = 0.41664E-02
  weight for this iteration     100.00

 eigenvalues of (default mixing * dielectric matrix)
  average eigenvalue GAMMA=   0.5392
  2.2542  1.3342  0.8236  0.5927  0.3179  0.0663  0.1350  0.1183  0.1060  0.0972
  0.0860

 Free energy of the ion-electron system (eV)
  ---------------------------------------------------
  alpha Z        PSCENC =      2067.85644204
  Ewald energy   TEWEN  =    423821.23579437
  -1/2 Hartree   DENC   =   -519651.27612110
  -exchange  EXHF       =         0.00000000
  -V(xc)+E(xc)   XCENC  =      1982.17883217
  PAW double counting   =    106770.56945180  -113125.91035825
  entropy T*S    EENTRO =        -0.24651901
  eigenvalues    EBANDS =      -717.44513751
  atomic energy  EATOM  =     98035.95264826
  ---------------------------------------------------
  free energy    TOTEN  =      -817.08496722 eV

  energy without entropy =     -816.83844822  energy(sigma->0) =     -817.02333747


--------------------------------------------------------------------------------------------------------




----------------------------------------- Iteration    7(  13)  ---------------------------------------


    POTLOK:  cpu time    0.37: real time    0.37
    SETDIJ:  cpu time    0.05: real time    0.05
    EDDIAG:  cpu time    4.37: real time    4.41
  RMM-DIIS:  cpu time    7.16: real time    7.19
    ORTHCH:  cpu time    1.69: real time    1.70
       DOS:  cpu time    0.00: real time    0.00
    CHARGE:  cpu time    1.06: real time    1.09
    MIXING:  cpu time    0.01: real time    0.01
    --------------------------------------------
      LOOP:  cpu time   14.72: real time   14.83

 eigenvalue-minimisations  :  2944
 total energy-change (2. order) :-0.6172807E-04  (-0.1740521E-05)
 number of electron    1085.9999554 magnetization     202.1042427
 augmentation part      617.3022127 magnetization     179.6361420

 Broyden mixing:
  rms(total) = 0.49850E-02    rms(broyden)= 0.49848E-02
  rms(prec ) = 0.55979E-02
  weight for this iteration     100.00

 eigenvalues of (default mixing * dielectric matrix)
  average eigenvalue GAMMA=   0.5841
  2.4162  1.6692  0.9443  0.7161  0.5324  0.0663  0.1347  0.1256  0.1164  0.1048
  0.0971  0.0860

 Free energy of the ion-electron system (eV)
  ---------------------------------------------------
  alpha Z        PSCENC =      2067.85644204
  Ewald energy   TEWEN  =    423821.23579437
  -1/2 Hartree   DENC   =   -519651.26053866
  -exchange  EXHF       =         0.00000000
  -V(xc)+E(xc)   XCENC  =      1982.17917885
  PAW double counting   =    106770.56632717  -113125.90347317
  entropy T*S    EENTRO =        -0.24625118
  eigenvalues    EBANDS =      -717.46515663
  atomic energy  EATOM  =     98035.95264826
  ---------------------------------------------------
  free energy    TOTEN  =      -817.08502895 eV

  energy without entropy =     -816.83877777  energy(sigma->0) =     -817.02346616


--------------------------------------------------------------------------------------------------------




----------------------------------------- Iteration    7(  14)  ---------------------------------------


    POTLOK:  cpu time    0.35: real time    0.36
    SETDIJ:  cpu time    0.05: real time    0.05
    EDDIAG:  cpu time    4.38: real time    4.40
  RMM-DIIS:  cpu time    7.02: real time    7.08
    ORTHCH:  cpu time    1.69: real time    1.70
       DOS:  cpu time    0.00: real time    0.00
    CHARGE:  cpu time    1.06: real time    1.09
    MIXING:  cpu time    0.01: real time    0.01
    --------------------------------------------
      LOOP:  cpu time   14.58: real time   14.70

 eigenvalue-minimisations  :  2893
 total energy-change (2. order) :-0.1233170E-03  (-0.1288624E-05)
 number of electron    1085.9999554 magnetization     202.1017679
 augmentation part      617.3035758 magnetization     179.6361800

 Broyden mixing:
  rms(total) = 0.26264E-02    rms(broyden)= 0.26262E-02
  rms(prec ) = 0.29047E-02
  weight for this iteration     100.00

 eigenvalues of (default mixing * dielectric matrix)
  average eigenvalue GAMMA=   0.5673
  2.4606  1.7419  0.9521  0.7328  0.5369  0.2218  0.0663  0.1377  0.1254  0.0861
  0.0970  0.1056  0.1114

 Free energy of the ion-electron system (eV)
  ---------------------------------------------------
  alpha Z        PSCENC =      2067.85644204
  Ewald energy   TEWEN  =    423821.23579437
  -1/2 Hartree   DENC   =   -519651.40959347
  -exchange  EXHF       =         0.00000000
  -V(xc)+E(xc)   XCENC  =      1982.17970839
  PAW double counting   =    106770.56776628  -113125.89344217
  entropy T*S    EENTRO =        -0.24642771
  eigenvalues    EBANDS =      -717.32804826
  atomic energy  EATOM  =     98035.95264826
  ---------------------------------------------------
  free energy    TOTEN  =      -817.08515227 eV

  energy without entropy =     -816.83872456  energy(sigma->0) =     -817.02354534


--------------------------------------------------------------------------------------------------------




----------------------------------------- Iteration    7(  15)  ---------------------------------------


    POTLOK:  cpu time    0.36: real time    0.37
    SETDIJ:  cpu time    0.05: real time    0.05
    EDDIAG:  cpu time    4.41: real time    4.42
  RMM-DIIS:  cpu time    6.08: real time    6.18
    ORTHCH:  cpu time    1.72: real time    1.72
       DOS:  cpu time    0.00: real time    0.00
    CHARGE:  cpu time    1.07: real time    1.07
    MIXING:  cpu time    0.01: real time    0.01
    --------------------------------------------
      LOOP:  cpu time   13.71: real time   13.84

 eigenvalue-minimisations  :  2504
 total energy-change (2. order) :-0.4662265E-04  (-0.4953660E-06)
 number of electron    1085.9999554 magnetization     202.0937433
 augmentation part      617.3035998 magnetization     179.6287962

 Broyden mixing:
  rms(total) = 0.24623E-02    rms(broyden)= 0.24622E-02
  rms(prec ) = 0.27078E-02
  weight for this iteration     100.00

 eigenvalues of (default mixing * dielectric matrix)
  average eigenvalue GAMMA=   0.6101
  2.6909  1.9445  0.9403  0.9403  0.6568  0.5214  0.0663  0.1379  0.0860  0.1275
  0.0971  0.1177  0.1113  0.1038

 Free energy of the ion-electron system (eV)
  ---------------------------------------------------
  alpha Z        PSCENC =      2067.85644204
  Ewald energy   TEWEN  =    423821.23579437
  -1/2 Hartree   DENC   =   -519651.42847622
  -exchange  EXHF       =         0.00000000
  -V(xc)+E(xc)   XCENC  =      1982.17988314
  PAW double counting   =    106770.56563764  -113125.89133858
  entropy T*S    EENTRO =        -0.24633669
  eigenvalues    EBANDS =      -717.30945285
  atomic energy  EATOM  =     98035.95264826
  ---------------------------------------------------
  free energy    TOTEN  =      -817.08519889 eV

  energy without entropy =     -816.83886220  energy(sigma->0) =     -817.02361472


--------------------------------------------------------------------------------------------------------




----------------------------------------- Iteration    7(  16)  ---------------------------------------


    POTLOK:  cpu time    0.35: real time    0.36
    SETDIJ:  cpu time    0.05: real time    0.05
    EDDIAG:  cpu time    4.41: real time    4.42
  RMM-DIIS:  cpu time    5.56: real time    5.63
    ORTHCH:  cpu time    1.64: real time    1.67
       DOS:  cpu time    0.00: real time    0.00
    CHARGE:  cpu time    1.05: real time    1.06
    MIXING:  cpu time    0.01: real time    0.01
    --------------------------------------------
      LOOP:  cpu time   13.09: real time   13.20

 eigenvalue-minimisations  :  2228
 total energy-change (2. order) :-0.1625695E-03  (-0.5321726E-06)
 number of electron    1085.9999554 magnetization     202.0913336
 augmentation part      617.3030277 magnetization     179.6279660

 Broyden mixing:
  rms(total) = 0.24135E-02    rms(broyden)= 0.24134E-02
  rms(prec ) = 0.27151E-02
  weight for this iteration     100.00

 eigenvalues of (default mixing * dielectric matrix)
  average eigenvalue GAMMA=   0.5901
  2.7491  1.9841  0.9720  0.9720  0.6715  0.5222  0.0663  0.1408  0.1332  0.1332
  0.0860  0.1153  0.0968  0.1042  0.1042

 Free energy of the ion-electron system (eV)
  ---------------------------------------------------
  alpha Z        PSCENC =      2067.85644204
  Ewald energy   TEWEN  =    423821.23579437
  -1/2 Hartree   DENC   =   -519651.56360248
  -exchange  EXHF       =         0.00000000
  -V(xc)+E(xc)   XCENC  =      1982.18051972
  PAW double counting   =    106770.57009699  -113125.90044895
  entropy T*S    EENTRO =        -0.24638178
  eigenvalues    EBANDS =      -717.17042962
  atomic energy  EATOM  =     98035.95264826
  ---------------------------------------------------
  free energy    TOTEN  =      -817.08536146 eV

  energy without entropy =     -816.83897967  energy(sigma->0) =     -817.02376601


--------------------------------------------------------------------------------------------------------




----------------------------------------- Iteration    7(  17)  ---------------------------------------


    POTLOK:  cpu time    0.35: real time    0.35
    SETDIJ:  cpu time    0.05: real time    0.05
    EDDIAG:  cpu time    4.36: real time    4.38
  RMM-DIIS:  cpu time    4.57: real time    4.59
    ORTHCH:  cpu time    1.69: real time    1.70
       DOS:  cpu time    0.00: real time    0.00
    CHARGE:  cpu time    1.08: real time    1.08
    MIXING:  cpu time    0.01: real time    0.01
    --------------------------------------------
      LOOP:  cpu time   12.12: real time   12.17

 eigenvalue-minimisations  :  1774
 total energy-change (2. order) :-0.4765144E-04  (-0.2193664E-06)
 number of electron    1085.9999554 magnetization     202.0845770
 augmentation part      617.3030455 magnetization     179.6219544

 Broyden mixing:
  rms(total) = 0.14824E-02    rms(broyden)= 0.14823E-02
  rms(prec ) = 0.16571E-02
  weight for this iteration     100.00

 eigenvalues of (default mixing * dielectric matrix)
  average eigenvalue GAMMA=   0.6181
  2.8696  2.1260  1.0803  1.0803  0.7191  0.5333  0.5333  0.0663  0.1385  0.1302
  0.1189  0.0860  0.1110  0.1056  0.0969  0.0940

 Free energy of the ion-electron system (eV)
  ---------------------------------------------------
  alpha Z        PSCENC =      2067.85644204
  Ewald energy   TEWEN  =    423821.23579437
  -1/2 Hartree   DENC   =   -519651.59478562
  -exchange  EXHF       =         0.00000000
  -V(xc)+E(xc)   XCENC  =      1982.18066956
  PAW double counting   =    106770.56841414  -113125.89970160
  entropy T*S    EENTRO =        -0.24640931
  eigenvalues    EBANDS =      -717.13848095
  atomic energy  EATOM  =     98035.95264826
  ---------------------------------------------------
  free energy    TOTEN  =      -817.08540911 eV

  energy without entropy =     -816.83899980  energy(sigma->0) =     -817.02380678


--------------------------------------------------------------------------------------------------------




----------------------------------------- Iteration    7(  18)  ---------------------------------------


    POTLOK:  cpu time    0.36: real time    0.37
    SETDIJ:  cpu time    0.05: real time    0.05
    EDDIAG:  cpu time    4.77: real time    4.79
  RMM-DIIS:  cpu time    5.50: real time    5.58
    ORTHCH:  cpu time    1.69: real time    1.69
       DOS:  cpu time    0.00: real time    0.00
    CHARGE:  cpu time    1.05: real time    1.09
    MIXING:  cpu time    0.02: real time    0.02
    --------------------------------------------
      LOOP:  cpu time   13.44: real time   13.58

 eigenvalue-minimisations  :  2206
 total energy-change (2. order) :-0.1463152E-03  (-0.4713111E-06)
 number of electron    1085.9999554 magnetization     202.0762914
 augmentation part      617.3030612 magnetization     179.6151563

 Broyden mixing:
  rms(total) = 0.27606E-02    rms(broyden)= 0.27605E-02
  rms(prec ) = 0.31121E-02
  weight for this iteration     100.00

 eigenvalues of (default mixing * dielectric matrix)
  average eigenvalue GAMMA=   0.6509
  3.2538  2.3063  1.4370  1.0788  0.7813  0.6134  0.5340  0.0663  0.1400  0.1271
  0.1271  0.1175  0.1088  0.1029  0.0971  0.0860  0.0875

 Free energy of the ion-electron system (eV)
  ---------------------------------------------------
  alpha Z        PSCENC =      2067.85644204
  Ewald energy   TEWEN  =    423821.23579437
  -1/2 Hartree   DENC   =   -519651.66366954
  -exchange  EXHF       =         0.00000000
  -V(xc)+E(xc)   XCENC  =      1982.18077736
  PAW double counting   =    106770.55266000  -113125.88493941
  entropy T*S    EENTRO =        -0.24640306
  eigenvalues    EBANDS =      -717.06886545
  atomic energy  EATOM  =     98035.95264826
  ---------------------------------------------------
  free energy    TOTEN  =      -817.08555543 eV

  energy without entropy =     -816.83915237  energy(sigma->0) =     -817.02395466


--------------------------------------------------------------------------------------------------------




----------------------------------------- Iteration    7(  19)  ---------------------------------------


    POTLOK:  cpu time    0.35: real time    0.35
    SETDIJ:  cpu time    0.05: real time    0.05
    EDDIAG:  cpu time    4.35: real time    4.39
  RMM-DIIS:  cpu time    5.82: real time    5.87
    ORTHCH:  cpu time    1.68: real time    1.69
       DOS:  cpu time    0.00: real time    0.00
    CHARGE:  cpu time    1.06: real time    1.06
    MIXING:  cpu time    0.02: real time    0.02
    --------------------------------------------
      LOOP:  cpu time   13.33: real time   13.44

 eigenvalue-minimisations  :  2341
 total energy-change (2. order) :-0.1475368E-03  (-0.6149850E-06)
 number of electron    1085.9999554 magnetization     202.0705493
 augmentation part      617.3030176 magnetization     179.6111856

 Broyden mixing:
  rms(total) = 0.10835E-02    rms(broyden)= 0.10834E-02
  rms(prec ) = 0.12163E-02
  weight for this iteration     100.00

 eigenvalues of (default mixing * dielectric matrix)
  average eigenvalue GAMMA=   0.6693
  3.5976  2.3761  1.5314  1.0662  0.8144  0.6300  0.5225  0.4516  0.0663  0.1385
  0.1331  0.1230  0.1145  0.1082  0.1046  0.0970  0.0860  0.0866

 Free energy of the ion-electron system (eV)
  ---------------------------------------------------
  alpha Z        PSCENC =      2067.85644204
  Ewald energy   TEWEN  =    423821.23579437
  -1/2 Hartree   DENC   =   -519651.75680330
  -exchange  EXHF       =         0.00000000
  -V(xc)+E(xc)   XCENC  =      1982.18090654
  PAW double counting   =    106770.54189148  -113125.87468378
  entropy T*S    EENTRO =        -0.24640620
  eigenvalues    EBANDS =      -716.97549237
  atomic energy  EATOM  =     98035.95264826
  ---------------------------------------------------
  free energy    TOTEN  =      -817.08570296 eV

  energy without entropy =     -816.83929676  energy(sigma->0) =     -817.02410141


--------------------------------------------------------------------------------------------------------




----------------------------------------- Iteration    7(  20)  ---------------------------------------


    POTLOK:  cpu time    0.35: real time    0.35
    SETDIJ:  cpu time    0.05: real time    0.05
    EDDIAG:  cpu time    4.37: real time    4.39
  RMM-DIIS:  cpu time    5.29: real time    5.30
    ORTHCH:  cpu time    1.70: real time    1.71
       DOS:  cpu time    0.00: real time    0.00
    CHARGE:  cpu time    1.04: real time    1.05
    MIXING:  cpu time    0.02: real time    0.02
    --------------------------------------------
      LOOP:  cpu time   12.83: real time   12.88

 eigenvalue-minimisations  :  2093
 total energy-change (2. order) :-0.9502505E-04  (-0.4177585E-06)
 number of electron    1085.9999554 magnetization     202.0606864
 augmentation part      617.3031099 magnetization     179.6026366

 Broyden mixing:
  rms(total) = 0.20459E-02    rms(broyden)= 0.20458E-02
  rms(prec ) = 0.22156E-02
  weight for this iteration     100.00

 eigenvalues of (default mixing * dielectric matrix)
  average eigenvalue GAMMA=   0.7536
  4.9101  2.4795  1.7556  1.0577  1.0577  0.7372  0.6021  0.5379  0.0663  0.1393
  0.1321  0.1243  0.1243  0.1132  0.0970  0.1041  0.1073  0.0860  0.0864

 Free energy of the ion-electron system (eV)
  ---------------------------------------------------
  alpha Z        PSCENC =      2067.85644204
  Ewald energy   TEWEN  =    423821.23579437
  -1/2 Hartree   DENC   =   -519651.80704999
  -exchange  EXHF       =         0.00000000
  -V(xc)+E(xc)   XCENC  =      1982.18095584
  PAW double counting   =    106770.55054449  -113125.88303600
  entropy T*S    EENTRO =        -0.24641219
  eigenvalues    EBANDS =      -716.92568480
  atomic energy  EATOM  =     98035.95264826
  ---------------------------------------------------
  free energy    TOTEN  =      -817.08579799 eV

  energy without entropy =     -816.83938580  energy(sigma->0) =     -817.02419494


--------------------------------------------------------------------------------------------------------




----------------------------------------- Iteration    7(  21)  ---------------------------------------


    POTLOK:  cpu time    0.35: real time    0.35
    SETDIJ:  cpu time    0.05: real time    0.05
    EDDIAG:  cpu time    4.33: real time    4.37
  RMM-DIIS:  cpu time    5.82: real time    5.83
    ORTHCH:  cpu time    1.72: real time    1.72
       DOS:  cpu time    0.00: real time    0.00
    CHARGE:  cpu time    1.07: real time    1.07
    MIXING:  cpu time    0.02: real time    0.02
    --------------------------------------------
      LOOP:  cpu time   13.36: real time   13.42

 eigenvalue-minimisations  :  2310
 total energy-change (2. order) :-0.1250378E-03  (-0.7790628E-06)
 number of electron    1085.9999554 magnetization     202.0583129
 augmentation part      617.3033034 magnetization     179.6024248

 Broyden mixing:
  rms(total) = 0.82949E-03    rms(broyden)= 0.82941E-03
  rms(prec ) = 0.90536E-03
  weight for this iteration     100.00

 eigenvalues of (default mixing * dielectric matrix)
  average eigenvalue GAMMA=   0.7771
  5.6281  2.5021  1.8477  1.0941  1.0941  0.7446  0.6064  0.5347  0.3146  0.0663
  0.1392  0.1342  0.1267  0.0970  0.1167  0.1123  0.1039  0.1072  0.0860  0.0865

 Free energy of the ion-electron system (eV)
  ---------------------------------------------------
  alpha Z        PSCENC =      2067.85644204
  Ewald energy   TEWEN  =    423821.23579437
  -1/2 Hartree   DENC   =   -519651.89089317
  -exchange  EXHF       =         0.00000000
  -V(xc)+E(xc)   XCENC  =      1982.18109258
  PAW double counting   =    106770.57556643  -113125.90749127
  entropy T*S    EENTRO =        -0.24641854
  eigenvalues    EBANDS =      -716.84266373
  atomic energy  EATOM  =     98035.95264826
  ---------------------------------------------------
  free energy    TOTEN  =      -817.08592302 eV

  energy without entropy =     -816.83950448  energy(sigma->0) =     -817.02431839


--------------------------------------------------------------------------------------------------------




----------------------------------------- Iteration    7(  22)  ---------------------------------------


    POTLOK:  cpu time    0.35: real time    0.36
    SETDIJ:  cpu time    0.05: real time    0.05
    EDDIAG:  cpu time    4.39: real time    4.42
  RMM-DIIS:  cpu time    4.59: real time    4.61
    ORTHCH:  cpu time    1.68: real time    1.69
       DOS:  cpu time    0.00: real time    0.00
    CHARGE:  cpu time    1.03: real time    1.06
    MIXING:  cpu time    0.02: real time    0.02
    --------------------------------------------
      LOOP:  cpu time   12.12: real time   12.22

 eigenvalue-minimisations  :  1761
 total energy-change (2. order) :-0.2848580E-04  (-0.1556194E-06)
 number of electron    1085.9999554 magnetization     202.0535693
 augmentation part      617.3031879 magnetization     179.5982101

 Broyden mixing:
  rms(total) = 0.10325E-02    rms(broyden)= 0.10325E-02
  rms(prec ) = 0.11205E-02
  weight for this iteration     100.00

 eigenvalues of (default mixing * dielectric matrix)
  average eigenvalue GAMMA=   0.8811
  7.6466  2.5846  1.9960  1.1957  1.1957  0.7671  0.6759  0.6065  0.5393  0.0663
  0.1387  0.1361  0.1272  0.1226  0.1158  0.0970  0.1097  0.1046  0.1046  0.0860
  0.0864

 Free energy of the ion-electron system (eV)
  ---------------------------------------------------
  alpha Z        PSCENC =      2067.85644204
  Ewald energy   TEWEN  =    423821.23579437
  -1/2 Hartree   DENC   =   -519651.90802039
  -exchange  EXHF       =         0.00000000
  -V(xc)+E(xc)   XCENC  =      1982.18117703
  PAW double counting   =    106770.59263329  -113125.92500061
  entropy T*S    EENTRO =        -0.24642477
  eigenvalues    EBANDS =      -716.82520074
  atomic energy  EATOM  =     98035.95264826
  ---------------------------------------------------
  free energy    TOTEN  =      -817.08595151 eV

  energy without entropy =     -816.83952674  energy(sigma->0) =     -817.02434532


--------------------------------------------------------------------------------------------------------




----------------------------------------- Iteration    7(  23)  ---------------------------------------


    POTLOK:  cpu time    0.35: real time    0.38
    SETDIJ:  cpu time    0.05: real time    0.05
    EDDIAG:  cpu time    4.40: real time    4.41
  RMM-DIIS:  cpu time    4.92: real time    4.94
    ORTHCH:  cpu time    1.70: real time    1.70
       DOS:  cpu time    0.00: real time    0.00
    CHARGE:  cpu time    1.08: real time    1.09
    MIXING:  cpu time    0.02: real time    0.02
    --------------------------------------------
      LOOP:  cpu time   12.53: real time   12.60

 eigenvalue-minimisations  :  1902
 total energy-change (2. order) :-0.5121357E-04  (-0.2579150E-06)
 number of electron    1085.9999554 magnetization     202.0527046
 augmentation part      617.3031081 magnetization     179.5984026

 Broyden mixing:
  rms(total) = 0.44517E-03    rms(broyden)= 0.44514E-03
  rms(prec ) = 0.48396E-03
  weight for this iteration     100.00

 eigenvalues of (default mixing * dielectric matrix)
  average eigenvalue GAMMA=   0.8830
  8.1670  2.5989  2.0391  1.2172  1.2172  0.7680  0.6934  0.6068  0.5388  0.2842
  0.0663  0.1402  0.1336  0.1305  0.1215  0.1145  0.0970  0.1091  0.1036  0.1057
  0.0860  0.0864

 Free energy of the ion-electron system (eV)
  ---------------------------------------------------
  alpha Z        PSCENC =      2067.85644204
  Ewald energy   TEWEN  =    423821.23579437
  -1/2 Hartree   DENC   =   -519651.93330462
  -exchange  EXHF       =         0.00000000
  -V(xc)+E(xc)   XCENC  =      1982.18140264
  PAW double counting   =    106770.63409976  -113125.96775077
  entropy T*S    EENTRO =        -0.24644177
  eigenvalues    EBANDS =      -716.79889264
  atomic energy  EATOM  =     98035.95264826
  ---------------------------------------------------
  free energy    TOTEN  =      -817.08600272 eV

  energy without entropy =     -816.83956095  energy(sigma->0) =     -817.02439228


--------------------------------------------------------------------------------------------------------




----------------------------------------- Iteration    7(  24)  ---------------------------------------


    POTLOK:  cpu time    0.35: real time    0.35
    SETDIJ:  cpu time    0.05: real time    0.05
    EDDIAG:  cpu time    4.37: real time    4.39
  RMM-DIIS:  cpu time    4.35: real time    4.36
    ORTHCH:  cpu time    1.67: real time    1.68
       DOS:  cpu time    0.00: real time    0.00
    CHARGE:  cpu time    1.06: real time    1.06
    MIXING:  cpu time    0.04: real time    0.04
    --------------------------------------------
      LOOP:  cpu time   11.89: real time   11.93

 eigenvalue-minimisations  :  1645
 total energy-change (2. order) :-0.1050755E-04  (-0.5319190E-07)
 number of electron    1085.9999554 magnetization     202.0509869
 augmentation part      617.3031302 magnetization     179.5968855

 Broyden mixing:
  rms(total) = 0.50791E-03    rms(broyden)= 0.50789E-03
  rms(prec ) = 0.54799E-03
  weight for this iteration     100.00

 eigenvalues of (default mixing * dielectric matrix)
  average eigenvalue GAMMA=   0.9406
  9.3512  2.6541  2.1685  1.4111  1.1741  0.8309  0.8309  0.6615  0.5931  0.5426
  0.0663  0.1398  0.1355  0.1322  0.0860  0.0864  0.1236  0.1204  0.0970  0.1132
  0.1086  0.1037  0.1041

 Free energy of the ion-electron system (eV)
  ---------------------------------------------------
  alpha Z        PSCENC =      2067.85644204
  Ewald energy   TEWEN  =    423821.23579437
  -1/2 Hartree   DENC   =   -519651.93195672
  -exchange  EXHF       =         0.00000000
  -V(xc)+E(xc)   XCENC  =      1982.18142165
  PAW double counting   =    106770.64601077  -113125.97960132
  entropy T*S    EENTRO =        -0.24644807
  eigenvalues    EBANDS =      -716.80032421
  atomic energy  EATOM  =     98035.95264826
  ---------------------------------------------------
  free energy    TOTEN  =      -817.08601323 eV

  energy without entropy =     -816.83956516  energy(sigma->0) =     -817.02440121


--------------------------------------------------------------------------------------------------------




----------------------------------------- Iteration    7(  25)  ---------------------------------------


    POTLOK:  cpu time    0.36: real time    0.36
    SETDIJ:  cpu time    0.05: real time    0.05
    EDDIAG:  cpu time    4.42: real time    4.43
  RMM-DIIS:  cpu time    4.43: real time    4.48
    ORTHCH:  cpu time    1.73: real time    1.73
       DOS:  cpu time    0.00: real time    0.00
    CHARGE:  cpu time    1.19: real time    1.24
    MIXING:  cpu time    0.02: real time    0.03
    --------------------------------------------
      LOOP:  cpu time   12.20: real time   12.33

 eigenvalue-minimisations  :  1715
 total energy-change (2. order) :-0.2108001E-04  (-0.7869992E-07)
 number of electron    1085.9999554 magnetization     202.0507045
 augmentation part      617.3031482 magnetization     179.5970305

 Broyden mixing:
  rms(total) = 0.27295E-03    rms(broyden)= 0.27293E-03
  rms(prec ) = 0.29810E-03
  weight for this iteration     100.00

 eigenvalues of (default mixing * dielectric matrix)
  average eigenvalue GAMMA=   0.9278
  9.5935  2.6660  2.2073  1.4722  1.1542  0.8797  0.8253  0.6709  0.5917  0.5430
  0.2497  0.0663  0.1403  0.1358  0.1305  0.1247  0.0860  0.0864  0.0970  0.1160
  0.1140  0.1032  0.1049  0.1082

 Free energy of the ion-electron system (eV)
  ---------------------------------------------------
  alpha Z        PSCENC =      2067.85644204
  Ewald energy   TEWEN  =    423821.23579437
  -1/2 Hartree   DENC   =   -519651.91886222
  -exchange  EXHF       =         0.00000000
  -V(xc)+E(xc)   XCENC  =      1982.18143183
  PAW double counting   =    106770.67503610  -113126.00826676
  entropy T*S    EENTRO =        -0.24644370
  eigenvalues    EBANDS =      -716.81381424
  atomic energy  EATOM  =     98035.95264826
  ---------------------------------------------------
  free energy    TOTEN  =      -817.08603431 eV

  energy without entropy =     -816.83959061  energy(sigma->0) =     -817.02442339


--------------------------------------------------------------------------------------------------------




----------------------------------------- Iteration    7(  26)  ---------------------------------------


    POTLOK:  cpu time    0.34: real time    0.42
    SETDIJ:  cpu time    0.05: real time    0.05
    EDDIAG:  cpu time    4.35: real time    4.38
  RMM-DIIS:  cpu time    4.20: real time    4.22
    ORTHCH:  cpu time    1.71: real time    1.71
       DOS:  cpu time    0.00: real time    0.00
    CHARGE:  cpu time    1.09: real time    1.09
    MIXING:  cpu time    0.02: real time    0.02
    --------------------------------------------
      LOOP:  cpu time   11.77: real time   11.89

 eigenvalue-minimisations  :  1607
 total energy-change (2. order) :-0.3795489E-05  (-0.1785464E-07)
 number of electron    1085.9999554 magnetization     202.0501347
 augmentation part      617.3031756 magnetization     179.5965352

 Broyden mixing:
  rms(total) = 0.26414E-03    rms(broyden)= 0.26413E-03
  rms(prec ) = 0.28943E-03
  weight for this iteration     100.00

 eigenvalues of (default mixing * dielectric matrix)
  average eigenvalue GAMMA=   0.9501
 10.0878  2.7060  2.3397  1.6099  1.1223  0.9909  0.8870  0.7254  0.6055  0.6055
  0.5399  0.0663  0.1405  0.1369  0.1326  0.0860  0.0864  0.1268  0.0970  0.1206
  0.1153  0.1027  0.1041  0.1102  0.1074

 Free energy of the ion-electron system (eV)
  ---------------------------------------------------
  alpha Z        PSCENC =      2067.85644204
  Ewald energy   TEWEN  =    423821.23579437
  -1/2 Hartree   DENC   =   -519651.91343055
  -exchange  EXHF       =         0.00000000
  -V(xc)+E(xc)   XCENC  =      1982.18143196
  PAW double counting   =    106770.68155124  -113126.01471969
  entropy T*S    EENTRO =        -0.24644534
  eigenvalues    EBANDS =      -716.81931041
  atomic energy  EATOM  =     98035.95264826
  ---------------------------------------------------
  free energy    TOTEN  =      -817.08603811 eV

  energy without entropy =     -816.83959277  energy(sigma->0) =     -817.02442677


--------------------------------------------------------------------------------------------------------




----------------------------------------- Iteration    7(  27)  ---------------------------------------


    POTLOK:  cpu time    0.37: real time    0.37
    SETDIJ:  cpu time    0.05: real time    0.05
    EDDIAG:  cpu time    4.40: real time    4.41
  RMM-DIIS:  cpu time    4.28: real time    4.30
    ORTHCH:  cpu time    1.69: real time    1.69
       DOS:  cpu time    0.00: real time    0.00
    CHARGE:  cpu time    1.08: real time    1.08
    MIXING:  cpu time    0.02: real time    0.02
    --------------------------------------------
      LOOP:  cpu time   11.90: real time   11.94

 eigenvalue-minimisations  :  1623
 total energy-change (2. order) :-0.7809780E-05  (-0.2365474E-07)
 number of electron    1085.9999554 magnetization     202.0500119
 augmentation part      617.3031664 magnetization     179.5965618

 Broyden mixing:
  rms(total) = 0.15787E-03    rms(broyden)= 0.15786E-03
  rms(prec ) = 0.17716E-03
  weight for this iteration     100.00

 eigenvalues of (default mixing * dielectric matrix)
  average eigenvalue GAMMA=   0.9330
 10.1961  2.7212  2.3819  1.6363  1.1140  1.0200  0.9072  0.7418  0.6112  0.6056
  0.5416  0.2530  0.0663  0.1402  0.1371  0.1318  0.0860  0.0864  0.1265  0.1205
  0.0970  0.1142  0.1095  0.1067  0.1044  0.1025

 Free energy of the ion-electron system (eV)
  ---------------------------------------------------
  alpha Z        PSCENC =      2067.85644204
  Ewald energy   TEWEN  =    423821.23579437
  -1/2 Hartree   DENC   =   -519651.89700137
  -exchange  EXHF       =         0.00000000
  -V(xc)+E(xc)   XCENC  =      1982.18142272
  PAW double counting   =    106770.69783417  -113126.03101847
  entropy T*S    EENTRO =        -0.24644101
  eigenvalues    EBANDS =      -716.83572664
  atomic energy  EATOM  =     98035.95264826
  ---------------------------------------------------
  free energy    TOTEN  =      -817.08604592 eV

  energy without entropy =     -816.83960491  energy(sigma->0) =     -817.02443567


--------------------------------------------------------------------------------------------------------




----------------------------------------- Iteration    7(  28)  ---------------------------------------


    POTLOK:  cpu time    0.36: real time    0.37
    SETDIJ:  cpu time    0.05: real time    0.05
    EDDIAG:  cpu time    4.40: real time    4.41
  RMM-DIIS:  cpu time    3.93: real time    3.94
    ORTHCH:  cpu time    1.69: real time    1.69
       DOS:  cpu time    0.00: real time    0.00
    CHARGE:  cpu time    1.03: real time    1.05
    MIXING:  cpu time    0.02: real time    0.02
    --------------------------------------------
      LOOP:  cpu time   11.48: real time   11.54

 eigenvalue-minimisations  :  1457
 total energy-change (2. order) :-0.1813052E-05  (-0.6402502E-08)
 number of electron    1085.9999554 magnetization     202.0497299
 augmentation part      617.3031722 magnetization     179.5962979

 Broyden mixing:
  rms(total) = 0.15244E-03    rms(broyden)= 0.15243E-03
  rms(prec ) = 0.17239E-03
  weight for this iteration     100.00

 eigenvalues of (default mixing * dielectric matrix)
  average eigenvalue GAMMA=   0.9474
 10.4121  2.8156  2.4828  1.7621  1.1673  1.1673  0.8555  0.8555  0.6847  0.5947
  0.5947  0.5371  0.0663  0.0860  0.0864  0.1404  0.1377  0.1333  0.1294  0.1231
  0.0970  0.1180  0.1138  0.1088  0.1054  0.1039  0.1016

 Free energy of the ion-electron system (eV)
  ---------------------------------------------------
  alpha Z        PSCENC =      2067.85644204
  Ewald energy   TEWEN  =    423821.23579437
  -1/2 Hartree   DENC   =   -519651.89156564
  -exchange  EXHF       =         0.00000000
  -V(xc)+E(xc)   XCENC  =      1982.18141334
  PAW double counting   =    106770.70194743  -113126.03514217
  entropy T*S    EENTRO =        -0.24644022
  eigenvalues    EBANDS =      -716.84114515
  atomic energy  EATOM  =     98035.95264826
  ---------------------------------------------------
  free energy    TOTEN  =      -817.08604773 eV

  energy without entropy =     -816.83960751  energy(sigma->0) =     -817.02443768


--------------------------------------------------------------------------------------------------------




----------------------------------------- Iteration    7(  29)  ---------------------------------------


    POTLOK:  cpu time    0.35: real time    0.35
    SETDIJ:  cpu time    0.05: real time    0.05
    EDDIAG:  cpu time    4.32: real time    4.35
  RMM-DIIS:  cpu time    3.86: real time    3.90
    ORTHCH:  cpu time    1.70: real time    1.70
       DOS:  cpu time    0.00: real time    0.00
    CHARGE:  cpu time    1.09: real time    1.09
    MIXING:  cpu time    0.03: real time    0.03
    --------------------------------------------
      LOOP:  cpu time   11.40: real time   11.49

 eigenvalue-minimisations  :  1362
 total energy-change (2. order) :-0.4227171E-05  (-0.1310640E-07)
 number of electron    1085.9999554 magnetization     202.0496696
 augmentation part      617.3031695 magnetization     179.5963135

 Broyden mixing:
  rms(total) = 0.11498E-03    rms(broyden)= 0.11498E-03
  rms(prec ) = 0.13072E-03
  weight for this iteration     100.00

 eigenvalues of (default mixing * dielectric matrix)
  average eigenvalue GAMMA=   0.9284
 10.4494  2.8505  2.5020  1.7828  1.1926  1.1926  0.8615  0.8615  0.6924  0.5987
  0.5987  0.5369  0.2272  0.0663  0.1404  0.1379  0.0860  0.0864  0.1328  0.1278
  0.1228  0.0970  0.1166  0.1136  0.1086  0.1054  0.1039  0.1014

 Free energy of the ion-electron system (eV)
  ---------------------------------------------------
  alpha Z        PSCENC =      2067.85644204
  Ewald energy   TEWEN  =    423821.23579437
  -1/2 Hartree   DENC   =   -519651.87373503
  -exchange  EXHF       =         0.00000000
  -V(xc)+E(xc)   XCENC  =      1982.18137852
  PAW double counting   =    106770.71227691  -113126.04558308
  entropy T*S    EENTRO =        -0.24644081
  eigenvalues    EBANDS =      -716.85883314
  atomic energy  EATOM  =     98035.95264826
  ---------------------------------------------------
  free energy    TOTEN  =      -817.08605196 eV

  energy without entropy =     -816.83961115  energy(sigma->0) =     -817.02444175


--------------------------------------------------------------------------------------------------------




----------------------------------------- Iteration    7(  30)  ---------------------------------------


    POTLOK:  cpu time    0.36: real time    0.37
    SETDIJ:  cpu time    0.05: real time    0.05
    EDDIAG:  cpu time    4.40: real time    4.46
  RMM-DIIS:  cpu time    3.49: real time    3.51
    ORTHCH:  cpu time    1.68: real time    1.69
       DOS:  cpu time    0.00: real time    0.00
    CHARGE:  cpu time    1.05: real time    1.06
    MIXING:  cpu time    0.03: real time    0.03
    --------------------------------------------
      LOOP:  cpu time   11.07: real time   11.17

 eigenvalue-minimisations  :  1063
 total energy-change (2. order) :-0.1019347E-05  (-0.3191865E-08)
 number of electron    1085.9999554 magnetization     202.0495234
 augmentation part      617.3031721 magnetization     179.5961749

 Broyden mixing:
  rms(total) = 0.10678E-03    rms(broyden)= 0.10678E-03
  rms(prec ) = 0.12295E-03
  weight for this iteration     100.00

 eigenvalues of (default mixing * dielectric matrix)
  average eigenvalue GAMMA=   0.9501
 10.5598  3.1004  2.5586  1.9425  1.3831  1.2292  0.9425  0.9425  0.7417  0.5405
  0.6146  0.6146  0.6098  0.0663  0.0860  0.0864  0.1405  0.1387  0.1343  0.1312
  0.1260  0.1207  0.0970  0.1152  0.1125  0.1084  0.1051  0.1037  0.1011

 Free energy of the ion-electron system (eV)
  ---------------------------------------------------
  alpha Z        PSCENC =      2067.85644204
  Ewald energy   TEWEN  =    423821.23579437
  -1/2 Hartree   DENC   =   -519651.86793707
  -exchange  EXHF       =         0.00000000
  -V(xc)+E(xc)   XCENC  =      1982.18136236
  PAW double counting   =    106770.71470377  -113126.04803210
  entropy T*S    EENTRO =        -0.24643980
  eigenvalues    EBANDS =      -716.86459481
  atomic energy  EATOM  =     98035.95264826
  ---------------------------------------------------
  free energy    TOTEN  =      -817.08605298 eV

  energy without entropy =     -816.83961317  energy(sigma->0) =     -817.02444303


--------------------------------------------------------------------------------------------------------




----------------------------------------- Iteration    7(  31)  ---------------------------------------


    POTLOK:  cpu time    0.35: real time    0.35
    SETDIJ:  cpu time    0.05: real time    0.05
    EDDIAG:  cpu time    4.37: real time    4.41
  RMM-DIIS:  cpu time    3.59: real time    3.60
    ORTHCH:  cpu time    1.72: real time    1.73
       DOS:  cpu time    0.00: real time    0.00
    CHARGE:  cpu time    1.05: real time    1.05
    MIXING:  cpu time    0.05: real time    0.05
    --------------------------------------------
      LOOP:  cpu time   11.18: real time   11.24

 eigenvalue-minimisations  :  1070
 total energy-change (2. order) :-0.2440458E-05  (-0.9697298E-08)
 number of electron    1085.9999554 magnetization     202.0495009
 augmentation part      617.3031723 magnetization     179.5961933

 Broyden mixing:
  rms(total) = 0.86386E-04    rms(broyden)= 0.86384E-04
  rms(prec ) = 0.10089E-03
  weight for this iteration     100.00

 eigenvalues of (default mixing * dielectric matrix)
  average eigenvalue GAMMA=   0.9361
 10.5880  3.2226  2.5700  2.0098  1.4364  1.2295  0.9578  0.9578  0.7460  0.6496
  0.5397  0.6015  0.6015  0.1975  0.0663  0.0860  0.0864  0.1415  0.1393  0.1348
  0.1304  0.1258  0.1209  0.0970  0.1151  0.1125  0.1084  0.1051  0.1037  0.1010

 Free energy of the ion-electron system (eV)
  ---------------------------------------------------
  alpha Z        PSCENC =      2067.85644204
  Ewald energy   TEWEN  =    423821.23579437
  -1/2 Hartree   DENC   =   -519651.84899809
  -exchange  EXHF       =         0.00000000
  -V(xc)+E(xc)   XCENC  =      1982.18130826
  PAW double counting   =    106770.72094255  -113126.05435944
  entropy T*S    EENTRO =        -0.24644077
  eigenvalues    EBANDS =      -716.88339260
  atomic energy  EATOM  =     98035.95264826
  ---------------------------------------------------
  free energy    TOTEN  =      -817.08605542 eV

  energy without entropy =     -816.83961464  energy(sigma->0) =     -817.02444522


--------------------------------------------------------------------------------------------------------




----------------------------------------- Iteration    7(  32)  ---------------------------------------


    POTLOK:  cpu time    0.35: real time    0.37
    SETDIJ:  cpu time    0.05: real time    0.05
    EDDIAG:  cpu time    4.41: real time    4.43
  RMM-DIIS:  cpu time    3.04: real time    3.05
    ORTHCH:  cpu time    1.71: real time    1.72
       DOS:  cpu time    0.00: real time    0.00
    --------------------------------------------
      LOOP:  cpu time    9.57: real time    9.62

 eigenvalue-minimisations  :   637
 total energy-change (2. order) :-0.4386966E-06  (-0.1518499E-08)
 number of electron    1085.9999554 magnetization     202.0495009
 augmentation part      617.3031723 magnetization     179.5961933

 Free energy of the ion-electron system (eV)
  ---------------------------------------------------
  alpha Z        PSCENC =      2067.85644204
  Ewald energy   TEWEN  =    423821.23579437
  -1/2 Hartree   DENC   =   -519651.84443402
  -exchange  EXHF       =         0.00000000
  -V(xc)+E(xc)   XCENC  =      1982.18129759
  PAW double counting   =    106770.72194852  -113126.05538479
  entropy T*S    EENTRO =        -0.24644159
  eigenvalues    EBANDS =      -716.88792624
  atomic energy  EATOM  =     98035.95264826
  ---------------------------------------------------
  free energy    TOTEN  =      -817.08605586 eV

  energy without entropy =     -816.83961427  energy(sigma->0) =     -817.02444546


--------------------------------------------------------------------------------------------------------




 average (electrostatic) potential at core
  the test charge radii are     1.0452  0.7215
  (the norm of the test charge is              1.0000)
       1 -86.7430       2 -86.7424       3 -86.7463       4 -86.7458       5 -86.7437
       6 -86.7439       7 -86.7435       8 -86.7451       9 -86.7424      10 -86.7472
      11 -86.7459      12 -86.7405      13 -86.7402      14 -86.7481      15 -86.7470
      16 -86.7484      17 -86.7440      18 -86.7461      19 -86.7480      20 -86.7444
      21 -86.7443      22 -86.7451      23 -86.7450      24 -86.7479      25 -86.8413
      26 -86.8412      27 -86.8428      28 -86.8467      29 -86.8455      30 -86.8475
      31 -86.8471      32 -86.8470      33 -86.8435      34 -86.8464      35 -86.8431
      36 -86.8458      37 -86.8439      38 -86.8430      39 -86.8436      40 -86.8430
      41 -86.8449      42 -86.8428      43 -86.8457      44 -86.8466      45 -86.8436
      46 -86.8408      47 -86.8430      48 -86.8463      49 -86.8162      50 -86.8192
      51 -86.8192      52 -86.8159      53 -86.8146      54 -86.8148      55 -86.8150
      56 -86.8153      57 -86.8250      58 -86.8101      59 -86.8127      60 -86.8086
      61 -86.8294      62 -86.8269      63 -86.8111      64 -86.8113      65 -86.8240
      66 -86.8191      67 -86.8235      68 -86.8208      69 -86.8142      70 -86.8187
      71 -86.8179      72 -86.8167      73 -86.8567      74 -86.8576      75 -86.8547
      76 -86.8552      77 -86.8525      78 -86.8400      79 -86.8513      80 -86.8451
      81 -86.8557      82 -86.8686      83 -86.8678      84 -86.8554      85 -86.8589
      86 -86.8346      87 -86.8651      88 -86.8367      89 -86.8604      90 -86.8592
      91 -86.8537      92 -86.8578      93 -86.8562      94 -86.8622      95 -86.8580
      96 -86.8541      97 -86.7513      98 -86.7517      99 -86.7482     100 -86.7562
     101 -86.7494     102 -86.7618     103 -86.7633     104 -86.7523     105 -86.7409
     106 -86.7569     107 -86.9031     108 -86.7545     109 -86.7509     110 -86.7533
     111 -86.8933     112 -86.8944     113 -86.7533     114 -86.7505     115 -86.7561
     116 -86.7522     117 -86.7482     118 -86.7447     119 -86.7462     120 -86.7503
     121 -74.3810
 
 
 
 E-fermi :   1.8153     XC(G=0):  -6.7353     alpha+bet : -7.7752


 spin component 1

 k-point   1 :       0.0000    0.0000    0.0000
  band No.  band energies     occupation 
      1     -17.2926      1.00000
      2      -6.8687      1.00000
      3      -5.9863      1.00000
      4      -5.9449      1.00000
      5      -5.9293      1.00000
      6      -5.3015      1.00000
      7      -5.2915      1.00000
      8      -5.1269      1.00000
      9      -5.1021      1.00000
     10      -4.9238      1.00000
     11      -4.9130      1.00000
     12      -4.6826      1.00000
     13      -4.5665      1.00000
     14      -4.5317      1.00000
     15      -4.2943      1.00000
     16      -4.2442      1.00000
     17      -4.2261      1.00000
     18      -4.2145      1.00000
     19      -4.0753      1.00000
     20      -3.9428      1.00000
     21      -3.9145      1.00000
     22      -3.8699      1.00000
     23      -3.8544      1.00000
     24      -3.7855      1.00000
     25      -3.7597      1.00000
     26      -3.6747      1.00000
     27      -3.6289      1.00000
     28      -3.5726      1.00000
     29      -3.4857      1.00000
     30      -3.4460      1.00000
     31      -3.4152      1.00000
     32      -3.4016      1.00000
     33      -3.3630      1.00000
     34      -3.3420      1.00000
     35      -3.3406      1.00000
     36      -3.3257      1.00000
     37      -3.3096      1.00000
     38      -3.2942      1.00000
     39      -3.2573      1.00000
     40      -3.2362      1.00000
     41      -3.2068      1.00000
     42      -3.2052      1.00000
     43      -3.1960      1.00000
     44      -3.0823      1.00000
     45      -3.0800      1.00000
     46      -3.0620      1.00000
     47      -3.0472      1.00000
     48      -3.0168      1.00000
     49      -3.0054      1.00000
     50      -2.9916      1.00000
     51      -2.9817      1.00000
     52      -2.9707      1.00000
     53      -2.9477      1.00000
     54      -2.9363      1.00000
     55      -2.9320      1.00000
     56      -2.9237      1.00000
     57      -2.9172      1.00000
     58      -2.9096      1.00000
     59      -2.8550      1.00000
     60      -2.8534      1.00000
     61      -2.8490      1.00000
     62      -2.8470      1.00000
     63      -2.7994      1.00000
     64      -2.7903      1.00000
     65      -2.7738      1.00000
     66      -2.7705      1.00000
     67      -2.7473      1.00000
     68      -2.7404      1.00000
     69      -2.7374      1.00000
     70      -2.7322      1.00000
     71      -2.7243      1.00000
     72      -2.7130      1.00000
     73      -2.6987      1.00000
     74      -2.6937      1.00000
     75      -2.6859      1.00000
     76      -2.6729      1.00000
     77      -2.6665      1.00000
     78      -2.6619      1.00000
     79      -2.6592      1.00000
     80      -2.6560      1.00000
     81      -2.6280      1.00000
     82      -2.6244      1.00000
     83      -2.6238      1.00000
     84      -2.6158      1.00000
     85      -2.6146      1.00000
     86      -2.5956      1.00000
     87      -2.5799      1.00000
     88      -2.5654      1.00000
     89      -2.5550      1.00000
     90      -2.5481      1.00000
     91      -2.5214      1.00000
     92      -2.5114      1.00000
     93      -2.4988      1.00000
     94      -2.4977      1.00000
     95      -2.4963      1.00000
     96      -2.4826      1.00000
     97      -2.4819      1.00000
     98      -2.4774      1.00000
     99      -2.4727      1.00000
    100      -2.4602      1.00000
    101      -2.4592      1.00000
    102      -2.4571      1.00000
    103      -2.4512      1.00000
    104      -2.4431      1.00000
    105      -2.4378      1.00000
    106      -2.4299      1.00000
    107      -2.4244      1.00000
    108      -2.4214      1.00000
    109      -2.4154      1.00000
    110      -2.4140      1.00000
    111      -2.4128      1.00000
    112      -2.4048      1.00000
    113      -2.4003      1.00000
    114      -2.3990      1.00000
    115      -2.3981      1.00000
    116      -2.3936      1.00000
    117      -2.3789      1.00000
    118      -2.3519      1.00000
    119      -2.3335      1.00000
    120      -2.2878      1.00000
    121      -2.2754      1.00000
    122      -2.2374      1.00000
    123      -2.2287      1.00000
    124      -2.2223      1.00000
    125      -2.2161      1.00000
    126      -2.2078      1.00000
    127      -2.2037      1.00000
    128      -2.1946      1.00000
    129      -2.1502      1.00000
    130      -2.1477      1.00000
    131      -2.1467      1.00000
    132      -2.1438      1.00000
    133      -2.1419      1.00000
    134      -2.1362      1.00000
    135      -2.1272      1.00000
    136      -2.1092      1.00000
    137      -2.0769      1.00000
    138      -2.0720      1.00000
    139      -2.0686      1.00000
    140      -2.0666      1.00000
    141      -2.0640      1.00000
    142      -2.0533      1.00000
    143      -2.0334      1.00000
    144      -2.0312      1.00000
    145      -2.0182      1.00000
    146      -2.0153      1.00000
    147      -2.0124      1.00000
    148      -2.0083      1.00000
    149      -2.0055      1.00000
    150      -1.9837      1.00000
    151      -1.9784      1.00000
    152      -1.9442      1.00000
    153      -1.9073      1.00000
    154      -1.9012      1.00000
    155      -1.8759      1.00000
    156      -1.8750      1.00000
    157      -1.8732      1.00000
    158      -1.8688      1.00000
    159      -1.8641      1.00000
    160      -1.8556      1.00000
    161      -1.8539      1.00000
    162      -1.8493      1.00000
    163      -1.8475      1.00000
    164      -1.8392      1.00000
    165      -1.8242      1.00000
    166      -1.8177      1.00000
    167      -1.8086      1.00000
    168      -1.7921      1.00000
    169      -1.7867      1.00000
    170      -1.7646      1.00000
    171      -1.7600      1.00000
    172      -1.7569      1.00000
    173      -1.7366      1.00000
    174      -1.7215      1.00000
    175      -1.7148      1.00000
    176      -1.7025      1.00000
    177      -1.6942      1.00000
    178      -1.6910      1.00000
    179      -1.6811      1.00000
    180      -1.6770      1.00000
    181      -1.6714      1.00000
    182      -1.6519      1.00000
    183      -1.6332      1.00000
    184      -1.6322      1.00000
    185      -1.6287      1.00000
    186      -1.6227      1.00000
    187      -1.6080      1.00000
    188      -1.5992      1.00000
    189      -1.5884      1.00000
    190      -1.5565      1.00000
    191      -1.5530      1.00000
    192      -1.5438      1.00000
    193      -1.5425      1.00000
    194      -1.5376      1.00000
    195      -1.5343      1.00000
    196      -1.5294      1.00000
    197      -1.5275      1.00000
    198      -1.5000      1.00000
    199      -1.4934      1.00000
    200      -1.4736      1.00000
    201      -1.4695      1.00000
    202      -1.4676      1.00000
    203      -1.4606      1.00000
    204      -1.4529      1.00000
    205      -1.4502      1.00000
    206      -1.4341      1.00000
    207      -1.4247      1.00000
    208      -1.4216      1.00000
    209      -1.4158      1.00000
    210      -1.4117      1.00000
    211      -1.4035      1.00000
    212      -1.3719      1.00000
    213      -1.3595      1.00000
    214      -1.3563      1.00000
    215      -1.3527      1.00000
    216      -1.3482      1.00000
    217      -1.3445      1.00000
    218      -1.3423      1.00000
    219      -1.3350      1.00000
    220      -1.3224      1.00000
    221      -1.3207      1.00000
    222      -1.3194      1.00000
    223      -1.3130      1.00000
    224      -1.3073      1.00000
    225      -1.2820      1.00000
    226      -1.2782      1.00000
    227      -1.2456      1.00000
    228      -1.2415      1.00000
    229      -1.2370      1.00000
    230      -1.2311      1.00000
    231      -1.2116      1.00000
    232      -1.2031      1.00000
    233      -1.1758      1.00000
    234      -1.1724      1.00000
    235      -1.1505      1.00000
    236      -1.1316      1.00000
    237      -1.1305      1.00000
    238      -1.1239      1.00000
    239      -1.1135      1.00000
    240      -1.1096      1.00000
    241      -1.1088      1.00000
    242      -1.1054      1.00000
    243      -1.1032      1.00000
    244      -1.0891      1.00000
    245      -1.0874      1.00000
    246      -1.0813      1.00000
    247      -1.0749      1.00000
    248      -1.0744      1.00000
    249      -1.0741      1.00000
    250      -1.0687      1.00000
    251      -1.0637      1.00000
    252      -1.0458      1.00000
    253      -1.0405      1.00000
    254      -1.0403      1.00000
    255      -1.0360      1.00000
    256      -1.0325      1.00000
    257      -1.0274      1.00000
    258      -1.0194      1.00000
    259      -1.0152      1.00000
    260      -1.0125      1.00000
    261      -1.0003      1.00000
    262      -0.9867      1.00000
    263      -0.9841      1.00000
    264      -0.9820      1.00000
    265      -0.9623      1.00000
    266      -0.9592      1.00000
    267      -0.9520      1.00000
    268      -0.9508      1.00000
    269      -0.9459      1.00000
    270      -0.9353      1.00000
    271      -0.9329      1.00000
    272      -0.9321      1.00000
    273      -0.9283      1.00000
    274      -0.9279      1.00000
    275      -0.9252      1.00000
    276      -0.9246      1.00000
    277      -0.9238      1.00000
    278      -0.9227      1.00000
    279      -0.9208      1.00000
    280      -0.9034      1.00000
    281      -0.8895      1.00000
    282      -0.8830      1.00000
    283      -0.8809      1.00000
    284      -0.8773      1.00000
    285      -0.8676      1.00000
    286      -0.8642      1.00000
    287      -0.8606      1.00000
    288      -0.8568      1.00000
    289      -0.8500      1.00000
    290      -0.8487      1.00000
    291      -0.8467      1.00000
    292      -0.8412      1.00000
    293      -0.8366      1.00000
    294      -0.8348      1.00000
    295      -0.8341      1.00000
    296      -0.8316      1.00000
    297      -0.8274      1.00000
    298      -0.8231      1.00000
    299      -0.8213      1.00000
    300      -0.8206      1.00000
    301      -0.8184      1.00000
    302      -0.8147      1.00000
    303      -0.8132      1.00000
    304      -0.8095      1.00000
    305      -0.8072      1.00000
    306      -0.8051      1.00000
    307      -0.8026      1.00000
    308      -0.8013      1.00000
    309      -0.7826      1.00000
    310      -0.7782      1.00000
    311      -0.7697      1.00000
    312      -0.7625      1.00000
    313      -0.7455      1.00000
    314      -0.7432      1.00000
    315      -0.7418      1.00000
    316      -0.7252      1.00000
    317      -0.7195      1.00000
    318      -0.7128      1.00000
    319      -0.7057      1.00000
    320      -0.6976      1.00000
    321      -0.6970      1.00000
    322      -0.6947      1.00000
    323      -0.6892      1.00000
    324      -0.6855      1.00000
    325      -0.6824      1.00000
    326      -0.6801      1.00000
    327      -0.6785      1.00000
    328      -0.6706      1.00000
    329      -0.6694      1.00000
    330      -0.6657      1.00000
    331      -0.6637      1.00000
    332      -0.6587      1.00000
    333      -0.6551      1.00000
    334      -0.6537      1.00000
    335      -0.6503      1.00000
    336      -0.6485      1.00000
    337      -0.6448      1.00000
    338      -0.6427      1.00000
    339      -0.6399      1.00000
    340      -0.6383      1.00000
    341      -0.6365      1.00000
    342      -0.6333      1.00000
    343      -0.6294      1.00000
    344      -0.6262      1.00000
    345      -0.6240      1.00000
    346      -0.6215      1.00000
    347      -0.6090      1.00000
    348      -0.6044      1.00000
    349      -0.5954      1.00000
    350      -0.5940      1.00000
    351      -0.5910      1.00000
    352      -0.5889      1.00000
    353      -0.5874      1.00000
    354      -0.5827      1.00000
    355      -0.5760      1.00000
    356      -0.5749      1.00000
    357      -0.5703      1.00000
    358      -0.5639      1.00000
    359      -0.5598      1.00000
    360      -0.5442      1.00000
    361      -0.5383      1.00000
    362      -0.5286      1.00000
    363      -0.5179      1.00000
    364      -0.5081      1.00000
    365      -0.4957      1.00000
    366      -0.4799      1.00000
    367      -0.4747      1.00000
    368      -0.4695      1.00000
    369      -0.4649      1.00000
    370      -0.4600      1.00000
    371      -0.4562      1.00000
    372      -0.4543      1.00000
    373      -0.4481      1.00000
    374      -0.4451      1.00000
    375      -0.4398      1.00000
    376      -0.4365      1.00000
    377      -0.4330      1.00000
    378      -0.4311      1.00000
    379      -0.4245      1.00000
    380      -0.4184      1.00000
    381      -0.4164      1.00000
    382      -0.4112      1.00000
    383      -0.3789      1.00000
    384      -0.3643      1.00000
    385      -0.3625      1.00000
    386      -0.3488      1.00000
    387      -0.3396      1.00000
    388      -0.3338      1.00000
    389      -0.3303      1.00000
    390      -0.3249      1.00000
    391      -0.3175      1.00000
    392      -0.3092      1.00000
    393      -0.2998      1.00000
    394      -0.2914      1.00000
    395      -0.2892      1.00000
    396      -0.2836      1.00000
    397      -0.2488      1.00000
    398      -0.2453      1.00000
    399      -0.2435      1.00000
    400      -0.2349      1.00000
    401      -0.2320      1.00000
    402      -0.2291      1.00000
    403      -0.2245      1.00000
    404      -0.2163      1.00000
    405      -0.2094      1.00000
    406      -0.2046      1.00000
    407      -0.1997      1.00000
    408      -0.1926      1.00000
    409      -0.1902      1.00000
    410      -0.1895      1.00000
    411      -0.1815      1.00000
    412      -0.1767      1.00000
    413      -0.1661      1.00000
    414      -0.1347      1.00000
    415      -0.1051      1.00000
    416      -0.0913      1.00000
    417      -0.0784      1.00000
    418      -0.0737      1.00000
    419      -0.0712      1.00000
    420      -0.0631      1.00000
    421      -0.0594      1.00000
    422      -0.0560      1.00000
    423      -0.0445      1.00000
    424      -0.0372      1.00000
    425      -0.0332      1.00000
    426      -0.0297      1.00000
    427      -0.0274      1.00000
    428      -0.0243      1.00000
    429      -0.0186      1.00000
    430      -0.0175      1.00000
    431      -0.0154      1.00000
    432      -0.0127      1.00000
    433      -0.0094      1.00000
    434      -0.0072      1.00000
    435      -0.0044      1.00000
    436      -0.0017      1.00000
    437       0.0098      1.00000
    438       0.0138      1.00000
    439       0.0160      1.00000
    440       0.0215      1.00000
    441       0.0234      1.00000
    442       0.0408      1.00000
    443       0.0476      1.00000
    444       0.0560      1.00000
    445       0.0631      1.00000
    446       0.0657      1.00000
    447       0.0668      1.00000
    448       0.0722      1.00000
    449       0.0836      1.00000
    450       0.0909      1.00000
    451       0.1030      1.00000
    452       0.1174      1.00000
    453       0.1178      1.00000
    454       0.1213      1.00000
    455       0.1219      1.00000
    456       0.1304      1.00000
    457       0.1318      1.00000
    458       0.1439      1.00000
    459       0.1446      1.00000
    460       0.1458      1.00000
    461       0.1502      1.00000
    462       0.1537      1.00000
    463       0.1588      1.00000
    464       0.1616      1.00000
    465       0.1674      1.00000
    466       0.1706      1.00000
    467       0.1742      1.00000
    468       0.1771      1.00000
    469       0.1818      1.00000
    470       0.1836      1.00000
    471       0.1888      1.00000
    472       0.1908      1.00000
    473       0.1951      1.00000
    474       0.2054      1.00000
    475       0.2115      1.00000
    476       0.2204      1.00000
    477       0.2283      1.00000
    478       0.2291      1.00000
    479       0.2317      1.00000
    480       0.2468      1.00000
    481       0.2517      1.00000
    482       0.2625      1.00000
    483       0.2684      1.00000
    484       0.2849      1.00000
    485       0.3016      1.00000
    486       0.3089      1.00000
    487       0.3170      1.00000
    488       0.3204      1.00000
    489       0.3224      1.00000
    490       0.3251      1.00000
    491       0.3316      1.00000
    492       0.3345      1.00000
    493       0.3414      1.00000
    494       0.3499      1.00000
    495       0.3552      1.00000
    496       0.3645      1.00000
    497       0.3702      1.00000
    498       0.3878      1.00000
    499       0.3918      1.00000
    500       0.3992      1.00000
    501       0.4056      1.00000
    502       0.4120      1.00000
    503       0.4247      1.00000
    504       0.4256      1.00000
    505       0.4296      1.00000
    506       0.4321      1.00000
    507       0.4378      1.00000
    508       0.4409      1.00000
    509       0.4462      1.00000
    510       0.4523      1.00000
    511       0.4700      1.00000
    512       0.4723      1.00000
    513       0.4771      1.00000
    514       0.4814      1.00000
    515       0.4928      1.00000
    516       0.4971      1.00000
    517       0.4996      1.00000
    518       0.5103      1.00000
    519       0.5131      1.00000
    520       0.5165      1.00000
    521       0.5222      1.00000
    522       0.5231      1.00000
    523       0.5266      1.00000
    524       0.5277      1.00000
    525       0.5295      1.00000
    526       0.5353      1.00000
    527       0.5369      1.00000
    528       0.5402      1.00000
    529       0.5455      1.00000
    530       0.5545      1.00000
    531       0.5649      1.00000
    532       0.5667      1.00000
    533       0.5777      1.00000
    534       0.5874      1.00000
    535       0.5890      1.00000
    536       0.5919      1.00000
    537       0.5966      1.00000
    538       0.6075      1.00000
    539       0.6133      1.00000
    540       0.6177      1.00000
    541       0.6200      1.00000
    542       0.6244      1.00000
    543       0.6286      1.00000
    544       0.6312      1.00000
    545       0.6350      1.00000
    546       0.6511      1.00000
    547       0.6575      1.00000
    548       0.6643      1.00000
    549       0.6686      1.00000
    550       0.6796      1.00000
    551       0.6917      1.00000
    552       0.6999      1.00000
    553       0.7036      1.00000
    554       0.7069      1.00000
    555       0.7089      1.00000
    556       0.7091      1.00000
    557       0.7138      1.00000
    558       0.7271      1.00000
    559       0.7412      1.00000
    560       0.7471      1.00000
    561       0.7722      1.00000
    562       0.7961      1.00000
    563       0.8117      1.00000
    564       0.8119      1.00000
    565       0.8164      1.00000
    566       0.8198      1.00000
    567       0.8322      1.00000
    568       0.8421      1.00000
    569       0.8541      1.00000
    570       0.8593      1.00000
    571       0.8647      1.00000
    572       0.8700      1.00000
    573       0.8742      1.00000
    574       0.8756      1.00000
    575       0.8789      1.00000
    576       0.8836      1.00000
    577       0.8984      1.00000
    578       0.9035      1.00000
    579       0.9046      1.00000
    580       0.9100      1.00000
    581       0.9114      1.00000
    582       0.9134      1.00000
    583       0.9177      1.00000
    584       0.9234      1.00000
    585       0.9268      1.00000
    586       0.9303      1.00000
    587       0.9315      1.00000
    588       0.9400      1.00000
    589       0.9455      1.00000
    590       0.9511      1.00000
    591       0.9524      1.00000
    592       0.9553      1.00000
    593       0.9565      1.00000
    594       0.9666      1.00000
    595       0.9721      1.00000
    596       0.9792      1.00000
    597       0.9829      1.00000
    598       0.9866      1.00000
    599       1.0082      1.00000
    600       1.0245      1.00000
    601       1.0268      1.00000
    602       1.0280      1.00000
    603       1.0314      1.00000
    604       1.0390      1.00000
    605       1.0428      1.00000
    606       1.0520      1.00000
    607       1.0543      1.00000
    608       1.0545      1.00000
    609       1.0621      1.00000
    610       1.0669      1.00000
    611       1.0684      1.00000
    612       1.0733      0.99999
    613       1.0762      0.99999
    614       1.0773      0.99999
    615       1.0879      0.99999
    616       1.0994      0.99999
    617       1.1242      0.99997
    618       1.1480      0.99995
    619       1.1585      0.99993
    620       1.1638      0.99992
    621       1.1654      0.99991
    622       1.1683      0.99991
    623       1.1969      0.99981
    624       1.2055      0.99976
    625       1.2095      0.99974
    626       1.2112      0.99973
    627       1.2120      0.99972
    628       1.2166      0.99969
    629       1.2202      0.99967
    630       1.2279      0.99960
    631       1.2381      0.99950
    632       1.2491      0.99937
    633       1.2594      0.99923
    634       1.2786      0.99888
    635       1.3203      0.99776
    636       1.3813      0.99559
    637       1.4429      0.99604
    638       1.4566      0.99728
    639       1.4688      0.99892
    640       1.6121      1.05059
    641       1.6283      1.05142
    642       1.6471      1.04613
    643       1.7042      0.96758
    644       1.7813      0.67572
    645       1.8607      0.26900
    646       1.9202      0.04788
    647       2.0293     -0.04800
    648       2.0671     -0.03218
    649       2.2104      0.00487
    650       2.2357      0.00476
    651       2.2439      0.00456
    652       2.3168      0.00203
    653       2.3786      0.00067
    654       2.5412      0.00001
    655       2.5995      0.00000
    656       2.8479      0.00000
    657       2.8527      0.00000
    658       2.8572      0.00000
    659       2.8637      0.00000
    660       2.8813      0.00000
    661       2.8825      0.00000
    662       2.8994      0.00000
    663       2.9089      0.00000
    664       2.9673      0.00000
    665       3.0166      0.00000
    666       3.2133      0.00000
    667       3.2190      0.00000
    668       3.2230      0.00000
    669       3.2279      0.00000
    670       3.2326      0.00000
    671       3.2542      0.00000
    672       3.2848      0.00000
    673       3.3012      0.00000
    674       3.3697      0.00000
    675       3.3986      0.00000
    676       3.5428      0.00000
    677       3.6822      0.00000
    678       3.7261      0.00000
    679       4.0323      0.00000
    680       4.0336      0.00000
    681       4.0385      0.00000
    682       4.0497      0.00000
    683       4.0518      0.00000
    684       4.0547      0.00000
    685       4.0654      0.00000
    686       4.0840      0.00000
    687       4.1231      0.00000
    688       4.1315      0.00000
    689       4.1392      0.00000
    690       4.1454      0.00000
    691       4.2401      0.00000
    692       4.2689      0.00000
    693       4.3527      0.00000
    694       4.4198      0.00000
    695       4.4327      0.00000
    696       4.4373      0.00000
    697       4.4842      0.00000
    698       4.4951      0.00000
    699       4.6326      0.00000
    700       4.6472      0.00000
    701       4.7931      0.00000
    702       4.9283      0.00000
    703       4.9661      0.00000
    704       5.0597      0.00000
    705       5.1001      0.00000
    706       5.1474      0.00000
    707       5.2204      0.00000
    708       5.3896      0.00000
    709       5.4065      0.00000
    710       5.4993      0.00000
    711       5.5010      0.00000
    712       5.5595      0.00000
    713       5.5943      0.00000
    714       5.6569      0.00000
    715       5.6718      0.00000
    716       5.8041      0.00000
    717       5.9091      0.00000
    718       6.0289      0.00000
    719       6.0675      0.00000
    720       6.2007      0.00000
    721       6.4082      0.00000
    722       6.4877      0.00000
    723       6.6902      0.00000
    724       6.7566      0.00000
    725       6.8015      0.00000
    726       6.9842      0.00000
    727       7.0238      0.00000
    728       7.1086      0.00000
    729       7.1103      0.00000
    730       7.1900      0.00000
    731       7.2137      0.00000
    732       7.2631      0.00000
    733       7.3042      0.00000
    734       7.3688      0.00000
    735       7.4542      0.00000
    736       7.5959      0.00000

 spin component 2

 k-point   1 :       0.0000    0.0000    0.0000
  band No.  band energies     occupation 
      1     -16.9658      1.00000
      2      -6.8680      1.00000
      3      -5.9693      1.00000
      4      -5.9332      1.00000
      5      -5.9168      1.00000
      6      -5.2662      1.00000
      7      -5.2582      1.00000
      8      -5.0851      1.00000
      9      -5.0610      1.00000
     10      -4.8555      1.00000
     11      -4.8491      1.00000
     12      -4.5675      1.00000
     13      -4.4715      1.00000
     14      -4.4466      1.00000
     15      -4.1209      1.00000
     16      -4.0863      1.00000
     17      -4.0838      1.00000
     18      -4.0729      1.00000
     19      -3.8047      1.00000
     20      -3.7464      1.00000
     21      -3.6302      1.00000
     22      -3.6027      1.00000
     23      -3.5388      1.00000
     24      -3.4288      1.00000
     25      -3.3960      1.00000
     26      -3.2884      1.00000
     27      -3.2801      1.00000
     28      -3.2102      1.00000
     29      -3.1137      1.00000
     30      -3.0635      1.00000
     31      -3.0479      1.00000
     32      -3.0259      1.00000
     33      -2.9807      1.00000
     34      -2.9421      1.00000
     35      -2.8321      1.00000
     36      -2.7771      1.00000
     37      -2.5778      1.00000
     38      -2.5407      1.00000
     39      -2.5183      1.00000
     40      -2.4388      1.00000
     41      -2.4335      1.00000
     42      -2.3923      1.00000
     43      -2.3503      1.00000
     44      -2.2946      1.00000
     45      -2.2894      1.00000
     46      -2.2779      1.00000
     47      -2.2726      1.00000
     48      -2.2315      1.00000
     49      -2.1460      1.00000
     50      -2.1412      1.00000
     51      -2.1395      1.00000
     52      -2.0926      1.00000
     53      -2.0892      1.00000
     54      -2.0738      1.00000
     55      -2.0729      1.00000
     56      -2.0103      1.00000
     57      -2.0075      1.00000
     58      -1.9649      1.00000
     59      -1.9496      1.00000
     60      -1.9280      1.00000
     61      -1.9065      1.00000
     62      -1.9052      1.00000
     63      -1.8920      1.00000
     64      -1.8915      1.00000
     65      -1.8901      1.00000
     66      -1.8830      1.00000
     67      -1.8818      1.00000
     68      -1.8803      1.00000
     69      -1.8686      1.00000
     70      -1.8626      1.00000
     71      -1.7928      1.00000
     72      -1.7768      1.00000
     73      -1.7731      1.00000
     74      -1.7603      1.00000
     75      -1.6850      1.00000
     76      -1.6823      1.00000
     77      -1.6753      1.00000
     78      -1.6741      1.00000
     79      -1.6437      1.00000
     80      -1.6068      1.00000
     81      -1.5970      1.00000
     82      -1.5780      1.00000
     83      -1.5493      1.00000
     84      -1.5158      1.00000
     85      -1.5021      1.00000
     86      -1.4606      1.00000
     87      -1.4575      1.00000
     88      -1.4529      1.00000
     89      -1.4456      1.00000
     90      -1.4345      1.00000
     91      -1.4274      1.00000
     92      -1.4265      1.00000
     93      -1.4077      1.00000
     94      -1.4073      1.00000
     95      -1.3829      1.00000
     96      -1.3760      1.00000
     97      -1.3653      1.00000
     98      -1.3610      1.00000
     99      -1.3516      1.00000
    100      -1.3351      1.00000
    101      -1.3322      1.00000
    102      -1.3158      1.00000
    103      -1.3100      1.00000
    104      -1.3013      1.00000
    105      -1.2940      1.00000
    106      -1.2748      1.00000
    107      -1.2693      1.00000
    108      -1.2572      1.00000
    109      -1.2508      1.00000
    110      -1.2382      1.00000
    111      -1.2093      1.00000
    112      -1.1692      1.00000
    113      -1.1666      1.00000
    114      -1.1185      1.00000
    115      -1.1012      1.00000
    116      -1.0971      1.00000
    117      -1.0941      1.00000
    118      -1.0910      1.00000
    119      -1.0830      1.00000
    120      -1.0731      1.00000
    121      -1.0641      1.00000
    122      -1.0619      1.00000
    123      -1.0576      1.00000
    124      -1.0198      1.00000
    125      -1.0075      1.00000
    126      -0.9985      1.00000
    127      -0.9828      1.00000
    128      -0.9665      1.00000
    129      -0.8822      1.00000
    130      -0.8770      1.00000
    131      -0.8669      1.00000
    132      -0.8649      1.00000
    133      -0.8629      1.00000
    134      -0.8592      1.00000
    135      -0.8501      1.00000
    136      -0.8380      1.00000
    137      -0.8310      1.00000
    138      -0.8194      1.00000
    139      -0.8131      1.00000
    140      -0.8110      1.00000
    141      -0.7952      1.00000
    142      -0.7892      1.00000
    143      -0.7551      1.00000
    144      -0.7531      1.00000
    145      -0.7481      1.00000
    146      -0.7373      1.00000
    147      -0.7256      1.00000
    148      -0.7187      1.00000
    149      -0.7180      1.00000
    150      -0.6797      1.00000
    151      -0.6433      1.00000
    152      -0.6400      1.00000
    153      -0.6357      1.00000
    154      -0.6325      1.00000
    155      -0.6114      1.00000
    156      -0.6046      1.00000
    157      -0.5981      1.00000
    158      -0.5904      1.00000
    159      -0.5745      1.00000
    160      -0.5586      1.00000
    161      -0.5535      1.00000
    162      -0.5209      1.00000
    163      -0.5134      1.00000
    164      -0.5049      1.00000
    165      -0.5004      1.00000
    166      -0.4868      1.00000
    167      -0.4833      1.00000
    168      -0.4673      1.00000
    169      -0.4611      1.00000
    170      -0.4534      1.00000
    171      -0.4516      1.00000
    172      -0.4494      1.00000
    173      -0.4215      1.00000
    174      -0.3970      1.00000
    175      -0.3962      1.00000
    176      -0.3895      1.00000
    177      -0.3750      1.00000
    178      -0.3625      1.00000
    179      -0.3514      1.00000
    180      -0.3465      1.00000
    181      -0.3396      1.00000
    182      -0.2946      1.00000
    183      -0.2906      1.00000
    184      -0.2818      1.00000
    185      -0.2805      1.00000
    186      -0.2762      1.00000
    187      -0.2701      1.00000
    188      -0.2556      1.00000
    189      -0.2493      1.00000
    190      -0.2235      1.00000
    191      -0.2197      1.00000
    192      -0.2171      1.00000
    193      -0.2137      1.00000
    194      -0.1596      1.00000
    195      -0.1546      1.00000
    196      -0.1455      1.00000
    197      -0.1396      1.00000
    198      -0.1352      1.00000
    199      -0.1325      1.00000
    200      -0.1310      1.00000
    201      -0.1244      1.00000
    202      -0.0770      1.00000
    203      -0.0717      1.00000
    204      -0.0496      1.00000
    205      -0.0439      1.00000
    206      -0.0367      1.00000
    207      -0.0304      1.00000
    208      -0.0188      1.00000
    209      -0.0135      1.00000
    210      -0.0063      1.00000
    211      -0.0018      1.00000
    212       0.0112      1.00000
    213       0.0236      1.00000
    214       0.0467      1.00000
    215       0.0523      1.00000
    216       0.0824      1.00000
    217       0.0880      1.00000
    218       0.1298      1.00000
    219       0.1319      1.00000
    220       0.1357      1.00000
    221       0.1386      1.00000
    222       0.1415      1.00000
    223       0.1480      1.00000
    224       0.1523      1.00000
    225       0.1530      1.00000
    226       0.1563      1.00000
    227       0.2038      1.00000
    228       0.2124      1.00000
    229       0.2220      1.00000
    230       0.2262      1.00000
    231       0.2273      1.00000
    232       0.2285      1.00000
    233       0.2346      1.00000
    234       0.2368      1.00000
    235       0.2379      1.00000
    236       0.2424      1.00000
    237       0.2452      1.00000
    238       0.2503      1.00000
    239       0.2646      1.00000
    240       0.2690      1.00000
    241       0.2702      1.00000
    242       0.2798      1.00000
    243       0.2819      1.00000
    244       0.2923      1.00000
    245       0.3239      1.00000
    246       0.3331      1.00000
    247       0.3389      1.00000
    248       0.3418      1.00000
    249       0.3463      1.00000
    250       0.3524      1.00000
    251       0.3617      1.00000
    252       0.3703      1.00000
    253       0.3813      1.00000
    254       0.3897      1.00000
    255       0.4105      1.00000
    256       0.4296      1.00000
    257       0.4359      1.00000
    258       0.4445      1.00000
    259       0.4481      1.00000
    260       0.4544      1.00000
    261       0.4743      1.00000
    262       0.4783      1.00000
    263       0.4921      1.00000
    264       0.4929      1.00000
    265       0.4978      1.00000
    266       0.5094      1.00000
    267       0.5153      1.00000
    268       0.5316      1.00000
    269       0.5371      1.00000
    270       0.5401      1.00000
    271       0.5416      1.00000
    272       0.5428      1.00000
    273       0.5472      1.00000
    274       0.5543      1.00000
    275       0.5596      1.00000
    276       0.5634      1.00000
    277       0.5664      1.00000
    278       0.5707      1.00000
    279       0.5734      1.00000
    280       0.5788      1.00000
    281       0.5823      1.00000
    282       0.5884      1.00000
    283       0.6044      1.00000
    284       0.6071      1.00000
    285       0.6162      1.00000
    286       0.6418      1.00000
    287       0.6524      1.00000
    288       0.6587      1.00000
    289       0.6688      1.00000
    290       0.6807      1.00000
    291       0.6889      1.00000
    292       0.6950      1.00000
    293       0.7002      1.00000
    294       0.7113      1.00000
    295       0.7201      1.00000
    296       0.7272      1.00000
    297       0.7279      1.00000
    298       0.7338      1.00000
    299       0.7396      1.00000
    300       0.7414      1.00000
    301       0.7467      1.00000
    302       0.7495      1.00000
    303       0.7593      1.00000
    304       0.7695      1.00000
    305       0.7752      1.00000
    306       0.7829      1.00000
    307       0.7890      1.00000
    308       0.7932      1.00000
    309       0.7939      1.00000
    310       0.7983      1.00000
    311       0.8047      1.00000
    312       0.8085      1.00000
    313       0.8095      1.00000
    314       0.8104      1.00000
    315       0.8192      1.00000
    316       0.8211      1.00000
    317       0.8252      1.00000
    318       0.8301      1.00000
    319       0.8322      1.00000
    320       0.8453      1.00000
    321       0.8499      1.00000
    322       0.8551      1.00000
    323       0.8575      1.00000
    324       0.8592      1.00000
    325       0.8622      1.00000
    326       0.8657      1.00000
    327       0.8693      1.00000
    328       0.8715      1.00000
    329       0.8748      1.00000
    330       0.8819      1.00000
    331       0.8862      1.00000
    332       0.8923      1.00000
    333       0.8980      1.00000
    334       0.9304      1.00000
    335       0.9498      1.00000
    336       0.9661      1.00000
    337       0.9696      1.00000
    338       0.9737      1.00000
    339       0.9757      1.00000
    340       0.9781      1.00000
    341       0.9811      1.00000
    342       0.9825      1.00000
    343       0.9869      1.00000
    344       0.9903      1.00000
    345       0.9990      1.00000
    346       0.9993      1.00000
    347       1.0022      1.00000
    348       1.0105      1.00000
    349       1.0135      1.00000
    350       1.0147      1.00000
    351       1.0187      1.00000
    352       1.0228      1.00000
    353       1.0358      1.00000
    354       1.0381      1.00000
    355       1.0408      1.00000
    356       1.0428      1.00000
    357       1.0467      1.00000
    358       1.0556      1.00000
    359       1.0589      1.00000
    360       1.0607      1.00000
    361       1.0642      1.00000
    362       1.0684      1.00000
    363       1.0697      0.99999
    364       1.0722      0.99999
    365       1.0788      0.99999
    366       1.0882      0.99999
    367       1.0911      0.99999
    368       1.1134      0.99998
    369       1.1185      0.99998
    370       1.1342      0.99996
    371       1.1578      0.99993
    372       1.1637      0.99992
    373       1.1694      0.99990
    374       1.1768      0.99988
    375       1.1849      0.99986
    376       1.1940      0.99982
    377       1.1950      0.99982
    378       1.2000      0.99979
    379       1.2122      0.99972
    380       1.2217      0.99965
    381       1.2335      0.99955
    382       1.2438      0.99944
    383       1.2508      0.99935
    384       1.2638      0.99916
    385       1.2823      0.99880
    386       1.2999      0.99837
    387       1.3056      0.99821
    388       1.3127      0.99800
    389       1.3282      0.99750
    390       1.3376      0.99716
    391       1.3382      0.99714
    392       1.3420      0.99700
    393       1.3584      0.99638
    394       1.3648      0.99615
    395       1.3748      0.99580
    396       1.3754      0.99578
    397       1.3822      0.99556
    398       1.3878      0.99540
    399       1.3913      0.99532
    400       1.3940      0.99526
    401       1.3975      0.99519
    402       1.4045      0.99510
    403       1.4238      0.99520
    404       1.4374      0.99571
    405       1.4588      0.99754
    406       1.4658      0.99847
    407       1.4907      1.00337
    408       1.4957      1.00469
    409       1.5009      1.00617
    410       1.5127      1.01001
    411       1.5171      1.01160
    412       1.5190      1.01231
    413       1.5404      1.02129
    414       1.5440      1.02292
    415       1.5470      1.02432
    416       1.5600      1.03054
    417       1.5643      1.03258
    418       1.5704      1.03550
    419       1.5718      1.03617
    420       1.5917      1.04473
    421       1.5962      1.04636
    422       1.6076      1.04967
    423       1.6421      1.04830
    424       1.6455      1.04690
    425       1.6501      1.04455
    426       1.6680      1.02973
    427       1.6973      0.98307
    428       1.7025      0.97144
    429       1.7380      0.86489
    430       1.7493      0.82100
    431       1.7506      0.81563
    432       1.7525      0.80781
    433       1.7677      0.74101
    434       1.7739      0.71164
    435       1.7861      0.65158
    436       1.7944      0.60951
    437       1.7980      0.59075
    438       1.7998      0.58122
    439       1.8061      0.54812
    440       1.8130      0.51209
    441       1.8156      0.49810
    442       1.8211      0.46912
    443       1.8289      0.42824
    444       1.8309      0.41761
    445       1.8325      0.40939
    446       1.8374      0.38380
    447       1.8407      0.36731
    448       1.8424      0.35861
    449       1.8433      0.35383
    450       1.8447      0.34679
    451       1.8472      0.33418
    452       1.8568      0.28766
    453       1.8576      0.28363
    454       1.8611      0.26737
    455       1.8649      0.24942
    456       1.8891      0.14806
    457       1.8954      0.12473
    458       1.9167      0.05715
    459       1.9256      0.03419
    460       1.9349      0.01337
    461       1.9398      0.00371
    462       1.9443     -0.00435
    463       1.9526     -0.01733
    464       1.9597     -0.02653
    465       1.9829     -0.04590
    466       1.9867     -0.04763
    467       1.9976     -0.05082
    468       2.0119     -0.05143
    469       2.0376     -0.04522
    470       2.0405     -0.04412
    471       2.0446     -0.04247
    472       2.0509     -0.03972
    473       2.0595     -0.03578
    474       2.0642     -0.03357
    475       2.0712     -0.03019
    476       2.0784     -0.02673
    477       2.0961     -0.01860
    478       2.0966     -0.01840
    479       2.1026     -0.01585
    480       2.1063     -0.01435
    481       2.1074     -0.01389
    482       2.1128     -0.01184
    483       2.1139     -0.01142
    484       2.1178     -0.01001
    485       2.1243     -0.00783
    486       2.1358     -0.00443
    487       2.1379     -0.00387
    488       2.1736      0.00269
    489       2.1749      0.00283
    490       2.1859      0.00383
    491       2.1892      0.00406
    492       2.2095      0.00486
    493       2.2140      0.00491
    494       2.2157      0.00492
    495       2.2214      0.00493
    496       2.2234      0.00492
    497       2.2279      0.00488
    498       2.2306      0.00485
    499       2.2361      0.00475
    500       2.2394      0.00468
    501       2.2447      0.00454
    502       2.2484      0.00444
    503       2.2534      0.00428
    504       2.2553      0.00422
    505       2.2644      0.00390
    506       2.2807      0.00330
    507       2.2851      0.00313
    508       2.2883      0.00301
    509       2.2968      0.00270
    510       2.2974      0.00268
    511       2.3002      0.00258
    512       2.3051      0.00241
    513       2.3069      0.00235
    514       2.3123      0.00217
    515       2.3166      0.00203
    516       2.3256      0.00177
    517       2.3350      0.00151
    518       2.3432      0.00131
    519       2.3455      0.00126
    520       2.3591      0.00098
    521       2.3622      0.00092
    522       2.3714      0.00077
    523       2.3724      0.00075
    524       2.3800      0.00065
    525       2.3831      0.00061
    526       2.3900      0.00052
    527       2.3943      0.00048
    528       2.4033      0.00039
    529       2.4106      0.00033
    530       2.4199      0.00027
    531       2.4224      0.00025
    532       2.4282      0.00022
    533       2.4350      0.00019
    534       2.4415      0.00016
    535       2.4444      0.00015
    536       2.4482      0.00013
    537       2.4556      0.00011
    538       2.4736      0.00007
    539       2.4745      0.00007
    540       2.4846      0.00005
    541       2.4883      0.00005
    542       2.5022      0.00003
    543       2.5061      0.00003
    544       2.5145      0.00002
    545       2.5168      0.00002
    546       2.5217      0.00002
    547       2.5219      0.00002
    548       2.5253      0.00002
    549       2.5316      0.00001
    550       2.5332      0.00001
    551       2.5411      0.00001
    552       2.5596      0.00001
    553       2.5617      0.00000
    554       2.5798      0.00000
    555       2.5887      0.00000
    556       2.6176      0.00000
    557       2.6256      0.00000
    558       2.6358      0.00000
    559       2.6463      0.00000
    560       2.6576      0.00000
    561       2.6618      0.00000
    562       2.6649      0.00000
    563       2.6730      0.00000
    564       2.6814      0.00000
    565       2.6860      0.00000
    566       2.6888      0.00000
    567       2.6942      0.00000
    568       2.6966      0.00000
    569       2.6974      0.00000
    570       2.7123      0.00000
    571       2.7193      0.00000
    572       2.7538      0.00000
    573       2.7617      0.00000
    574       2.7681      0.00000
    575       2.7741      0.00000
    576       2.7773      0.00000
    577       2.7871      0.00000
    578       2.7981      0.00000
    579       2.8040      0.00000
    580       2.8078      0.00000
    581       2.8097      0.00000
    582       2.8236      0.00000
    583       2.8279      0.00000
    584       2.8327      0.00000
    585       2.8360      0.00000
    586       2.8402      0.00000
    587       2.8416      0.00000
    588       2.8434      0.00000
    589       2.8482      0.00000
    590       2.8500      0.00000
    591       2.8517      0.00000
    592       2.8525      0.00000
    593       2.8528      0.00000
    594       2.8547      0.00000
    595       2.8611      0.00000
    596       2.8648      0.00000
    597       2.8681      0.00000
    598       2.8714      0.00000
    599       2.8782      0.00000
    600       2.8809      0.00000
    601       2.8822      0.00000
    602       2.8852      0.00000
    603       2.8894      0.00000
    604       2.8917      0.00000
    605       2.8927      0.00000
    606       2.9065      0.00000
    607       2.9190      0.00000
    608       2.9261      0.00000
    609       2.9324      0.00000
    610       2.9356      0.00000
    611       2.9383      0.00000
    612       2.9402      0.00000
    613       2.9438      0.00000
    614       2.9465      0.00000
    615       2.9469      0.00000
    616       2.9501      0.00000
    617       2.9510      0.00000
    618       2.9558      0.00000
    619       2.9569      0.00000
    620       2.9594      0.00000
    621       2.9759      0.00000
    622       2.9796      0.00000
    623       2.9814      0.00000
    624       2.9843      0.00000
    625       2.9860      0.00000
    626       2.9887      0.00000
    627       3.0226      0.00000
    628       3.0247      0.00000
    629       3.0283      0.00000
    630       3.0373      0.00000
    631       3.0380      0.00000
    632       3.0531      0.00000
    633       3.0547      0.00000
    634       3.0563      0.00000
    635       3.0619      0.00000
    636       3.0819      0.00000
    637       3.1061      0.00000
    638       3.1187      0.00000
    639       3.1341      0.00000
    640       3.1588      0.00000
    641       3.1607      0.00000
    642       3.1634      0.00000
    643       3.1812      0.00000
    644       3.2198      0.00000
    645       3.3118      0.00000
    646       3.3258      0.00000
    647       3.3709      0.00000
    648       3.3884      0.00000
    649       3.4057      0.00000
    650       3.4562      0.00000
    651       3.5011      0.00000
    652       3.5948      0.00000
    653       3.6318      0.00000
    654       3.7580      0.00000
    655       3.8048      0.00000
    656       3.9748      0.00000
    657       3.9875      0.00000
    658       4.0647      0.00000
    659       4.0745      0.00000
    660       4.1392      0.00000
    661       4.1424      0.00000
    662       4.1512      0.00000
    663       4.1569      0.00000
    664       4.1599      0.00000
    665       4.1827      0.00000
    666       4.1917      0.00000
    667       4.2952      0.00000
    668       4.3157      0.00000
    669       4.3336      0.00000
    670       4.3515      0.00000
    671       4.4144      0.00000
    672       4.4201      0.00000
    673       4.4303      0.00000
    674       4.4805      0.00000
    675       4.5241      0.00000
    676       4.5494      0.00000
    677       4.6423      0.00000
    678       4.6603      0.00000
    679       4.7190      0.00000
    680       4.7232      0.00000
    681       4.8028      0.00000
    682       4.8411      0.00000
    683       4.8564      0.00000
    684       4.9476      0.00000
    685       4.9522      0.00000
    686       4.9558      0.00000
    687       4.9584      0.00000
    688       4.9706      0.00000
    689       4.9847      0.00000
    690       5.0077      0.00000
    691       5.0156      0.00000
    692       5.0216      0.00000
    693       5.0888      0.00000
    694       5.1413      0.00000
    695       5.1697      0.00000
    696       5.1804      0.00000
    697       5.1924      0.00000
    698       5.2032      0.00000
    699       5.5737      0.00000
    700       5.6893      0.00000
    701       5.6989      0.00000
    702       5.7092      0.00000
    703       5.7301      0.00000
    704       5.7758      0.00000
    705       5.8685      0.00000
    706       6.0598      0.00000
    707       6.0691      0.00000
    708       6.0862      0.00000
    709       6.1242      0.00000
    710       6.1477      0.00000
    711       6.1519      0.00000
    712       6.2179      0.00000
    713       6.2654      0.00000
    714       6.3310      0.00000
    715       6.3661      0.00000
    716       6.4806      0.00000
    717       6.5140      0.00000
    718       6.6139      0.00000
    719       6.7573      0.00000
    720       6.7750      0.00000
    721       6.7913      0.00000
    722       6.8742      0.00000
    723       7.1066      0.00000
    724       7.2663      0.00000
    725       7.3389      0.00000
    726       7.3437      0.00000
    727       7.3857      0.00000
    728       7.6405      0.00000
    729       7.6516      0.00000
    730       7.6594      0.00000
    731       7.6655      0.00000
    732       7.7103      0.00000
    733       7.7154      0.00000
    734       7.7476      0.00000
    735       7.8098      0.00000
    736       7.8613      0.00000


--------------------------------------------------------------------------------------------------------


 soft charge-density along one line, spin component           1
         0         1         2         3         4         5         6         7         8         9
 total charge-density along one line
 
 soft charge-density along one line, spin component           2
         0         1         2         3         4         5         6         7         8         9
 total charge-density along one line
 
 pseudopotential strength for first ion, spin component:           1
 -6.356  -0.003  -0.000  -0.024   0.002  -6.783  -0.003  -0.000
 -0.003  -6.413  -0.004  -0.002  -0.026  -0.003  -6.838  -0.004
 -0.000  -0.004  -6.415  -0.002  -0.007  -0.000  -0.004  -6.840
 -0.024  -0.002  -0.002  -6.424  -0.006  -0.023  -0.002  -0.002
  0.002  -0.026  -0.007  -0.006  -6.370   0.002  -0.025  -0.007
 -6.783  -0.003  -0.000  -0.023   0.002  -7.158  -0.003  -0.000
 -0.003  -6.838  -0.004  -0.002  -0.025  -0.003  -7.211  -0.004
 -0.000  -0.004  -6.840  -0.002  -0.007  -0.000  -0.004  -7.213
 -0.023  -0.002  -0.002  -6.849  -0.006  -0.022  -0.002  -0.002
  0.002  -0.025  -0.007  -0.006  -6.797   0.001  -0.024  -0.006
  0.000   0.000   0.005   0.001  -0.000   0.000   0.000   0.005
  0.001   0.000   0.009   0.002  -0.001   0.001   0.000   0.009
 -0.000  -0.001  -0.000  -0.000  -0.001  -0.000  -0.001  -0.000
 -0.000   0.000   0.007  -0.000   0.000  -0.000   0.000   0.007
 -0.000  -0.000   0.000  -0.001  -0.000  -0.000  -0.000   0.000
 -0.000   0.001  -0.000  -0.000  -0.002  -0.000   0.001  -0.000
 -0.000   0.000   0.011  -0.000   0.000  -0.000   0.000   0.011
 -0.000  -0.000   0.000   0.001  -0.000  -0.000  -0.000   0.000
 pseudopotential strength for first ion, spin component:           2
 -4.993  -0.004  -0.003   0.020  -0.001  -5.478  -0.004  -0.003
 -0.004  -4.974   0.003   0.002   0.021  -0.004  -5.459   0.003
 -0.003   0.003  -4.997  -0.002   0.010  -0.003   0.003  -5.482
  0.020   0.002  -0.002  -4.972  -0.002   0.019   0.002  -0.002
 -0.001   0.021   0.010  -0.002  -4.994  -0.001   0.021   0.010
 -5.478  -0.004  -0.003   0.019  -0.001  -5.908  -0.004  -0.003
 -0.004  -5.459   0.003   0.002   0.021  -0.004  -5.890   0.002
 -0.003   0.003  -5.482  -0.002   0.010  -0.003   0.002  -5.912
  0.019   0.002  -0.002  -5.457  -0.002   0.019   0.002  -0.002
 -0.001   0.021   0.010  -0.002  -5.478  -0.001   0.020   0.009
 -0.001  -0.000  -0.002   0.001   0.001  -0.001  -0.000  -0.002
 -0.001  -0.000  -0.003   0.001   0.002  -0.001  -0.000  -0.003
 -0.000  -0.006  -0.000   0.000  -0.000  -0.000  -0.006  -0.000
  0.000   0.000  -0.009  -0.000  -0.000   0.000   0.000  -0.008
  0.000   0.000   0.000  -0.006  -0.000   0.000   0.000   0.000
 -0.000  -0.006  -0.000   0.000   0.000  -0.000  -0.005  -0.000
  0.000   0.000  -0.010  -0.000  -0.000   0.000   0.000  -0.010
  0.001   0.000   0.000  -0.006  -0.000   0.001   0.000   0.000
 total augmentation occupancy for first ion, spin component:           1
  2.701  -0.008  -0.036   0.054  -0.010  -1.326   0.007   0.027  -0.031   0.011   0.001   0.000  -0.000   0.004   0.023   0.000
 -0.008   2.734  -0.005  -0.002   0.053   0.007  -1.164  -0.001  -0.001  -0.034  -0.003  -0.001  -0.179  -0.001  -0.000   0.009
 -0.036  -0.005   2.818  -0.004   0.046   0.027  -0.001  -1.311   0.003  -0.038   0.339   0.018  -0.003  -0.121   0.001   0.000
  0.054  -0.002  -0.004   2.713  -0.008  -0.032  -0.001   0.003  -1.158   0.004   0.000   0.001  -0.002  -0.000  -0.178   0.000
 -0.010   0.053   0.046  -0.008   2.516   0.011  -0.033  -0.037   0.004  -1.208  -0.039  -0.007   0.026  -0.005  -0.001  -0.001
 -1.326   0.007   0.027  -0.032   0.011   1.529  -0.006  -0.020  -0.018  -0.009  -0.001  -0.000   0.000  -0.003  -0.032  -0.000
  0.007  -1.164  -0.001  -0.001  -0.033  -0.006   1.135   0.003   0.001  -0.016   0.002   0.000   0.190   0.001   0.001  -0.021
  0.027  -0.001  -1.311   0.003  -0.037  -0.020   0.003   1.357  -0.002   0.024  -0.430   0.018   0.001   0.232  -0.001  -0.000
 -0.031  -0.001   0.003  -1.158   0.004  -0.018   0.001  -0.002   1.133  -0.004  -0.001  -0.001   0.001   0.000   0.190  -0.000
  0.011  -0.034  -0.038   0.004  -1.208  -0.009  -0.016   0.024  -0.004   1.445   0.029   0.006  -0.034   0.004   0.001   0.002
  0.001  -0.003   0.339   0.000  -0.039  -0.001   0.002  -0.430  -0.001   0.029   2.052  -0.192  -0.001   0.189  -0.000   0.000
  0.000  -0.001   0.018   0.001  -0.007  -0.000   0.000   0.018  -0.001   0.006  -0.192   0.028  -0.000  -0.033  -0.000  -0.000
 -0.000  -0.179  -0.003  -0.002   0.026   0.000   0.190   0.001   0.001  -0.034  -0.001  -0.000   0.268   0.001   0.000  -0.024
  0.004  -0.001  -0.121  -0.000  -0.005  -0.003   0.001   0.232   0.000   0.004   0.189  -0.033   0.001   0.174   0.001  -0.000
  0.023  -0.000   0.001  -0.178  -0.001  -0.032   0.001  -0.001   0.190   0.001  -0.000  -0.000   0.000   0.001   0.259   0.000
  0.000   0.009   0.000   0.000  -0.001  -0.000  -0.021  -0.000  -0.000   0.002   0.000  -0.000  -0.024  -0.000   0.000   0.002
  0.000   0.000  -0.008   0.000   0.000  -0.000  -0.000  -0.015   0.000  -0.000  -0.031   0.004  -0.000  -0.017   0.000  -0.000
 -0.001   0.000  -0.000   0.008   0.000   0.002  -0.000   0.000  -0.021   0.000  -0.000  -0.000   0.000   0.000  -0.023   0.000
 total augmentation occupancy for first ion, spin component:           2
  2.007  -0.008  -0.038   0.059  -0.016  -0.949   0.005   0.028  -0.015   0.012  -0.002   0.000  -0.001   0.003   0.003   0.000
 -0.008   2.011   0.015   0.007   0.068   0.005  -0.914  -0.006  -0.002  -0.019  -0.005  -0.001   0.003   0.000  -0.002  -0.009
 -0.038   0.015   2.031  -0.002   0.063   0.027  -0.006  -0.940   0.002  -0.035   0.023   0.050   0.003  -0.049  -0.000  -0.000
  0.059   0.007  -0.002   2.023   0.004  -0.015  -0.002   0.002  -0.914  -0.000   0.002   0.002  -0.000  -0.000   0.002  -0.000
 -0.016   0.068   0.063   0.004   1.891   0.012  -0.018  -0.035   0.000  -0.849  -0.022  -0.006   0.005  -0.004  -0.001  -0.000
 -0.949   0.005   0.027  -0.015   0.012   0.248  -0.003  -0.019   0.006  -0.010  -0.000  -0.001   0.000  -0.003   0.002  -0.000
  0.005  -0.914  -0.006  -0.002  -0.018  -0.003   0.245   0.002   0.001   0.007   0.004   0.000  -0.006  -0.001   0.001   0.006
  0.028  -0.006  -0.940   0.002  -0.035  -0.019   0.002   0.259  -0.002   0.021   0.017  -0.030  -0.001  -0.004  -0.000   0.000
 -0.015  -0.002   0.002  -0.914   0.000   0.006   0.001  -0.002   0.243  -0.001  -0.001  -0.001   0.001   0.000  -0.006   0.000
  0.012  -0.019  -0.035  -0.000  -0.849  -0.010   0.007   0.021  -0.001   0.174   0.016   0.004   0.001   0.002   0.000  -0.000
 -0.002  -0.005   0.023   0.002  -0.022  -0.000   0.004   0.017  -0.001   0.016  -0.275   0.083   0.000  -0.021  -0.001  -0.000
  0.000  -0.001   0.050   0.002  -0.006  -0.001   0.000  -0.030  -0.001   0.004   0.083  -0.011  -0.000   0.006  -0.000   0.000
 -0.001   0.003   0.003  -0.000   0.005   0.000  -0.006  -0.001   0.001   0.001   0.000  -0.000  -0.025   0.000  -0.000   0.004
  0.003   0.000  -0.049  -0.000  -0.004  -0.003  -0.001  -0.004   0.000   0.002  -0.021   0.006   0.000  -0.021   0.001  -0.000
  0.003  -0.002  -0.000   0.002  -0.001   0.002   0.001  -0.000  -0.006   0.000  -0.001  -0.000  -0.000   0.001  -0.031   0.000
  0.000  -0.009  -0.000  -0.000  -0.000  -0.000   0.006   0.000   0.000  -0.000  -0.000   0.000   0.004  -0.000   0.000  -0.000
  0.000   0.000  -0.014   0.000  -0.000  -0.000  -0.000   0.009  -0.000   0.000   0.003  -0.002  -0.000   0.003  -0.000   0.000
  0.000   0.000   0.000  -0.009   0.000  -0.000  -0.000  -0.000   0.006  -0.000   0.000  -0.000   0.000  -0.000   0.004  -0.000


------------------------ aborting loop because EDIFF is reached ----------------------------------------


    CHARGE:  cpu time    1.03: real time    1.05
    FORLOC:  cpu time    0.07: real time    0.07
    FORNL :  cpu time    3.02: real time    3.03
    STRESS:  cpu time    8.69: real time    8.79
    FORCOR:  cpu time    0.42: real time    0.42
    FORHAR:  cpu time    0.11: real time    0.11
    MIXING:  cpu time    0.03: real time    0.03

  FORCE on cell =-STRESS in cart. coord.  units (eV):
  Direction    XX          YY          ZZ          XY          YZ          ZX
  --------------------------------------------------------------------------------------
  Alpha Z  2067.85644  2067.85644  2067.85644
  Ewald  484425.57778484431.84595************     3.64445     6.82511     3.34909
  Hartree508696.88885508699.57985************     6.51216    -1.46705    -1.48374
  E(xc)   -5564.36493 -5564.13096 -5570.99770    -0.16372     0.43097     0.28082
  Local  ************************************   -19.74467     8.70193     7.88347
  n-local  -668.40397  -629.96363  -703.20958     6.15707     3.10059     2.19157
  augment 18701.01234 18692.50377 18674.51267     4.00704   -10.84634    -8.00084
  Kinetic  9176.65465  9190.88825  9252.99725     3.39863    -8.09049    -4.62114
  Fock        0.00000     0.00000     0.00000     0.00000     0.00000     0.00000
  -------------------------------------------------------------------------------------
  Total     -61.99332   -30.59611   -13.07377     3.81096    -1.34528    -0.40077
  in kB     -33.35015   -16.45960    -7.03321     2.05016    -0.72371    -0.21560
  external pressure =      -18.95 kB  Pullay stress =        0.00 kB


 VOLUME and BASIS-vectors are now :
 -----------------------------------------------------------------------------
  energy-cutoff  :      450.00
  volume of cell :     2978.23
      direct lattice vectors                 reciprocal lattice vectors
     9.956100464  0.000000000  0.000000000     0.100440931  0.057989601  0.000000000
    -7.467050076 12.933309555  0.000000000     0.000000000  0.077319730  0.000000000
     0.000000000  0.000000000 23.129100800     0.000000000  0.000000000  0.043235576

  length of vectors
     9.956100464 14.934099667 23.129100800     0.115979198  0.077319730  0.043235576


 FORCES acting on ions
    electron-ion (+dipol)            ewald-force                    non-local-force                 convergence-correction
 -----------------------------------------------------------------------------------------------
   -.216E-01 0.116E+00 0.306E+04   0.789E-02 -.145E+00 -.306E+04   0.184E-01 0.286E-01 -.135E+01   0.449E-04 -.166E-03 -.240E-03
   -.155E-02 0.128E+00 0.306E+04   -.269E-01 -.163E+00 -.306E+04   0.174E-01 0.476E-01 -.137E+01   0.468E-03 -.306E-03 -.171E-03
   -.211E-01 0.189E+00 0.306E+04   0.646E-03 -.207E+00 -.306E+04   0.222E-01 0.226E-01 -.129E+01   0.122E-04 -.220E-04 -.186E-03
   -.267E-01 0.119E+00 0.306E+04   0.279E-01 -.189E+00 -.306E+04   0.926E-02 0.718E-01 -.126E+01   -.526E-03 0.742E-04 -.302E-03
   -.900E-01 0.171E+00 0.306E+04   0.836E-01 -.197E+00 -.306E+04   0.610E-03 0.392E-01 -.138E+01   -.524E-03 0.279E-03 -.280E-03
   0.308E-01 0.119E+00 0.306E+04   -.342E-01 -.143E+00 -.306E+04   0.128E-01 0.310E-01 -.138E+01   0.234E-03 0.133E-03 -.243E-03
   0.433E-01 0.185E+00 0.306E+04   -.916E-01 -.211E+00 -.306E+04   0.438E-01 0.390E-01 -.139E+01   0.579E-03 0.154E-03 -.171E-03
   -.387E-01 0.274E+00 0.306E+04   0.260E-01 -.265E+00 -.306E+04   0.191E-01 0.324E-02 -.131E+01   -.289E-03 0.308E-03 -.185E-03
   -.153E+00 0.111E+00 0.306E+04   0.129E+00 -.112E+00 -.306E+04   0.165E-01 0.264E-01 -.132E+01   -.555E-03 0.180E-03 -.193E-03
   -.524E-01 0.111E+00 0.306E+04   0.855E-01 -.863E-01 -.306E+04   -.227E-01 -.224E-01 -.132E+01   -.251E-03 0.226E-03 -.321E-03
   0.948E-01 0.596E-01 0.306E+04   -.137E+00 -.917E-01 -.306E+04   0.296E-01 0.600E-01 -.135E+01   0.560E-03 0.224E-03 -.270E-03
   0.481E-01 0.116E+00 0.306E+04   -.766E-01 -.115E+00 -.306E+04   0.280E-01 -.223E-02 -.137E+01   0.246E-03 0.174E-03 -.102E-03
   -.112E+00 -.148E+00 0.306E+04   0.379E-01 0.110E+00 -.306E+04   0.663E-01 0.513E-01 -.140E+01   -.157E-03 -.644E-04 -.166E-03
   -.132E+00 -.103E+00 0.306E+04   0.120E+00 0.449E-01 -.306E+04   0.144E-01 0.682E-01 -.131E+01   -.531E-03 0.616E-04 -.412E-03
   0.545E-02 -.537E-01 0.306E+04   -.356E-01 -.982E-02 -.306E+04   0.339E-01 0.621E-01 -.130E+01   0.192E-03 0.837E-05 -.556E-03
   0.167E+00 -.699E-01 0.306E+04   -.113E+00 0.554E-01 -.306E+04   -.452E-01 0.224E-01 -.131E+01   0.496E-03 -.111E-03 -.344E-03
   0.791E-02 -.389E+00 0.306E+04   -.642E-02 0.327E+00 -.306E+04   0.111E-01 0.639E-01 -.129E+01   0.299E-03 -.237E-03 -.151E-03
   -.714E-01 -.259E+00 0.306E+04   0.315E-01 0.310E+00 -.306E+04   0.304E-01 -.633E-01 -.131E+01   -.311E-03 -.572E-04 -.185E-03
   -.211E-01 -.267E+00 0.306E+04   0.762E-02 0.240E+00 -.306E+04   0.184E-01 0.352E-01 -.130E+01   -.378E-03 -.495E-04 -.494E-03
   0.471E-01 -.257E+00 0.306E+04   -.482E-01 0.260E+00 -.306E+04   -.721E-02 0.968E-02 -.126E+01   0.389E-03 -.238E-03 -.497E-03
   -.367E-01 -.189E+00 0.306E+04   -.396E-02 0.159E+00 -.306E+04   0.399E-01 0.659E-01 -.129E+01   0.446E-03 -.246E-03 -.216E-03
   -.567E-01 -.242E+00 0.306E+04   0.768E-02 0.142E+00 -.306E+04   0.382E-01 0.893E-01 -.138E+01   0.167E-03 -.186E-03 -.761E-04
   0.467E-02 -.135E+00 0.306E+04   0.299E-03 0.132E+00 -.306E+04   -.714E-02 0.292E-01 -.139E+01   -.488E-03 -.417E-04 -.254E-03
   0.274E-01 -.108E+00 0.306E+04   -.289E-02 0.146E+00 -.306E+04   -.156E-01 -.347E-01 -.125E+01   -.125E-03 -.975E-04 -.384E-03
   -.316E-01 0.654E-01 0.155E+04   0.310E-01 -.799E-01 -.155E+04   -.312E-02 0.108E-01 -.469E+00   -.829E-04 0.663E-04 -.981E-03
   0.595E-01 0.556E-01 0.155E+04   -.656E-01 -.791E-01 -.155E+04   0.679E-02 0.773E-02 -.400E+00   0.432E-03 -.230E-03 -.838E-03
   0.194E-01 0.220E+00 0.155E+04   -.328E-02 -.231E+00 -.155E+04   -.174E-02 0.393E-01 -.412E+00   0.132E-03 -.271E-03 -.876E-03
   -.465E-01 0.167E+00 0.155E+04   0.339E-01 -.148E+00 -.155E+04   0.236E-01 0.379E-02 -.436E+00   -.481E-03 -.440E-04 -.113E-02
   -.204E+00 0.614E+00 0.155E+04   0.168E+00 -.655E+00 -.155E+04   0.354E-01 0.446E-01 -.478E+00   -.424E-03 0.315E-03 -.109E-02
   -.890E-01 0.286E+00 0.155E+04   0.107E+00 -.287E+00 -.155E+04   -.254E-01 0.314E-02 -.409E+00   -.741E-05 0.402E-04 -.855E-03
   0.253E+00 0.307E+00 0.155E+04   -.257E+00 -.316E+00 -.155E+04   0.100E-01 0.246E-01 -.423E+00   0.436E-03 -.174E-04 -.800E-03
   0.194E-01 0.641E+00 0.155E+04   -.141E-02 -.683E+00 -.155E+04   -.778E-02 0.492E-01 -.509E+00   -.325E-05 0.235E-03 -.106E-02
   -.122E+00 0.416E+00 0.155E+04   0.110E+00 -.440E+00 -.155E+04   0.166E-01 0.361E-01 -.524E+00   -.292E-03 0.193E-03 -.114E-02
   -.711E+00 0.135E+00 0.155E+04   0.691E+00 -.129E+00 -.155E+04   0.183E-01 0.817E-02 -.452E+00   -.494E-03 0.880E-04 -.117E-02
   0.148E+00 -.206E+00 0.155E+04   -.154E+00 0.173E+00 -.155E+04   0.102E-01 0.613E-01 -.446E+00   0.245E-03 -.541E-04 -.105E-02
   0.697E+00 0.160E+00 0.155E+04   -.664E+00 -.162E+00 -.155E+04   -.264E-01 0.169E-01 -.520E+00   0.542E-03 0.450E-04 -.103E-02
   0.254E+00 -.751E-01 0.155E+04   -.270E+00 0.571E-01 -.155E+04   0.102E-01 0.501E-01 -.536E+00   0.323E-03 -.157E-03 -.134E-02
   -.491E+00 -.816E-01 0.155E+04   0.490E+00 0.773E-01 -.155E+04   0.917E-02 0.242E-01 -.541E+00   -.642E-03 -.749E-04 -.139E-02
   -.497E+00 0.347E+00 0.155E+04   0.478E+00 -.332E+00 -.155E+04   0.205E-01 0.505E-02 -.465E+00   -.314E-03 -.230E-03 -.158E-02
   0.725E+00 0.347E+00 0.155E+04   -.698E+00 -.318E+00 -.155E+04   -.345E-01 -.271E-01 -.466E+00   0.634E-03 -.321E-03 -.155E-02
   0.152E+00 -.446E+00 0.155E+04   -.177E+00 0.418E+00 -.155E+04   0.358E-01 0.397E-01 -.455E+00   0.783E-03 -.577E-04 -.142E-02
   -.107E+00 -.663E+00 0.155E+04   0.125E+00 0.653E+00 -.155E+04   -.650E-02 0.546E-01 -.612E+00   -.894E-04 0.770E-04 -.117E-02
   -.147E+00 -.283E+00 0.155E+04   0.155E+00 0.282E+00 -.155E+04   -.557E-02 0.137E-01 -.483E+00   -.775E-03 0.162E-03 -.150E-02
   0.902E-01 0.260E-01 0.155E+04   -.875E-01 -.467E-01 -.155E+04   -.431E-02 0.326E-01 -.384E+00   0.834E-04 0.283E-04 -.170E-02
   0.591E-02 -.610E+00 0.155E+04   -.309E-01 0.600E+00 -.155E+04   0.197E-01 0.307E-01 -.419E+00   0.514E-03 0.117E-03 -.117E-02
   -.978E-01 -.620E+00 0.155E+04   0.774E-01 0.585E+00 -.155E+04   0.311E-01 0.475E-01 -.443E+00   0.490E-03 -.781E-04 -.870E-03
   0.759E-01 -.525E+00 0.155E+04   -.592E-01 0.516E+00 -.155E+04   -.184E-01 0.447E-02 -.458E+00   -.467E-03 -.184E-04 -.103E-02
   0.221E-01 -.553E+00 0.155E+04   -.276E-02 0.539E+00 -.155E+04   -.159E-01 0.157E-01 -.404E+00   -.536E-03 0.198E-03 -.128E-02
   0.164E+00 0.243E+01 0.230E+02   -.155E+00 -.241E+01 -.230E+02   -.132E-01 -.503E-01 0.333E-01   -.910E-04 0.623E-04 -.112E-02
   0.858E+00 0.159E+01 0.229E+02   -.868E+00 -.151E+01 -.228E+02   -.766E-02 -.842E-01 0.484E-02   0.379E-03 -.217E-03 -.111E-02
   -.292E+00 0.236E+01 0.238E+02   0.288E+00 -.241E+01 -.239E+02   0.472E-02 0.201E-01 0.432E-01   0.195E-03 -.901E-04 -.103E-02
   -.399E+00 0.189E+01 0.219E+02   0.389E+00 -.192E+01 -.220E+02   0.214E-01 0.269E-02 0.131E+00   -.482E-03 0.149E-03 -.107E-02
   -.408E+00 0.192E+01 0.256E+02   0.432E+00 -.194E+01 -.257E+02   -.630E-02 0.191E-01 0.774E-01   -.561E-03 0.143E-03 -.129E-02
   -.114E+01 -.296E+01 0.228E+02   0.112E+01 0.292E+01 -.228E+02   0.330E-01 0.613E-01 0.931E-01   -.532E-04 -.184E-03 -.126E-02
   0.208E+01 -.282E+01 0.236E+02   -.205E+01 0.283E+01 -.236E+02   -.274E-01 0.179E-01 0.918E-01   0.605E-03 -.162E-03 -.115E-02
   -.215E+00 0.177E+01 0.257E+02   0.194E+00 -.175E+01 -.258E+02   0.146E-01 -.163E-01 0.906E-01   0.113E-04 0.128E-03 -.120E-02
   -.263E+00 -.184E+00 0.266E+02   0.259E+00 0.188E+00 -.266E+02   -.621E-02 -.310E-01 0.670E-01   -.362E-03 -.218E-03 -.143E-02
   -.492E+01 0.142E+01 0.238E+02   0.491E+01 -.140E+01 -.238E+02   0.559E-01 -.484E-01 0.100E+00   -.703E-03 -.342E-03 -.142E-02
   0.871E+00 0.112E+01 0.187E+02   -.872E+00 -.114E+01 -.186E+02   -.659E-02 -.120E-01 0.900E-01   0.316E-03 -.647E-03 -.133E-02
   0.468E+01 0.188E+01 0.250E+02   -.468E+01 -.188E+01 -.250E+02   -.528E-01 -.213E-01 0.702E-01   0.750E-03 -.557E-03 -.135E-02
   -.901E+00 -.208E+01 0.261E+02   0.816E+00 0.204E+01 -.261E+02   0.431E-01 0.273E-01 0.689E-01   0.582E-03 0.133E-03 -.143E-02
   -.321E-04 -.172E+01 0.249E+02   0.842E-01 0.164E+01 -.249E+02   -.481E-01 0.149E-01 0.845E-01   -.821E-03 0.281E-03 -.138E-02
   -.216E+01 0.261E+01 0.245E+02   0.213E+01 -.263E+01 -.245E+02   0.352E-01 -.439E-02 0.731E-01   -.535E-03 0.155E-03 -.128E-02
   0.328E+01 0.196E+01 0.252E+02   -.325E+01 -.197E+01 -.252E+02   -.424E-01 -.441E-01 0.355E-01   0.775E-03 0.244E-04 -.133E-02
   -.647E+00 -.245E+01 0.239E+02   0.649E+00 0.243E+01 -.239E+02   -.626E-02 -.106E-01 0.678E-01   0.934E-03 0.334E-03 -.112E-02
   -.391E+00 -.196E+01 0.220E+02   0.401E+00 0.196E+01 -.221E+02   -.997E-02 -.418E-01 0.137E+00   -.881E-04 0.235E-03 -.124E-02
   0.143E+01 -.153E+01 0.239E+02   -.146E+01 0.156E+01 -.239E+02   0.107E-01 -.546E-01 0.673E-01   -.900E-03 0.445E-03 -.109E-02
   -.152E+00 -.219E+01 0.242E+02   0.164E+00 0.217E+01 -.242E+02   -.516E-02 -.366E-02 0.271E-01   0.558E-04 0.488E-03 -.103E-02
   0.324E+00 -.159E+00 0.212E+02   -.318E+00 0.157E+00 -.213E+02   -.118E-01 -.131E-01 0.566E-01   0.476E-03 0.109E-03 -.107E-02
   -.366E+00 0.454E+00 0.218E+02   0.352E+00 -.463E+00 -.218E+02   -.226E-02 0.251E-02 0.156E-01   0.437E-03 -.262E-03 -.113E-02
   0.456E+00 0.440E-01 0.216E+02   -.451E+00 -.361E-01 -.216E+02   0.654E-02 -.169E-01 0.403E-01   -.455E-03 -.147E-03 -.106E-02
   -.378E+00 -.595E+00 0.216E+02   0.375E+00 0.624E+00 -.216E+02   -.281E-02 -.434E-01 0.505E-01   -.457E-03 0.142E-03 -.108E-02
   0.414E-01 0.446E+01 -.150E+04   -.451E-01 -.444E+01 0.150E+04   0.296E-02 -.194E-01 0.465E+00   0.199E-03 -.114E-03 -.638E-03
   -.465E+00 0.527E+01 -.150E+04   0.446E+00 -.531E+01 0.150E+04   0.170E-01 0.321E-01 0.466E+00   0.266E-03 -.164E-03 -.102E-02
   -.106E+01 0.316E+01 -.150E+04   0.112E+01 -.313E+01 0.150E+04   -.655E-01 -.321E-01 0.399E+00   -.235E-03 -.657E-05 -.124E-02
   0.618E+00 0.276E+01 -.150E+04   -.643E+00 -.270E+01 0.150E+04   0.261E-01 -.626E-01 0.402E+00   -.229E-03 0.196E-04 -.910E-03
   0.182E+01 0.825E+01 -.149E+04   -.185E+01 -.823E+01 0.148E+04   0.304E-01 -.193E-01 0.444E+00   -.168E-03 -.154E-03 -.957E-03
   0.292E+00 0.497E+01 -.149E+04   -.288E+00 -.459E+01 0.148E+04   -.414E-02 -.388E+00 0.661E-01   0.298E-03 -.243E-03 -.905E-03
   -.208E+01 0.885E+01 -.149E+04   0.213E+01 -.886E+01 0.148E+04   -.420E-01 0.939E-02 0.441E+00   0.285E-03 -.929E-04 -.124E-02
   -.476E+00 0.692E+01 -.150E+04   0.470E+00 -.698E+01 0.150E+04   0.641E-02 0.577E-01 0.516E+00   -.415E-03 0.557E-04 -.122E-02
   0.289E+01 0.769E+00 -.148E+04   -.280E+01 -.758E+00 0.148E+04   -.884E-01 -.142E-01 0.412E+00   -.554E-03 -.163E-03 -.123E-02
   0.109E+00 0.540E+00 -.149E+04   -.926E-01 -.539E+00 0.149E+04   -.197E-01 -.714E-02 0.479E+00   -.223E-04 -.404E-03 -.103E-02
   0.768E+00 0.189E+01 -.149E+04   -.807E+00 -.184E+01 0.149E+04   0.437E-01 -.507E-01 0.553E+00   0.475E-03 -.549E-03 -.121E-02
   -.403E+01 0.166E+01 -.148E+04   0.399E+01 -.167E+01 0.148E+04   0.406E-01 0.103E-01 0.464E+00   0.977E-04 -.334E-03 -.144E-02
   -.171E+01 -.415E+01 -.149E+04   0.178E+01 0.422E+01 0.149E+04   -.665E-01 -.652E-01 0.565E+00   -.117E-03 0.643E-04 -.120E-02
   -.206E+00 -.178E+01 -.148E+04   0.480E+00 0.161E+01 0.148E+04   -.274E+00 0.171E+00 0.295E-01   -.623E-03 0.177E-03 -.896E-03
   0.130E+01 -.755E+00 -.149E+04   -.128E+01 0.709E+00 0.149E+04   -.177E-01 0.523E-01 0.426E+00   0.968E-04 -.348E-04 -.760E-03
   0.163E+00 -.204E+01 -.148E+04   -.486E+00 0.186E+01 0.148E+04   0.323E+00 0.185E+00 0.155E-03   0.645E-03 -.106E-03 -.111E-02
   -.400E+01 -.694E+01 -.150E+04   0.400E+01 0.694E+01 0.150E+04   0.235E-02 -.104E-01 0.475E+00   0.353E-03 0.385E-03 -.121E-02
   0.277E+01 -.668E+01 -.150E+04   -.275E+01 0.670E+01 0.150E+04   -.207E-01 -.164E-01 0.447E+00   -.396E-03 0.389E-03 -.119E-02
   0.285E+01 -.827E+01 -.149E+04   -.287E+01 0.826E+01 0.149E+04   0.163E-01 0.112E-01 0.472E+00   -.375E-03 0.540E-03 -.641E-03
   -.196E+01 -.982E+01 -.149E+04   0.195E+01 0.982E+01 0.149E+04   0.157E-02 -.648E-02 0.485E+00   0.418E-03 0.576E-03 -.598E-03
   -.606E+00 -.298E+01 -.150E+04   0.610E+00 0.302E+01 0.150E+04   -.610E-02 -.427E-01 0.413E+00   0.354E-03 0.262E-04 -.865E-03
   0.286E+00 -.918E+00 -.151E+04   -.271E+00 0.952E+00 0.151E+04   -.126E-01 -.333E-01 0.408E+00   0.258E-05 -.296E-04 -.140E-02
   0.137E+01 -.341E+01 -.150E+04   -.139E+01 0.350E+01 0.150E+04   0.184E-01 -.923E-01 0.360E+00   -.450E-03 0.458E-04 -.114E-02
   -.824E+00 -.414E+01 -.150E+04   0.826E+00 0.418E+01 0.150E+04   -.260E-02 -.464E-01 0.452E+00   0.911E-04 0.137E-03 -.560E-03
   0.158E+01 0.230E+01 -.307E+04   -.155E+01 -.216E+01 0.307E+04   -.275E-01 -.142E+00 0.142E+01   0.340E-03 -.634E-04 -.149E-03
   -.230E+01 0.843E+01 -.306E+04   0.225E+01 -.846E+01 0.306E+04   0.463E-01 0.293E-01 0.133E+01   -.975E-04 -.867E-04 -.284E-03
   0.106E+01 0.504E+01 -.307E+04   -.101E+01 -.503E+01 0.307E+04   -.506E-01 -.119E-01 0.140E+01   -.191E-03 0.266E-04 -.530E-03
   0.843E-01 0.158E+01 -.307E+04   -.539E-01 -.157E+01 0.307E+04   -.327E-01 -.180E-01 0.141E+01   -.520E-04 0.105E-04 -.460E-03
   0.719E+01 0.137E+02 -.306E+04   -.718E+01 -.136E+02 0.306E+04   -.146E-01 -.945E-01 0.141E+01   -.109E-05 -.137E-03 -.361E-03
   0.118E+02 0.335E+02 -.305E+04   -.117E+02 -.334E+02 0.304E+04   -.993E-01 -.157E+00 0.145E+01   0.842E-04 -.505E-03 -.277E-03
   -.136E+02 0.332E+02 -.304E+04   0.135E+02 -.331E+02 0.304E+04   0.976E-01 -.131E+00 0.144E+01   0.281E-04 -.360E-03 -.475E-03
   -.522E+01 0.146E+02 -.306E+04   0.526E+01 -.146E+02 0.306E+04   -.497E-01 -.511E-01 0.138E+01   -.112E-03 -.531E-04 -.626E-03
   -.728E-01 0.116E+02 -.306E+04   0.923E-01 -.114E+02 0.305E+04   -.187E-01 -.126E+00 0.127E+01   -.164E-03 -.124E-03 -.598E-03
   0.353E+02 0.237E+02 -.303E+04   -.360E+02 -.241E+02 0.303E+04   0.692E+00 0.399E+00 0.208E+01   -.211E-03 -.346E-03 -.407E-03
   -.129E+01 0.152E+03 -.296E+04   0.129E+01 -.153E+03 0.296E+04   -.949E-02 0.114E+01 0.824E+00   0.107E-03 -.611E-03 -.471E-03
   -.322E+02 0.243E+02 -.303E+04   0.330E+02 -.247E+02 0.303E+04   -.808E+00 0.446E+00 0.207E+01   0.246E-03 -.395E-03 -.741E-03
   -.273E+02 -.823E+01 -.304E+04   0.272E+02 0.832E+01 0.304E+04   0.128E+00 -.904E-01 0.147E+01   0.408E-03 0.152E-04 -.532E-03
   0.254E+02 -.970E+01 -.304E+04   -.252E+02 0.979E+01 0.304E+04   -.158E+00 -.101E+00 0.148E+01   -.458E-03 0.130E-03 -.394E-03
   0.129E+03 -.770E+02 -.296E+04   -.130E+03 0.776E+02 0.296E+04   0.974E+00 -.612E+00 0.949E+00   -.286E-03 0.740E-04 -.269E-03
   -.125E+03 -.744E+02 -.295E+04   0.126E+03 0.750E+02 0.295E+04   -.986E+00 -.594E+00 0.788E+00   0.330E-03 -.255E-06 -.371E-03
   -.206E+02 -.299E+02 -.305E+04   0.207E+02 0.297E+02 0.304E+04   -.468E-01 0.198E+00 0.148E+01   0.299E-03 0.592E-03 -.334E-03
   -.686E+00 -.150E+02 -.307E+04   0.738E+00 0.151E+02 0.307E+04   -.498E-01 -.733E-01 0.143E+01   -.372E-04 0.168E-03 -.484E-03
   0.194E+02 -.288E+02 -.305E+04   -.194E+02 0.286E+02 0.305E+04   0.535E-01 0.141E+00 0.149E+01   -.346E-03 0.389E-03 -.386E-03
   0.161E+01 -.444E+02 -.303E+04   -.160E+01 0.452E+02 0.303E+04   -.142E-01 -.783E+00 0.205E+01   0.878E-04 0.671E-03 -.229E-03
   -.372E+01 -.138E+02 -.306E+04   0.381E+01 0.137E+02 0.306E+04   -.827E-01 0.498E-01 0.134E+01   0.183E-03 0.332E-03 -.226E-03
   -.545E+01 -.505E+01 -.307E+04   0.539E+01 0.498E+01 0.307E+04   0.642E-01 0.634E-01 0.143E+01   -.153E-03 0.140E-03 -.474E-03
   0.492E+01 -.320E+01 -.307E+04   -.484E+01 0.324E+01 0.307E+04   -.780E-01 -.437E-01 0.142E+01   -.168E-03 0.970E-05 -.564E-03
   0.441E+01 -.129E+02 -.306E+04   -.446E+01 0.129E+02 0.306E+04   0.440E-01 -.680E-01 0.133E+01   0.134E-03 0.169E-03 -.330E-03
   -.216E+01 -.116E+01 -.238E+04   0.232E+01 0.151E+01 0.240E+04   -.151E+00 -.349E+00 -.267E+02   0.916E-05 -.146E-03 0.396E-03
 -----------------------------------------------------------------------------------------------
   0.264E+00 0.311E+00 0.244E+02   -.120E-13 -.143E-12 -.136E-10   -.223E+00 -.350E+00 -.243E+02   -.109E-04 -.683E-04 -.976E-01
 
 
 POSITION                                       TOTAL-FORCE (eV/Angst)
 -----------------------------------------------------------------------------------
      1.24451      0.71857      0.00000         0.004356     -0.000426      0.280108
      3.73354      0.71857      0.00000        -0.010946      0.012556      0.291308
      6.22256      0.71857      0.00000         0.001462      0.004686      0.287606
      8.71159      0.71857      0.00000         0.009602      0.002117      0.280584
      0.00006      2.87404      0.00000        -0.006709      0.013336      0.286660
      2.48908      2.87404      0.00000         0.009265      0.006973      0.277975
      4.97812      2.87404      0.00000        -0.004322      0.013960      0.281087
      7.46714      2.87404      0.00000         0.005757      0.012924      0.296142
     -1.24448      5.02963      0.00000        -0.007864      0.026591      0.300736
      1.24455      5.02963      0.00000         0.009727      0.002846      0.272511
      3.73357      5.02963      0.00000        -0.012531      0.028498      0.277544
      6.22260      5.02963      0.00000        -0.000630     -0.001125      0.278695
     -2.48901      7.18523      0.00000        -0.008121      0.013920      0.273797
      0.00001      7.18523      0.00000         0.002030      0.010494      0.263624
      2.48904      7.18523      0.00000         0.003648     -0.001113      0.273122
      4.97806      7.18523      0.00000         0.008744      0.008136      0.277999
     -3.73347      9.34069      0.00000         0.012530      0.002809      0.288778
     -1.24445      9.34069      0.00000        -0.010254     -0.011339      0.286668
      1.24458      9.34069      0.00000         0.004167      0.008272      0.279961
      3.73361      9.34069      0.00000        -0.008230      0.012487      0.294800
     -4.97800     11.49629      0.00000        -0.000700      0.035992      0.292781
     -2.48898     11.49629      0.00000        -0.011045     -0.010801      0.281552
      0.00005     11.49629      0.00000        -0.002994      0.026947      0.296411
      2.48907     11.49629      0.00000         0.008416      0.003253      0.281001
      0.00000      0.00000      2.03235        -0.004144     -0.003341     -0.317248
      2.48903      0.00000      2.03235         0.000815     -0.015764     -0.339429
      4.97805      0.00000      2.03235         0.014127      0.027838     -0.302151
      7.46708      0.00000      2.03235         0.010095      0.023086     -0.322958
     -1.24453      2.15559      2.03235        -0.001863      0.003880     -0.337235
      1.24449      2.15559      2.03235        -0.007797      0.003152     -0.308047
      3.73352      2.15559      2.03235         0.005554      0.016085     -0.313219
      6.22254      2.15559      2.03235         0.009857      0.007650     -0.327183
     -2.48899      4.31106      2.03235         0.004131      0.012946     -0.360168
      0.00003      4.31106      2.03235        -0.002616      0.014412     -0.306675
      2.48906      4.31106      2.03235         0.003775      0.027794     -0.323396
      4.97809      4.31106      2.03235         0.006384      0.015765     -0.323653
     -3.73352      6.46665      2.03235        -0.005683      0.032219     -0.335331
     -1.24450      6.46665      2.03235         0.007573      0.020207     -0.346507
      1.24452      6.46665      2.03235         0.001111      0.019248     -0.299072
      3.73355      6.46665      2.03235        -0.008085      0.001772     -0.327066
     -4.97806      8.62225      2.03235         0.011213      0.011153     -0.319842
     -2.48903      8.62225      2.03235         0.010451      0.045126     -0.393371
     -0.00001      8.62225      2.03235         0.001206      0.013054     -0.313499
      2.48902      8.62225      2.03235        -0.001903      0.012338     -0.312168
     -6.22251     10.77771      2.03235        -0.005162      0.021310     -0.317907
     -3.73349     10.77771      2.03235         0.010942      0.013428     -0.332594
     -1.24447     10.77771      2.03235        -0.002505     -0.004784     -0.324170
      1.24456     10.77771      2.03235         0.002560      0.001310     -0.316440
     -0.00002      1.43702      4.06448        -0.004599     -0.031601      0.013492
      2.48900      1.43702      4.06448        -0.018266     -0.005484      0.074297
      4.97803      1.43702      4.06448        -0.000144     -0.026464      0.000010
      7.46706      1.43702      4.06448         0.010134     -0.035358      0.044523
     -1.24456      3.59261      4.06448         0.016930     -0.001577      0.026325
      1.24447      3.59261      4.06448         0.005025      0.020467      0.071949
      3.73349      3.59261      4.06448        -0.004839      0.020248      0.087298
      6.22252      3.59261      4.06448        -0.006259      0.007320      0.023049
     -2.48901      5.74808      4.06448        -0.010785     -0.026688      0.026419
      0.00001      5.74808      4.06448         0.053797     -0.024177      0.061000
      2.48904      5.74808      4.06448        -0.006881     -0.024528      0.160152
      4.97806      5.74808      4.06448        -0.053571     -0.024443      0.063877
     -3.73355      7.90367      4.06448        -0.041183     -0.017000      0.072113
     -1.24452      7.90367      4.06448         0.034848     -0.056464      0.083060
      1.24450      7.90367      4.06448         0.010373     -0.029386      0.055834
      3.73353      7.90367      4.06448        -0.007977     -0.050676      0.055703
     -4.97808     10.05927      4.06448        -0.003040     -0.026716      0.030605
     -2.48906     10.05927      4.06448        -0.000409     -0.046021      0.036621
     -0.00003     10.05927      4.06448        -0.024634     -0.023721      0.005616
      2.48899     10.05927      4.06448         0.006075     -0.026762      0.000040
     -6.22254     12.21474      4.06448        -0.005472     -0.014129      0.001549
     -3.73352     12.21473      4.06448        -0.016433     -0.006431      0.014961
     -1.24449     12.21474      4.06448         0.010709     -0.008821      0.006419
      1.24453     12.21474      4.06448        -0.006806     -0.013695      0.010097
      1.23648      0.70406      6.11531        -0.000940     -0.002052      0.000717
      3.72983      0.70999      6.10998        -0.001751     -0.002258      0.000110
      6.21753      0.70930      6.11353        -0.002425     -0.002274     -0.001875
      8.70520      0.70326      6.11610         0.000727     -0.000150     -0.001087
     -0.00607      2.85953      6.10711        -0.002208     -0.002161     -0.002208
      2.48362      2.86922      6.11105        -0.000189     -0.003619     -0.001883
      4.97191      2.86656      6.10463         0.002740     -0.002076     -0.002061
      7.46259      2.86500      6.11516        -0.001141     -0.002748      0.004174
     -1.24800      5.02141      6.10679        -0.002192     -0.003073      0.002449
      1.23987      5.02092      6.15200        -0.003479     -0.006306     -0.007489
      3.72739      5.02436      6.14779         0.004519     -0.003686     -0.007623
      6.21461      5.02331      6.10980         0.003008     -0.000817      0.000812
     -2.49488      7.18130      6.11428         0.000182     -0.000510      0.003793
     -0.00555      7.17767      6.11164        -0.000810      0.001398     -0.006261
      2.48496      7.18054      6.14165         0.000076      0.006506     -0.013668
      4.97809      7.18110      6.10586         0.000970      0.003755     -0.002191
     -3.73447      9.33846      6.11485         0.000237     -0.002623     -0.003499
     -1.25178      9.33222      6.11847         0.000416     -0.002220      0.001684
      1.23628      9.32996      6.10496         0.003476     -0.001987     -0.003862
      3.73460      9.33112      6.10737        -0.001569     -0.002038     -0.000984
     -4.97687     11.48876      6.11358        -0.002194     -0.000797      0.002178
     -2.49040     11.48968      6.11781         0.001601      0.000672      0.001745
     -0.00610     11.48429      6.11047        -0.000295     -0.001434      0.002641
      2.48395     11.48433      6.11769        -0.001066     -0.001472      0.002973
      2.48364     12.91697      8.08822        -0.001122     -0.001617     -0.001118
     -4.97871     12.93049      8.08002         0.000037     -0.000821     -0.000361
     -2.48642     12.92422      8.08091        -0.000836     -0.004780     -0.001201
     -0.00951     12.91852      8.08324        -0.002695     -0.004567     -0.000549
      8.70385      2.12998      8.08148         0.001017      0.000355      0.000957
      1.23892      2.13717      8.07506        -0.001081     -0.001096      0.000499
      3.72800      2.14120      8.07294        -0.001693      0.002424      0.001790
      6.22552      2.13873      8.07849        -0.000970     -0.002688      0.001332
      7.46435      4.30874      8.07190         0.000327     -0.003665     -0.000182
     -0.03950      4.27226      8.07126        -0.006346     -0.005271      0.000889
      2.47570      4.26450      8.18900        -0.002666     -0.109336     -0.091581
      5.01035      4.27504      8.07274         0.004076     -0.006821      0.000578
      6.21863      6.45567      8.07134         0.003804     -0.002580      0.001911
     -1.24558      6.44994      8.07267        -0.002950     -0.005569     -0.001370
      1.21755      6.47526      8.18409        -0.080248      0.046639     -0.079087
      3.76831      6.49238      8.17540         0.091870      0.055432     -0.093705
     -4.97762      8.62380      8.07209         0.002868      0.000146      0.001316
     -2.49280      8.60420      8.08460         0.002079      0.000490      0.000002
     -0.00615      8.61463      8.07440        -0.001195      0.001593     -0.000073
      2.48562      8.66946      8.06865         0.002130      0.006046     -0.002237
     -6.21642     10.78264      8.07882         0.002659     -0.001504     -0.001007
     -3.73581     10.77549      8.08537        -0.001429     -0.000862      0.001279
     -1.24774     10.77154      8.08334        -0.000477     -0.000601      0.002678
      1.23307     10.77875      8.07680        -0.001114     -0.000918     -0.000009
      2.51135      5.73795      9.30935         0.004272      0.001769      0.283534
 -----------------------------------------------------------------------------------
    total drift:                                0.041086     -0.039061      0.054950


--------------------------------------------------------------------------------------------------------



  FREE ENERGIE OF THE ION-ELECTRON SYSTEM (eV)
  ---------------------------------------------------
  free  energy   TOTEN  =      -817.086056 eV

  energy  without entropy=     -816.839614  energy(sigma->0) =     -817.024445
 
 d Force =-0.9817011E-04[-0.113E-01, 0.111E-01]  d Energy = 0.5559197E-04-0.154E-03
 d Force =-0.9598053E+02[-0.961E+02,-0.958E+02]  d Ewald  =-0.9598334E+02 0.281E-02


--------------------------------------------------------------------------------------------------------


    POTLOK:  cpu time    0.42: real time    0.42


--------------------------------------------------------------------------------------------------------


 stress matrix after NEB project (eV)
    -61.99332      3.81163     -0.40077
      3.81096    -30.59611     -1.34556
     -0.40075     -1.34528    -13.07377
  FORCES: max atom, RMS     0.283572    0.025779
  FORCE total and by dimension    0.283572    0.283534
  Stress total and by dimension   70.591861   61.993320
 Finite differences progress:
  Degree of freedom:   3/  3
  Displacement:        2/  2
  Total:               6/  6
 
 SECOND DERIVATIVES (NOT SYMMETRIZED)
 ------------------------------------
             121X        121Y        121Z 
121X    -6.932429   -0.401091   -0.120286
121Y    -0.217291   -7.170277   -0.053993
121Z    -0.196715   -0.002273  -14.053987
 
 
 Eigenvectors and eigenvalues of the dynamical matrix
 ----------------------------------------------------
 
 
   1 f  =   14.653714 THz    92.072002 2PiTHz  488.795280 cm-1    60.602913 meV
             X         Y         Z           dx          dy          dz
      1.244512  0.718570  0.000000            0           0           0  
      3.733541  0.718574  0.000000            0           0           0  
      6.222565  0.718569  0.000000            0           0           0  
      8.711592  0.718573  0.000000            0           0           0  
      0.000062  2.874042  0.000000            0           0           0  
      2.489083  2.874041  0.000000            0           0           0  
      4.978115  2.874039  0.000000            0           0           0  
      7.467136  2.874041  0.000000            0           0           0  
     -1.244479  5.029632  0.000000            0           0           0  
      1.244550  5.029630  0.000000            0           0           0  
      3.733573  5.029629  0.000000            0           0           0  
      6.222603  5.029628  0.000000            0           0           0  
     -2.489013  7.185231  0.000000            0           0           0  
      0.000010  7.185231  0.000000            0           0           0  
      2.489040  7.185231  0.000000            0           0           0  
      4.978062  7.185229  0.000000            0           0           0  
     -3.733468  9.340687  0.000000            0           0           0  
     -1.244449  9.340687  0.000000            0           0           0  
      1.244581  9.340689  0.000000            0           0           0  
      3.733611  9.340689  0.000000            0           0           0  
     -4.978003 11.496293  0.000000            0           0           0  
     -2.488983 11.496291  0.000000            0           0           0  
      0.000049 11.496291  0.000000            0           0           0  
      2.489074 11.496287  0.000000            0           0           0  
      0.000000  0.000000  2.032353            0           0           0  
      2.489032  0.000000  2.032350            0           0           0  
      4.978054  0.000000  2.032351            0           0           0  
      7.467085  0.000000  2.032351            0           0           0  
     -1.244533  2.155593  2.032351            0           0           0  
      1.244492  2.155593  2.032352            0           0           0  
      3.733522  2.155593  2.032352            0           0           0  
      6.222543  2.155592  2.032351            0           0           0  
     -2.488992  4.311061  2.032352            0           0           0  
      0.000031  4.311060  2.032351            0           0           0  
      2.489062  4.311060  2.032349            0           0           0  
      4.978085  4.311059  2.032350            0           0           0  
     -3.733523  6.466651  2.032349            0           0           0  
     -1.244502  6.466649  2.032351            0           0           0  
      1.244520  6.466649  2.032351            0           0           0  
      3.733552  6.466649  2.032350            0           0           0  
     -4.978058  8.622250  2.032351            0           0           0  
     -2.489030  8.622250  2.032350            0           0           0  
     -0.000012  8.622250  2.032350            0           0           0  
      2.489022  8.622250  2.032351            0           0           0  
     -6.222512 10.777707  2.032351            0           0           0  
     -3.733493 10.777711  2.032351            0           0           0  
     -1.244471 10.777711  2.032350            0           0           0  
      1.244560 10.777707  2.032350            0           0           0  
     -0.000018  1.437020  4.064481            0           0           0  
      2.489002  1.437019  4.064481            0           0           0  
      4.978034  1.437019  4.064481            0           0           0  
      7.467055  1.437019  4.064482            0           0           0  
     -1.244559  3.592612  4.064480            0           0           0  
      1.244471  3.592612  4.064480            0           0           0  
      3.733489  3.592610  4.064480            0           0           0  
      6.222521  3.592611  4.064479            0           0           0  
     -2.489010  5.748083  4.064481            0           0           0  
      0.000010  5.748081  4.064481            0           0           0  
      2.489041  5.748079  4.064480            0           0           0  
      4.978062  5.748079  4.064480            0           0           0  
     -3.733550  7.903671  4.064480            0           0           0  
     -1.244520  7.903671  4.064481            0           0           0  
      1.244500  7.903670  4.064480            0           0           0  
      3.733530  7.903668  4.064479            0           0           0  
     -4.978084 10.059270  4.064480            0           0           0  
     -2.489060 10.059270  4.064481            0           0           0  
     -0.000031 10.059268  4.064480            0           0           0  
      2.488990 10.059269  4.064480            0           0           0  
     -6.222542 12.214740  4.064479            0           0           0  
     -3.733524 12.214735  4.064479            0           0           0  
     -1.244490 12.214740  4.064481            0           0           0  
      1.244529 12.214736  4.064479            0           0           0  
      1.236483  0.704064  6.115306            0           0           0  
      3.729831  0.709985  6.109975            0           0           0  
      6.217532  0.709303  6.113527            0           0           0  
      8.705203  0.703259  6.116104            0           0           0  
     -0.006072  2.859531  6.107113            0           0           0  
      2.483623  2.869223  6.111050            0           0           0  
      4.971912  2.866563  6.104632            0           0           0  
      7.462594  2.864995  6.115165            0           0           0  
     -1.247997  5.021411  6.106789            0           0           0  
      1.239869  5.020918  6.151999            0           0           0  
      3.727389  5.024361  6.147789            0           0           0  
      6.214615  5.023306  6.109797            0           0           0  
     -2.494879  7.181299  6.114283            0           0           0  
     -0.005547  7.177672  6.111639            0           0           0  
      2.484964  7.180539  6.141650            0           0           0  
      4.978092  7.181096  6.105860            0           0           0  
     -3.734468  9.338460  6.114849            0           0           0  
     -1.251775  9.332220  6.118466            0           0           0  
      1.236283  9.329963  6.104956            0           0           0  
      3.734602  9.331120  6.107372            0           0           0  
     -4.976875 11.488758  6.113579            0           0           0  
     -2.490397 11.489679  6.117810            0           0           0  
     -0.006095 11.484286  6.110473            0           0           0  
      2.483950 11.484328  6.117694            0           0           0  
      2.483639 12.916970  8.088216            0           0           0  
     -4.978708 12.930492  8.080018            0           0           0  
     -2.486415 12.924220  8.080915            0           0           0  
     -0.009512 12.918521  8.083242            0           0           0  
      8.703854  2.129976  8.081476            0           0           0  
      1.238917  2.137171  8.075058            0           0           0  
      3.727996  2.141196  8.072939            0           0           0  
      6.225523  2.138730  8.078494            0           0           0  
      7.464348  4.308736  8.071903            0           0           0  
     -0.039502  4.272258  8.071259            0           0           0  
      2.475702  4.264500  8.188997            0           0           0  
      5.010353  4.275042  8.072739            0           0           0  
      6.218633  6.455665  8.071344            0           0           0  
     -1.245581  6.449940  8.072673            0           0           0  
      1.217547  6.475259  8.184090            0           0           0  
      3.768309  6.492384  8.175396            0           0           0  
     -4.977617  8.623804  8.072092            0           0           0  
     -2.492803  8.604201  8.084598            0           0           0  
     -0.006151  8.614633  8.074395            0           0           0  
      2.485622  8.669464  8.068648            0           0           0  
     -6.216423 10.782642  8.078818            0           0           0  
     -3.735808 10.775487  8.085367            0           0           0  
     -1.247744 10.771538  8.083339            0           0           0  
      1.233069 10.778754  8.076804            0           0           0  
      2.511353  5.737951  9.329349     0.022460    0.005092    0.999735  
 
   2 f  =   10.617937 THz    66.714463 2PiTHz  354.176231 cm-1    43.912272 meV
             X         Y         Z           dx          dy          dz
      1.244512  0.718570  0.000000            0           0           0  
      3.733541  0.718574  0.000000            0           0           0  
      6.222565  0.718569  0.000000            0           0           0  
      8.711592  0.718573  0.000000            0           0           0  
      0.000062  2.874042  0.000000            0           0           0  
      2.489083  2.874041  0.000000            0           0           0  
      4.978115  2.874039  0.000000            0           0           0  
      7.467136  2.874041  0.000000            0           0           0  
     -1.244479  5.029632  0.000000            0           0           0  
      1.244550  5.029630  0.000000            0           0           0  
      3.733573  5.029629  0.000000            0           0           0  
      6.222603  5.029628  0.000000            0           0           0  
     -2.489013  7.185231  0.000000            0           0           0  
      0.000010  7.185231  0.000000            0           0           0  
      2.489040  7.185231  0.000000            0           0           0  
      4.978062  7.185229  0.000000            0           0           0  
     -3.733468  9.340687  0.000000            0           0           0  
     -1.244449  9.340687  0.000000            0           0           0  
      1.244581  9.340689  0.000000            0           0           0  
      3.733611  9.340689  0.000000            0           0           0  
     -4.978003 11.496293  0.000000            0           0           0  
     -2.488983 11.496291  0.000000            0           0           0  
      0.000049 11.496291  0.000000            0           0           0  
      2.489074 11.496287  0.000000            0           0           0  
      0.000000  0.000000  2.032353            0           0           0  
      2.489032  0.000000  2.032350            0           0           0  
      4.978054  0.000000  2.032351            0           0           0  
      7.467085  0.000000  2.032351            0           0           0  
     -1.244533  2.155593  2.032351            0           0           0  
      1.244492  2.155593  2.032352            0           0           0  
      3.733522  2.155593  2.032352            0           0           0  
      6.222543  2.155592  2.032351            0           0           0  
     -2.488992  4.311061  2.032352            0           0           0  
      0.000031  4.311060  2.032351            0           0           0  
      2.489062  4.311060  2.032349            0           0           0  
      4.978085  4.311059  2.032350            0           0           0  
     -3.733523  6.466651  2.032349            0           0           0  
     -1.244502  6.466649  2.032351            0           0           0  
      1.244520  6.466649  2.032351            0           0           0  
      3.733552  6.466649  2.032350            0           0           0  
     -4.978058  8.622250  2.032351            0           0           0  
     -2.489030  8.622250  2.032350            0           0           0  
     -0.000012  8.622250  2.032350            0           0           0  
      2.489022  8.622250  2.032351            0           0           0  
     -6.222512 10.777707  2.032351            0           0           0  
     -3.733493 10.777711  2.032351            0           0           0  
     -1.244471 10.777711  2.032350            0           0           0  
      1.244560 10.777707  2.032350            0           0           0  
     -0.000018  1.437020  4.064481            0           0           0  
      2.489002  1.437019  4.064481            0           0           0  
      4.978034  1.437019  4.064481            0           0           0  
      7.467055  1.437019  4.064482            0           0           0  
     -1.244559  3.592612  4.064480            0           0           0  
      1.244471  3.592612  4.064480            0           0           0  
      3.733489  3.592610  4.064480            0           0           0  
      6.222521  3.592611  4.064479            0           0           0  
     -2.489010  5.748083  4.064481            0           0           0  
      0.000010  5.748081  4.064481            0           0           0  
      2.489041  5.748079  4.064480            0           0           0  
      4.978062  5.748079  4.064480            0           0           0  
     -3.733550  7.903671  4.064480            0           0           0  
     -1.244520  7.903671  4.064481            0           0           0  
      1.244500  7.903670  4.064480            0           0           0  
      3.733530  7.903668  4.064479            0           0           0  
     -4.978084 10.059270  4.064480            0           0           0  
     -2.489060 10.059270  4.064481            0           0           0  
     -0.000031 10.059268  4.064480            0           0           0  
      2.488990 10.059269  4.064480            0           0           0  
     -6.222542 12.214740  4.064479            0           0           0  
     -3.733524 12.214735  4.064479            0           0           0  
     -1.244490 12.214740  4.064481            0           0           0  
      1.244529 12.214736  4.064479            0           0           0  
      1.236483  0.704064  6.115306            0           0           0  
      3.729831  0.709985  6.109975            0           0           0  
      6.217532  0.709303  6.113527            0           0           0  
      8.705203  0.703259  6.116104            0           0           0  
     -0.006072  2.859531  6.107113            0           0           0  
      2.483623  2.869223  6.111050            0           0           0  
      4.971912  2.866563  6.104632            0           0           0  
      7.462594  2.864995  6.115165            0           0           0  
     -1.247997  5.021411  6.106789            0           0           0  
      1.239869  5.020918  6.151999            0           0           0  
      3.727389  5.024361  6.147789            0           0           0  
      6.214615  5.023306  6.109797            0           0           0  
     -2.494879  7.181299  6.114283            0           0           0  
     -0.005547  7.177672  6.111639            0           0           0  
      2.484964  7.180539  6.141650            0           0           0  
      4.978092  7.181096  6.105860            0           0           0  
     -3.734468  9.338460  6.114849            0           0           0  
     -1.251775  9.332220  6.118466            0           0           0  
      1.236283  9.329963  6.104956            0           0           0  
      3.734602  9.331120  6.107372            0           0           0  
     -4.976875 11.488758  6.113579            0           0           0  
     -2.490397 11.489679  6.117810            0           0           0  
     -0.006095 11.484286  6.110473            0           0           0  
      2.483950 11.484328  6.117694            0           0           0  
      2.483639 12.916970  8.088216            0           0           0  
     -4.978708 12.930492  8.080018            0           0           0  
     -2.486415 12.924220  8.080915            0           0           0  
     -0.009512 12.918521  8.083242            0           0           0  
      8.703854  2.129976  8.081476            0           0           0  
      1.238917  2.137171  8.075058            0           0           0  
      3.727996  2.141196  8.072939            0           0           0  
      6.225523  2.138730  8.078494            0           0           0  
      7.464348  4.308736  8.071903            0           0           0  
     -0.039502  4.272258  8.071259            0           0           0  
      2.475702  4.264500  8.188997            0           0           0  
      5.010353  4.275042  8.072739            0           0           0  
      6.218633  6.455665  8.071344            0           0           0  
     -1.245581  6.449940  8.072673            0           0           0  
      1.217547  6.475259  8.184090            0           0           0  
      3.768309  6.492384  8.175396            0           0           0  
     -4.977617  8.623804  8.072092            0           0           0  
     -2.492803  8.604201  8.084598            0           0           0  
     -0.006151  8.614633  8.074395            0           0           0  
      2.485622  8.669464  8.068648            0           0           0  
     -6.216423 10.782642  8.078818            0           0           0  
     -3.735808 10.775487  8.085367            0           0           0  
     -1.247744 10.771538  8.083339            0           0           0  
      1.233069 10.778754  8.076804            0           0           0  
      2.511353  5.737951  9.329349    -0.563634   -0.825852    0.016869  
 
   3 f  =   10.130242 THz    63.650185 2PiTHz  337.908477 cm-1    41.895327 meV
             X         Y         Z           dx          dy          dz
      1.244512  0.718570  0.000000            0           0           0  
      3.733541  0.718574  0.000000            0           0           0  
      6.222565  0.718569  0.000000            0           0           0  
      8.711592  0.718573  0.000000            0           0           0  
      0.000062  2.874042  0.000000            0           0           0  
      2.489083  2.874041  0.000000            0           0           0  
      4.978115  2.874039  0.000000            0           0           0  
      7.467136  2.874041  0.000000            0           0           0  
     -1.244479  5.029632  0.000000            0           0           0  
      1.244550  5.029630  0.000000            0           0           0  
      3.733573  5.029629  0.000000            0           0           0  
      6.222603  5.029628  0.000000            0           0           0  
     -2.489013  7.185231  0.000000            0           0           0  
      0.000010  7.185231  0.000000            0           0           0  
      2.489040  7.185231  0.000000            0           0           0  
      4.978062  7.185229  0.000000            0           0           0  
     -3.733468  9.340687  0.000000            0           0           0  
     -1.244449  9.340687  0.000000            0           0           0  
      1.244581  9.340689  0.000000            0           0           0  
      3.733611  9.340689  0.000000            0           0           0  
     -4.978003 11.496293  0.000000            0           0           0  
     -2.488983 11.496291  0.000000            0           0           0  
      0.000049 11.496291  0.000000            0           0           0  
      2.489074 11.496287  0.000000            0           0           0  
      0.000000  0.000000  2.032353            0           0           0  
      2.489032  0.000000  2.032350            0           0           0  
      4.978054  0.000000  2.032351            0           0           0  
      7.467085  0.000000  2.032351            0           0           0  
     -1.244533  2.155593  2.032351            0           0           0  
      1.244492  2.155593  2.032352            0           0           0  
      3.733522  2.155593  2.032352            0           0           0  
      6.222543  2.155592  2.032351            0           0           0  
     -2.488992  4.311061  2.032352            0           0           0  
      0.000031  4.311060  2.032351            0           0           0  
      2.489062  4.311060  2.032349            0           0           0  
      4.978085  4.311059  2.032350            0           0           0  
     -3.733523  6.466651  2.032349            0           0           0  
     -1.244502  6.466649  2.032351            0           0           0  
      1.244520  6.466649  2.032351            0           0           0  
      3.733552  6.466649  2.032350            0           0           0  
     -4.978058  8.622250  2.032351            0           0           0  
     -2.489030  8.622250  2.032350            0           0           0  
     -0.000012  8.622250  2.032350            0           0           0  
      2.489022  8.622250  2.032351            0           0           0  
     -6.222512 10.777707  2.032351            0           0           0  
     -3.733493 10.777711  2.032351            0           0           0  
     -1.244471 10.777711  2.032350            0           0           0  
      1.244560 10.777707  2.032350            0           0           0  
     -0.000018  1.437020  4.064481            0           0           0  
      2.489002  1.437019  4.064481            0           0           0  
      4.978034  1.437019  4.064481            0           0           0  
      7.467055  1.437019  4.064482            0           0           0  
     -1.244559  3.592612  4.064480            0           0           0  
      1.244471  3.592612  4.064480            0           0           0  
      3.733489  3.592610  4.064480            0           0           0  
      6.222521  3.592611  4.064479            0           0           0  
     -2.489010  5.748083  4.064481            0           0           0  
      0.000010  5.748081  4.064481            0           0           0  
      2.489041  5.748079  4.064480            0           0           0  
      4.978062  5.748079  4.064480            0           0           0  
     -3.733550  7.903671  4.064480            0           0           0  
     -1.244520  7.903671  4.064481            0           0           0  
      1.244500  7.903670  4.064480            0           0           0  
      3.733530  7.903668  4.064479            0           0           0  
     -4.978084 10.059270  4.064480            0           0           0  
     -2.489060 10.059270  4.064481            0           0           0  
     -0.000031 10.059268  4.064480            0           0           0  
      2.488990 10.059269  4.064480            0           0           0  
     -6.222542 12.214740  4.064479            0           0           0  
     -3.733524 12.214735  4.064479            0           0           0  
     -1.244490 12.214740  4.064481            0           0           0  
      1.244529 12.214736  4.064479            0           0           0  
      1.236483  0.704064  6.115306            0           0           0  
      3.729831  0.709985  6.109975            0           0           0  
      6.217532  0.709303  6.113527            0           0           0  
      8.705203  0.703259  6.116104            0           0           0  
     -0.006072  2.859531  6.107113            0           0           0  
      2.483623  2.869223  6.111050            0           0           0  
      4.971912  2.866563  6.104632            0           0           0  
      7.462594  2.864995  6.115165            0           0           0  
     -1.247997  5.021411  6.106789            0           0           0  
      1.239869  5.020918  6.151999            0           0           0  
      3.727389  5.024361  6.147789            0           0           0  
      6.214615  5.023306  6.109797            0           0           0  
     -2.494879  7.181299  6.114283            0           0           0  
     -0.005547  7.177672  6.111639            0           0           0  
      2.484964  7.180539  6.141650            0           0           0  
      4.978092  7.181096  6.105860            0           0           0  
     -3.734468  9.338460  6.114849            0           0           0  
     -1.251775  9.332220  6.118466            0           0           0  
      1.236283  9.329963  6.104956            0           0           0  
      3.734602  9.331120  6.107372            0           0           0  
     -4.976875 11.488758  6.113579            0           0           0  
     -2.490397 11.489679  6.117810            0           0           0  
     -0.006095 11.484286  6.110473            0           0           0  
      2.483950 11.484328  6.117694            0           0           0  
      2.483639 12.916970  8.088216            0           0           0  
     -4.978708 12.930492  8.080018            0           0           0  
     -2.486415 12.924220  8.080915            0           0           0  
     -0.009512 12.918521  8.083242            0           0           0  
      8.703854  2.129976  8.081476            0           0           0  
      1.238917  2.137171  8.075058            0           0           0  
      3.727996  2.141196  8.072939            0           0           0  
      6.225523  2.138730  8.078494            0           0           0  
      7.464348  4.308736  8.071903            0           0           0  
     -0.039502  4.272258  8.071259            0           0           0  
      2.475702  4.264500  8.188997            0           0           0  
      5.010353  4.275042  8.072739            0           0           0  
      6.218633  6.455665  8.071344            0           0           0  
     -1.245581  6.449940  8.072673            0           0           0  
      1.217547  6.475259  8.184090            0           0           0  
      3.768309  6.492384  8.175396            0           0           0  
     -4.977617  8.623804  8.072092            0           0           0  
     -2.492803  8.604201  8.084598            0           0           0  
     -0.006151  8.614633  8.074395            0           0           0  
      2.485622  8.669464  8.068648            0           0           0  
     -6.216423 10.782642  8.078818            0           0           0  
     -3.735808 10.775487  8.085367            0           0           0  
     -1.247744 10.771538  8.083339            0           0           0  
      1.233069 10.778754  8.076804            0           0           0  
      2.511353  5.737951  9.329349     0.825719   -0.563863   -0.015679  
 
 Finite differences POTIM=  2.000000000000000E-002
  LATTYP: Found a simple monoclinic cell.
 ALAT       =    17.9486009422
 B/A-ratio  =     1.2886297308
 C/A-ratio  =     1.4411545266
 COS(beta)  =    -0.9607691321
  
  Lattice vectors:
  
 A1 = ( -12.4451508522, -12.9333095551,   0.0000000000)
 A2 = (   0.0000000000,   0.0000000000, -23.1291007996)
 A3 = (  22.4012513161,  12.9333095551,   0.0000000000)
 Subroutine PRICEL returns:
 Original cell was already a primitive cell.
 

Analysis of symmetry for initial positions (statically):

 Routine SETGRP: Setting up the symmetry group for a 
 simple monoclinic supercell.


 Subroutine GETGRP returns: Found  1 space group operations
 (whereof  1 operations were pure point group operations)
 out of a pool of  4 trial point group operations.


The static configuration has the point symmetry C_1 .

Analysis of symmetry for dynamics (positions and initial velocities):

 Subroutine DYNSYM returns: Found  1 space group operations
 (whereof  1 operations were pure point group operations)
 out of a pool of  1 trial space group operations
 (whereof  1 operations were pure point group operations)
 and found also     1 'primitive' translations


The dynamic configuration has the point symmetry C_1 .

Analysis of constrained symmetry for selective dynamics:

 Subroutine DYNSYM returns: Found  1 space group operations
 (whereof  1 operations were pure point group operations)
 out of a pool of  1 trial space group operations
 (whereof  1 operations were pure point group operations)
 and found also     1 'primitive' translations


The constrained configuration has the point symmetry C_1 .

Analysis of magnetic symmetry:

 Subroutine MAGSYM returns: Found  1 space group operations
 (whereof  1 operations were pure point group operations)
 out of a pool of  1 trial space group operations
 (whereof  1 operations were pure point group operations)
 and found also     1 'primitive' translations


The magnetic configuration has the point symmetry C_1 .
 
 KPOINTS: k-points                                

Automatic generation of k-mesh.
 
 Subroutine IBZKPT returns following result:
 ===========================================
 
 Found      1 irreducible k-points:
 
 Following reciprocal coordinates:
            Coordinates               Weight
  0.000000  0.000000  0.000000      1.000000
 
 Following cartesian coordinates:
            Coordinates               Weight
  0.000000  0.000000  0.000000      1.000000
 
 writing wavefunctions
     LOOP+:  cpu time  463.41: real time  469.89
    4ORBIT:  cpu time    0.00: real time    0.00

 total amount of memory used by VASP on root node   180116. kBytes
========================================================================

   base      :      30000. kBytes
   nonlr-proj:      36135. kBytes
   fftplans  :       7109. kBytes
   grid      :      53980. kBytes
   one-center:       3763. kBytes
   wavefun   :      49129. kBytes
 
  
  
 General timing and accounting informations for this job:
 ========================================================
  
                  Total CPU time used (sec):     2043.396
                            User time (sec):     2007.846
                          System time (sec):       35.551
                         Elapsed time (sec):     2067.271
  
                   Maximum memory used (kb):      369340.
                   Average memory used (kb):           0.
  
                          Minor page faults:       925430
                          Major page faults:           18
                 Voluntary context switches:        11670
