   Co     O                             
   1.00000000000000     
     9.9561004638671875    0.0000000000000000    0.0000000000000000
    -7.4670500755310059   12.9333095550537109    0.0000000000000000
     0.0000000000000000    0.0000000000000000   23.1291007995605469
   Co   O 
   120     1
Selective dynamics
Direct
  0.1666695773601532  0.0555596575140953  0.0000000000000000   F   F   F
  0.4166702032089235  0.0555599555373192  0.0000000000000000   F   F   F
  0.6666697263717652  0.0555595494806767  0.0000000000000000   F   F   F
  0.9166701436042788  0.0555598437786102  0.0000000000000000   F   F   F
  0.1666707545518875  0.2222201973199844  0.0000000000000000   F   F   F
  0.4166703224182129  0.2222201228141785  0.0000000000000000   F   F   F
  0.6666708588600159  0.2222199290990829  0.0000000000000000   F   F   F
  0.9166705012321474  0.2222200930118561  0.0000000000000000   F   F   F
  0.1666697263717651  0.3888897895812988  0.0000000000000000   F   F   F
  0.4166700243949890  0.3888896405696869  0.0000000000000000   F   F   F
  0.6666696071624756  0.3888895213603973  0.0000000000000000   F   F   F
  0.9166702032089233  0.3888894915580750  0.0000000000000000   F   F   F
  0.1666699796915054  0.5555601119995117  0.0000000000000000   F   F   F
  0.4166696965694427  0.5555601119995117  0.0000000000000000   F   F   F
  0.6666702032089233  0.5555601119995117  0.0000000000000000   F   F   F
  0.9166697263717651  0.5555599927902222  0.0000000000000000   F   F   F
  0.1666697859764099  0.7222194671630859  0.0000000000000000   F   F   F
  0.4166690707206726  0.7222194671630859  0.0000000000000000   F   F   F
  0.6666697263717651  0.7222195863723755  0.0000000000000000   F   F   F
  0.9166702032089233  0.7222195863723755  0.0000000000000000   F   F   F
  0.1666702032089233  0.8888902664184570  0.0000000000000000   F   F   F
  0.4166695475578307  0.8888900876045227  0.0000000000000000   F   F   F
  0.6666702628135681  0.8888900876045227  0.0000000000000000   F   F   F
  0.9166698455810547  0.8888897895812988  0.0000000000000000   F   F   F
  0.0000000000000000  0.0000000000000000  0.0878699645400047   F   F   F
  0.2500006854534149  0.0000000000000000  0.0878698304295540   F   F   F
  0.5000003576278687  0.0000000000000000  0.0878698825836182   F   F   F
  0.7500008940696719  0.0000000000000000  0.0878698676824570   F   F   F
  0.0000000000000000  0.1666699051856995  0.0878698527812958   F   F   F
  0.2499998509883881  0.1666698306798935  0.0878698900341988   F   F   F
  0.5000003576278687  0.1666698306798935  0.0878698900341988   F   F   F
  0.7499999403953554  0.1666698008775711  0.0878698825836182   F   F   F
 -0.0000000000000001  0.3333300352096558  0.0878698900341988   F   F   F
  0.2499997764825820  0.3333300054073334  0.0878698527812958   F   F   F
  0.5000003576278687  0.3333299756050110  0.0878697857260704   F   F   F
  0.7500001192092896  0.3333299458026886  0.0878698155283928   F   F   F
 -0.0000000000000014  0.4999996721744537  0.0878697782754898   F   F   F
  0.2499995231628418  0.4999996125698090  0.0878698527812958   F   F   F
  0.4999991655349731  0.4999995827674866  0.0878698825836182   F   F   F
  0.7499998211860657  0.4999995529651642  0.0878698155283928   F   F   F
  0.0000000000000000  0.6666700243949890  0.0878698825836182   F   F   F
  0.2500002980232239  0.6666700243949890  0.0878698378801346   F   F   F
  0.4999996125698090  0.6666700243949890  0.0878698006272316   F   F   F
  0.7500004768371582  0.6666700243949890  0.0878698527812958   F   F   F
 -0.0000000000000029  0.8333293795585632  0.0878698527812958   F   F   F
  0.2499996125698070  0.8333296775817871  0.0878698602318764   F   F   F
  0.4999993443489072  0.8333296775817871  0.0878698080778122   F   F   F
  0.7499997019767761  0.8333293795585632  0.0878698378801346   F   F   F
  0.0833303928375244  0.1111099869012833  0.1757301986217499   F   F   F
  0.3333298563957214  0.1111099570989609  0.1757301986217499   F   F   F
  0.5833305120468141  0.1111099570989609  0.1757301986217499   F   F   F
  0.8333301544189453  0.1111099198460579  0.1757302135229111   F   F   F
  0.0833294689655304  0.2777797579765320  0.1757301539182663   F   F   F
  0.3333299160003662  0.2777797579765320  0.1757301539182663   F   F   F
  0.5833292007446289  0.2777796685695648  0.1757301390171051   F   F   F
  0.8333299160003662  0.2777796983718872  0.1757301092147827   F   F   F
  0.0833305120468140  0.4444401860237122  0.1757301688194275   F   F   F
  0.3333298563957214  0.4444400370121002  0.1757301688194275   F   F   F
  0.5833303928375244  0.4444399178028107  0.1757301539182663   F   F   F
  0.8333299756050110  0.4444398880004883  0.1757301390171051   F   F   F
  0.0833295285701751  0.6111097335815430  0.1757301539182663   F   F   F
  0.3333299756050109  0.6111096739768982  0.1757301688194275   F   F   F
  0.5833294391632080  0.6111096143722534  0.1757301390171051   F   F   F
  0.8333297967910767  0.6111094355583191  0.1757301092147827   F   F   F
  0.0833296775817871  0.7777800559997559  0.1757301539182663   F   F   F
  0.3333295285701752  0.7777800559997559  0.1757301986217499   F   F   F
  0.5833299160003662  0.7777798771858215  0.1757301539182663   F   F   F
  0.8333294987678528  0.7777799367904663  0.1757301390171051   F   F   F
  0.0833300352096529  0.9444404840469360  0.1757301092147827   F   F   F
  0.3333289921283722  0.9444400072097778  0.1757301092147827   F   F   F
  0.5833301544189453  0.9444403648376465  0.1757301986217499   F   F   F
  0.8333293199539185  0.9444400668144226  0.1757301092147827   F   F   F
  0.1650218685973306  0.0544380590549607  0.2643987775505712   T   T   T
  0.4157994652796957  0.0548958842653664  0.2641682775646354   T   T   T
  0.6656268312163824  0.0548431011163764  0.2643218566054952   T   T   T
  0.9151403355633170  0.0543757610329671  0.2644333034434922   T   T   T
  0.1652132020353097  0.2210981671458553  0.2640445547747818   T   T   T
  0.4158425640984400  0.2218475325181844  0.2642147668174494   T   T   T
  0.6656143726094050  0.2216419203297484  0.2639372551428699   T   T   T
  0.9156899114229714  0.2215206839676770  0.2643926837687114   T   T   T
  0.1658396430450177  0.3882541645695156  0.2640305056820040   T   T   T
  0.4156946369136232  0.3882160570855770  0.2659852349400389   T   T   T
  0.6657430602696690  0.3884822542811482  0.2658032144188291   T   T   T
  0.9155011160815751  0.3884006339532053  0.2641605879977848   T   T   T
  0.1658526795736839  0.5552561309404965  0.2643545356914058   T   T   T
  0.4156732181208478  0.5549756301032863  0.2642402191192809   T   T   T
  0.6659886809102333  0.5551973326773513  0.2655377640864112   T   T   T
  0.9164330208013991  0.5552403821657930  0.2639903699011787   T   T   T
  0.1664401769673940  0.7220472666828505  0.2643789944887385   T   T   T
  0.4154422633031976  0.7215646923867943  0.2645353885153794   T   T   T
  0.6652142347362779  0.7213901962948581  0.2639512657422297   T   T   T
  0.9162148836366397  0.7214797388080110  0.2640557392490488   T   T   T
  0.1663466142186082  0.8883076773716495  0.2643241113021442   T   T   T
  0.4161441114362069  0.8883788878832249  0.2645070198778254   T   T   T
  0.6653569180913017  0.8879619026775256  0.2641897956930801   T   T   T
  0.9154618353041104  0.8879651655241780  0.2645020155562963   T   T   T
  0.9985089137680604  0.9987366885080340  0.3496986585053788   T   T   T
  0.2497679618353903  0.9997822017617147  0.3493442465845074   T   T   T
  0.4997325501132152  0.9992972181548719  0.3493829927630753   T   T   T
  0.7481845273641675  0.9988565353788648  0.3494836118677305   T   T   T
  0.9977396086243554  0.1646891663777645  0.3494072948508474   T   T   T
  0.2483716765138283  0.1652454517189821  0.3491297536317098   T   T   T
  0.4986105569006632  0.1655567318116192  0.3490381743603125   T   T   T
  0.7493214036297763  0.1653660370000539  0.3492783270405231   T   T   T
  0.9995878958632832  0.3331503305532721  0.3489933698821989   T   T   T
  0.2437789542099105  0.3303298789110116  0.3489654987352862   T   T   T
  0.4959584964006984  0.3297300392545998  0.3540559663540204   T   T   T
  0.7511524428494140  0.3305450545111615  0.3490295188263778   T   T   T
  0.9989666117483873  0.4991502807609344  0.3489691826718517   T   T   T
  0.2489220973621716  0.4987075800855924  0.3490266477656038   T   T   T
  0.4977891533320817  0.5006652395670246  0.3538438472902050   T   T   T
  0.7549831488656822  0.5019893482747093  0.3534679577497019   T   T   T
  1.0001343455582572  0.6667901823719662  0.3490015586538804   T   T   T
  0.2485747011831393  0.6652745025705232  0.3495422181041357   T   T   T
  0.4989412989315096  0.6660811159609589  0.3491011405431154   T   T   T
  0.7523969980458357  0.6703207000933633  0.3488526634543631   T   T   T
  1.0008977648007198  0.8337109625494259  0.3492923737468391   T   T   T
  0.2496381587690169  0.8331577823425219  0.3495755210559893   T   T   T
  0.4993126401164042  0.8328524163418155  0.3494878221043773   T   T   T
  0.7489062718977273  0.8334103458765606  0.3492052828400214   T   T   T
  0.5849841087100632  0.4436568364914840  0.4033597696717950   T   T   T
 
