   Co     O  
  1.00000 
    9.9561004638671875       0.0000000000000000       0.0000000000000000    
    -7.4670500755310059       12.9333095550537109       0.0000000000000000    
    0.0000000000000000       0.0000000000000000       23.1291007995605469    
   Co     O   
   120     1   
Selective dynamics 
Direct 
    0.1666695773601532    0.0555596575140953    0.0000000000000000   F      F      F    
    0.4166702032089233    0.0555599555373192    0.0000000000000000   F      F      F    
    0.6666697263717651    0.0555595494806767    0.0000000000000000   F      F      F    
    0.9166701436042786    0.0555598437786102    0.0000000000000000   F      F      F    
    0.1666707545518875    0.2222201824188232    0.0000000000000000   F      F      F    
    0.4166703522205353    0.2222201079130173    0.0000000000000000   F      F      F    
    0.6666709184646606    0.2222199290990829    0.0000000000000000   F      F      F    
    0.9166705608367920    0.2222200930118561    0.0000000000000000   F      F      F    
    0.1666697263717651    0.3888897895812988    0.0000000000000000   F      F      F    
    0.4166699945926666    0.3888896405696869    0.0000000000000000   F      F      F    
    0.6666696667671204    0.3888895213603973    0.0000000000000000   F      F      F    
    0.9166702032089233    0.3888894915580750    0.0000000000000000   F      F      F    
    0.1666699349880219    0.5555601119995117    0.0000000000000000   F      F      F    
    0.4166696667671204    0.5555601119995117    0.0000000000000000   F      F      F    
    0.6666702032089233    0.5555601119995117    0.0000000000000000   F      F      F    
    0.9166697263717651    0.5555599927902222    0.0000000000000000   F      F      F    
    0.1666697263717651    0.7222194075584412    0.0000000000000000   F      F      F    
    0.4166690707206726    0.7222194075584412    0.0000000000000000   F      F      F    
    0.6666697263717651    0.7222195863723755    0.0000000000000000   F      F      F    
    0.9166702628135681    0.7222195863723755    0.0000000000000000   F      F      F    
    0.1666701436042786    0.8888902664184570    0.0000000000000000   F      F      F    
    0.4166695177555084    0.8888900876045227    0.0000000000000000   F      F      F    
    0.6666702628135681    0.8888900876045227    0.0000000000000000   F      F      F    
    0.9166699647903442    0.8888897895812988    0.0000000000000000   F      F      F    
    0.0000000000000000    0.0000000000000000    0.0878699645400047   F      F      F    
    0.2500007152557373    0.0000000000000000    0.0878698304295540   F      F      F    
    0.5000003576278687    0.0000000000000000    0.0878698825836182   F      F      F    
    0.7500009536743164    0.0000000000000000    0.0878698676824570   F      F      F    
    0.0000000000000000    0.1666699051856995    0.0878698602318764   F      F      F    
    0.2499998807907104    0.1666698306798935    0.0878698900341988   F      F      F    
    0.5000003576278687    0.1666698306798935    0.0878698900341988   F      F      F    
    0.7499999403953552    0.1666698008775711    0.0878698825836182   F      F      F    
    0.0000000000000000    0.3333300352096558    0.0878698900341988   F      F      F    
    0.2499997913837433    0.3333300054073334    0.0878698602318764   F      F      F    
    0.5000003576278687    0.3333299756050110    0.0878697857260704   F      F      F    
    0.7500001192092896    0.3333299458026886    0.0878698155283928   F      F      F    
    0.0000000000000000    0.4999996721744537    0.0878697782754898   F      F      F    
    0.2499994933605194    0.4999995827674866    0.0878698602318764   F      F      F    
    0.4999991655349731    0.4999995827674866    0.0878698825836182   F      F      F    
    0.7499998211860657    0.4999995529651642    0.0878698155283928   F      F      F    
    0.0000000000000000    0.6666700243949890    0.0878698825836182   F      F      F    
    0.2500002980232239    0.6666700243949890    0.0878698378801346   F      F      F    
    0.4999996423721313    0.6666700243949890    0.0878698080778122   F      F      F    
    0.7500004768371582    0.6666700243949890    0.0878698602318764   F      F      F    
    0.0000000000000000    0.8333293795585632    0.0878698602318764   F      F      F    
    0.2499996125698090    0.8333296775817871    0.0878698602318764   F      F      F    
    0.4999993145465851    0.8333296775817871    0.0878698080778122   F      F      F    
    0.7499997019767761    0.8333293795585632    0.0878698378801346   F      F      F    
    0.0833303928375244    0.1111099869012833    0.1757301986217499   F      F      F    
    0.3333298563957214    0.1111099570989609    0.1757301986217499   F      F      F    
    0.5833305120468140    0.1111099570989609    0.1757301986217499   F      F      F    
    0.8333301544189453    0.1111099198460579    0.1757302135229111   F      F      F    
    0.0833294838666916    0.2777797579765320    0.1757301539182663   F      F      F    
    0.3333299458026886    0.2777797579765320    0.1757301539182663   F      F      F    
    0.5833292007446289    0.2777796685695648    0.1757301539182663   F      F      F    
    0.8333299160003662    0.2777796983718872    0.1757301092147827   F      F      F    
    0.0833305120468140    0.4444401860237122    0.1757301688194275   F      F      F    
    0.3333298563957214    0.4444400370121002    0.1757301688194275   F      F      F    
    0.5833303928375244    0.4444399178028107    0.1757301539182663   F      F      F    
    0.8333299756050110    0.4444398880004883    0.1757301539182663   F      F      F    
    0.0833294987678528    0.6111097335815430    0.1757301539182663   F      F      F    
    0.3333299756050110    0.6111096739768982    0.1757301688194275   F      F      F    
    0.5833294391632080    0.6111096143722534    0.1757301539182663   F      F      F    
    0.8333297967910767    0.6111094355583191    0.1757301092147827   F      F      F    
    0.0833296775817871    0.7777800559997559    0.1757301539182663   F      F      F    
    0.3333295583724976    0.7777800559997559    0.1757301986217499   F      F      F    
    0.5833298563957214    0.7777798771858215    0.1757301539182663   F      F      F    
    0.8333294987678528    0.7777799367904663    0.1757301539182663   F      F      F    
    0.0833299756050110    0.9444404244422913    0.1757301092147827   F      F      F    
    0.3333289623260498    0.9444400072097778    0.1757301092147827   F      F      F    
    0.5833301544189453    0.9444403648376465    0.1757301986217499   F      F      F    
    0.8333292603492737    0.9444400668144226    0.1757301092147827   F      F      F    
    0.1650218814611435    0.0544380694627762    0.2643987834453583   F      F      F    
    0.4157994985580444    0.0548958703875542    0.2641682922840118   F      F      F    
    0.6656268835067749    0.0548431128263474    0.2643218636512756   F      F      F    
    0.9151403307914734    0.0543757602572441    0.2644332945346832   F      F      F    
    0.1652131974697113    0.2210981696844101    0.2640445530414581   F      F      F    
    0.4158425331115723    0.2218475341796875    0.2642147541046143   F      F      F    
    0.6656143665313721    0.2216419130563736    0.2639372646808624   F      F      F    
    0.9156898260116577    0.2215206623077393    0.2643926739692688   F      F      F    
    0.1658396273851395    0.3882541656494141    0.2640305459499359   F      F      F    
    0.4156946539878845    0.3882160484790802    0.2659852206707001   F      F      F    
    0.6657431125640869    0.3884822428226471    0.2658032178878784   F      F      F    
    0.9155011773109436    0.3884006440639496    0.2641605734825134   F      F      F    
    0.1658526957035065    0.5552561283111572    0.2643545269966125   F      F      F    
    0.4156731963157654    0.5549756288528442    0.2642402350902557   F      F      F    
    0.6659886837005615    0.5551973581314087    0.2655377686023712   F      F      F    
    0.9164330959320068    0.5552403926849365    0.2639903724193573   F      F      F    
    0.1664401292800903    0.7220472097396851    0.2643790245056152   F      F      F    
    0.4154422283172607    0.7215647101402283    0.2645353972911835   F      F      F    
    0.6652142405509949    0.7213901877403259    0.2639512717723846   F      F      F    
    0.9162148237228394    0.7214796543121338    0.2640557587146759   F      F      F    
    0.1663465499877930    0.8883076310157776    0.2643240988254547   F      F      F    
    0.4161441326141357    0.8883788585662842    0.2645070254802704   F      F      F    
    0.6653569340705872    0.8879618644714355    0.2641898095607758   F      F      F    
    0.9154618978500366    0.8879651427268982    0.2645020186901093   F      F      F    
    0.9985089302062988    0.9987366199493408    0.3496986925601959   F      F      F    
    0.2497679591178894    0.9997821450233459    0.3493442535400391   F      F      F    
    0.4997324943542480    0.9992972016334534    0.3493829965591431   F      F      F    
    0.7481845021247864    0.9988565444946289    0.3494836091995239   F      F      F    
    0.9977396130561829    0.1646891683340073    0.3494072854518890   F      F      F    
    0.2483716905117035    0.1652454733848572    0.3491297960281372   F      F      F    
    0.4986105561256409    0.1655567288398743    0.3490381836891174   F      F      F    
    0.7493214011192322    0.1653660386800766    0.3492783606052399   F      F      F    
    0.9995878934860229    0.3331502974033356    0.3489933609962463   F      F      F    
    0.2437789738178253    0.3303298652172089    0.3489655256271362   F      F      F    
    0.4959585070610046    0.3297300040721893    0.3540560007095337   F      F      F    
    0.7511524558067322    0.3305450677871704    0.3490295112133026   F      F      F    
    0.9989666938781738    0.4991502761840820    0.3489691913127899   F      F      F    
    0.2489220947027206    0.4987075924873352    0.3490266799926758   F      F      F    
    0.4977891743183136    0.5006652474403381    0.3538438379764557   F      F      F    
    0.7549831867218018    0.5019893646240234    0.3534679710865021   F      F      F    
    1.0001344680786133    0.6667901873588562    0.3490015566349030   F      F      F    
    0.2485747039318085    0.6652745008468628    0.3495422601699829   F      F      F    
    0.4989412724971771    0.6660810708999634    0.3491011261940002   F      F      F    
    0.7523970007896423    0.6703206300735474    0.3488526642322540   F      F      F    
    1.0008977651596069    0.8337109684944153    0.3492923676967621   F      F      F    
    0.2496381402015686    0.8331577777862549    0.3495755195617676   F      F      F    
    0.4993126392364502    0.8328524231910706    0.3494878113269806   F      F      F    
    0.7489062547683716    0.8334103226661682    0.3492052853107452   F      F      F    
    0.5849841237068176    0.4436568319797516    0.4033597707748413   T      T      T    
