   Co     O  
  1.00000 
    9.9561004638671875       0.0000000000000000       0.0000000000000000    
    -7.4670500755310059       12.9333095550537109       0.0000000000000000    
    0.0000000000000000       0.0000000000000000       23.1291007995605469    
   Co     O   
   120     1   
Selective dynamics 
Direct 
    0.1666695773601532    0.0555596575140953    0.0000000000000000   F      F      F    
    0.4166702032089233    0.0555599555373192    0.0000000000000000   F      F      F    
    0.6666697263717651    0.0555595494806767    0.0000000000000000   F      F      F    
    0.9166701436042786    0.0555598437786102    0.0000000000000000   F      F      F    
    0.1666707545518875    0.2222201973199844    0.0000000000000000   F      F      F    
    0.4166703224182129    0.2222201228141785    0.0000000000000000   F      F      F    
    0.6666708588600159    0.2222199290990829    0.0000000000000000   F      F      F    
    0.9166705012321472    0.2222200930118561    0.0000000000000000   F      F      F    
    0.1666697263717651    0.3888897895812988    0.0000000000000000   F      F      F    
    0.4166700243949890    0.3888896405696869    0.0000000000000000   F      F      F    
    0.6666696071624756    0.3888895213603973    0.0000000000000000   F      F      F    
    0.9166702032089233    0.3888894915580750    0.0000000000000000   F      F      F    
    0.1666699796915054    0.5555601119995117    0.0000000000000000   F      F      F    
    0.4166696965694427    0.5555601119995117    0.0000000000000000   F      F      F    
    0.6666702032089233    0.5555601119995117    0.0000000000000000   F      F      F    
    0.9166697263717651    0.5555599927902222    0.0000000000000000   F      F      F    
    0.1666697859764099    0.7222194671630859    0.0000000000000000   F      F      F    
    0.4166690707206726    0.7222194671630859    0.0000000000000000   F      F      F    
    0.6666697263717651    0.7222195863723755    0.0000000000000000   F      F      F    
    0.9166702032089233    0.7222195863723755    0.0000000000000000   F      F      F    
    0.1666702032089233    0.8888902664184570    0.0000000000000000   F      F      F    
    0.4166695475578308    0.8888900876045227    0.0000000000000000   F      F      F    
    0.6666702628135681    0.8888900876045227    0.0000000000000000   F      F      F    
    0.9166698455810547    0.8888897895812988    0.0000000000000000   F      F      F    
    0.0000000000000000    0.0000000000000000    0.0878699645400047   F      F      F    
    0.2500006854534149    0.0000000000000000    0.0878698304295540   F      F      F    
    0.5000003576278687    0.0000000000000000    0.0878698825836182   F      F      F    
    0.7500008940696716    0.0000000000000000    0.0878698676824570   F      F      F    
    0.0000000000000000    0.1666699051856995    0.0878698527812958   F      F      F    
    0.2499998509883881    0.1666698306798935    0.0878698900341988   F      F      F    
    0.5000003576278687    0.1666698306798935    0.0878698900341988   F      F      F    
    0.7499999403953552    0.1666698008775711    0.0878698825836182   F      F      F    
    0.0000000000000000    0.3333300352096558    0.0878698900341988   F      F      F    
    0.2499997764825821    0.3333300054073334    0.0878698527812958   F      F      F    
    0.5000003576278687    0.3333299756050110    0.0878697857260704   F      F      F    
    0.7500001192092896    0.3333299458026886    0.0878698155283928   F      F      F    
    0.0000000000000000    0.4999996721744537    0.0878697782754898   F      F      F    
    0.2499995231628418    0.4999996125698090    0.0878698527812958   F      F      F    
    0.4999991655349731    0.4999995827674866    0.0878698825836182   F      F      F    
    0.7499998211860657    0.4999995529651642    0.0878698155283928   F      F      F    
    0.0000000000000000    0.6666700243949890    0.0878698825836182   F      F      F    
    0.2500002980232239    0.6666700243949890    0.0878698378801346   F      F      F    
    0.4999996125698090    0.6666700243949890    0.0878698006272316   F      F      F    
    0.7500004768371582    0.6666700243949890    0.0878698527812958   F      F      F    
    0.0000000000000000    0.8333293795585632    0.0878698527812958   F      F      F    
    0.2499996125698090    0.8333296775817871    0.0878698602318764   F      F      F    
    0.4999993443489075    0.8333296775817871    0.0878698080778122   F      F      F    
    0.7499997019767761    0.8333293795585632    0.0878698378801346   F      F      F    
    0.0833303928375244    0.1111099869012833    0.1757301986217499   F      F      F    
    0.3333298563957214    0.1111099570989609    0.1757301986217499   F      F      F    
    0.5833305120468140    0.1111099570989609    0.1757301986217499   F      F      F    
    0.8333301544189453    0.1111099198460579    0.1757302135229111   F      F      F    
    0.0833294689655304    0.2777797579765320    0.1757301539182663   F      F      F    
    0.3333299160003662    0.2777797579765320    0.1757301539182663   F      F      F    
    0.5833292007446289    0.2777796685695648    0.1757301390171051   F      F      F    
    0.8333299160003662    0.2777796983718872    0.1757301092147827   F      F      F    
    0.0833305120468140    0.4444401860237122    0.1757301688194275   F      F      F    
    0.3333298563957214    0.4444400370121002    0.1757301688194275   F      F      F    
    0.5833303928375244    0.4444399178028107    0.1757301539182663   F      F      F    
    0.8333299756050110    0.4444398880004883    0.1757301390171051   F      F      F    
    0.0833295285701752    0.6111097335815430    0.1757301539182663   F      F      F    
    0.3333299756050110    0.6111096739768982    0.1757301688194275   F      F      F    
    0.5833294391632080    0.6111096143722534    0.1757301390171051   F      F      F    
    0.8333297967910767    0.6111094355583191    0.1757301092147827   F      F      F    
    0.0833296775817871    0.7777800559997559    0.1757301539182663   F      F      F    
    0.3333295285701752    0.7777800559997559    0.1757301986217499   F      F      F    
    0.5833299160003662    0.7777798771858215    0.1757301539182663   F      F      F    
    0.8333294987678528    0.7777799367904663    0.1757301390171051   F      F      F    
    0.0833300352096558    0.9444404840469360    0.1757301092147827   F      F      F    
    0.3333289921283722    0.9444400072097778    0.1757301092147827   F      F      F    
    0.5833301544189453    0.9444403648376465    0.1757301986217499   F      F      F    
    0.8333293199539185    0.9444400668144226    0.1757301092147827   F      F      F    
    0.1660350263118744    0.0550784468650818    0.2645471692085266   T      T      T    
    0.4159923493862152    0.0550062209367752    0.2645576596260071   T      T      T    
    0.6660340428352356    0.0550780780613422    0.2645469605922699   T      T      T    
    0.9159896373748779    0.0550089105963707    0.2645588219165802   T      T      T    
    0.1659775227308273    0.2217470556497574    0.2644936740398407   T      T      T    
    0.4160626828670502    0.2216986119747162    0.2645602822303772   T      T      T    
    0.6659773588180542    0.2217478305101395    0.2644945681095123   T      T      T    
    0.9160634875297546    0.2217003852128983    0.2645599842071533   T      T      T    
    0.1659858077764511    0.3883186876773834    0.2644349038600922   T      T      T    
    0.4158753156661987    0.3883771896362305    0.2645602524280548   T      T      T    
    0.6659862995147705    0.3883183896541595    0.2644349336624146   T      T      T    
    0.9158749580383301    0.3883772194385529    0.2645599544048309   T      T      T    
    0.1660336256027222    0.5550755858421326    0.2645477056503296   T      T      T    
    0.4159896969795227    0.5550072789192200    0.2645583152770996   T      T      T    
    0.6660338640213013    0.5550779700279236    0.2645472288131714   T      T      T    
    0.9159874916076660    0.5550061464309692    0.2645542621612549   T      T      T    
    0.1659781932830811    0.7217475175857544    0.2644951045513153   T      T      T    
    0.4160613417625427    0.7216972112655640    0.2645598351955414   T      T      T    
    0.6659874916076660    0.7217494845390320    0.2644963264465332   T      T      T    
    0.9160624742507935    0.7216984033584595    0.2645611166954041   T      T      T    
    0.1659845709800720    0.8883176445960999    0.2644371688365936   T      T      T    
    0.4158753454685211    0.8883756995201111    0.2645584344863892   T      T      T    
    0.6659836769104004    0.8883181810379028    0.2644357085227966   T      T      T    
    0.9158782362937927    0.8883774876594543    0.2645579278469086   T      T      T    
    0.9994124174118042    0.9994814991950989    0.3496397733688354   T      T      T    
    0.2493795752525330    0.9995568394660950    0.3496457934379578   T      T      T    
    0.4994138777256012    0.9994817972183228    0.3496411144733429   T      T      T    
    0.7493790984153748    0.9995554089546204    0.3496444523334503   T      T      T    
    0.9994341135025024    0.1661621183156967    0.3496560454368591   T      T      T    
    0.2494792938232422    0.1663328856229782    0.3496320545673370   T      T      T    
    0.4994337558746338    0.1661622971296310    0.3496575653553009   T      T      T    
    0.7494817376136780    0.1663331538438797    0.3496321737766266   T      T      T    
    0.9994133710861206    0.3329000473022461    0.3496358394622803   T      T      T    
    0.2493451237678528    0.3329683542251587    0.3496345579624176   T      T      T    
    0.4994066357612610    0.3328948915004730    0.3496381640434265   T      T      T    
    0.7493366599082947    0.3329594731330872    0.3496332466602325   T      T      T    
    0.9994174838066101    0.4994805455207825    0.3496395945549011   T      T      T    
    0.2493855506181717    0.4995538294315338    0.3496447801589966   T      T      T    
    0.4994236528873444    0.4994816482067108    0.3496430218219757   T      T      T    
    0.7493801712989807    0.4995544254779816    0.3496441841125488   T      T      T    
    0.9994338154792786    0.6661592721939087    0.3496569097042084   T      T      T    
    0.2494795322418213    0.6663283705711365    0.3496313989162445   T      T      T    
    0.4994363784790039    0.6661606431007385    0.3496554195880890   T      T      T    
    0.7494823336601257    0.6663321256637573    0.3496331274509430   T      T      T    
    0.9994087219238281    0.8328962326049805    0.3496394753456116   T      T      T    
    0.2493359446525574    0.8329588174819946    0.3496342003345490   T      T      T    
    0.4994062185287476    0.8328931331634521    0.3496384322643280   T      T      T    
    0.7493401169776917    0.8329643607139587    0.3496348857879639   T      T      T    
    0.5824837088584900    0.4439970850944519    0.3946237564086914   T      T      T    
