!pbe ma-def2-SVP opt Freq
%maxcore 3000
%pal
nprocs 4
end
# MECP_BC

*xyz 0 1
C        -3.18487978      -0.14288142      -1.34349167 
H        -3.17290330       0.96414232      -1.25197160 
H        -2.25873280      -0.54331577      -0.89021522 
C        -4.40115023      -0.65094733      -0.63850391 
H        -4.55397224      -0.47761500       0.38279983 
Br        -4.56901789      -2.28783512      -0.75909281 
H        -5.51952171      -0.41288137      -1.22487378 
H        -3.19422030      -0.41149530      -2.41660070 
*
