       N       E                     dE             d eps       ncg     rms          rms(c)
DAV:   1    -0.824233594069E+03   -0.82423E+03   -0.19080E-05  2112   0.355E-02    0.602E-02
RMM:   2    -0.824238102446E+03   -0.45084E-02   -0.81342E-04  2984   0.490E-02    0.859E-01
RMM:   3    -0.824233500600E+03    0.46018E-02   -0.63968E-04  2991   0.474E-02    0.519E-02
RMM:   4    -0.824233570481E+03   -0.69881E-04   -0.38525E-05  2965   0.105E-02    0.382E-02
RMM:   5    -0.824233576191E+03   -0.57097E-05   -0.10354E-05  2912   0.568E-03    0.442E-02
RMM:   6    -0.824233568682E+03    0.75086E-05   -0.54045E-06  2631   0.458E-03    0.696E-03
RMM:   7    -0.824233568845E+03   -0.16285E-06   -0.44713E-07  1567   0.122E-03
   1 F= -.82423357E+03 E0= -.82415695E+03  d E =-.306466E+00  mag=   201.6102
       N       E                     dE             d eps       ncg     rms          rms(c)
DAV:   1    -0.824232045478E+03    0.15232E-02   -0.12041E-01  3024   0.111E-01    0.102E-01
RMM:   2    -0.824232157253E+03   -0.11178E-03   -0.97012E-04  2980   0.203E-02    0.705E-02
RMM:   3    -0.824232822805E+03   -0.66555E-03   -0.41972E-04  2986   0.341E-02    0.359E-01
RMM:   4    -0.824232410789E+03    0.41202E-03   -0.23148E-04  2986   0.279E-02    0.194E-01
RMM:   5    -0.824232229551E+03    0.18124E-03   -0.91836E-05  2984   0.168E-02    0.373E-02
RMM:   6    -0.824232256391E+03   -0.26839E-04   -0.31742E-05  2980   0.968E-03    0.836E-02
RMM:   7    -0.824232233174E+03    0.23217E-04   -0.15374E-05  2953   0.751E-03    0.324E-02
RMM:   8    -0.824232230832E+03    0.23417E-05   -0.41890E-06  2424   0.387E-03    0.143E-02
RMM:   9    -0.824232233090E+03   -0.22574E-05   -0.21658E-06  1722   0.274E-03    0.223E-02
RMM:  10    -0.824232231729E+03    0.13609E-05   -0.14568E-06  1616   0.271E-03    0.494E-03
RMM:  11    -0.824232232709E+03   -0.97969E-06   -0.55621E-07  1581   0.137E-03
   2 F= -.82423223E+03 E0= -.82415565E+03  d E =-.306348E+00  mag=   201.6097
       N       E                     dE             d eps       ncg     rms          rms(c)
DAV:   1    -0.824231454318E+03    0.77741E-03   -0.47779E-01  3000   0.218E-01    0.206E-01
RMM:   2    -0.824231867329E+03   -0.41301E-03   -0.37702E-03  2993   0.399E-02    0.138E-01
RMM:   3    -0.824234379452E+03   -0.25121E-02   -0.16809E-03  2989   0.681E-02    0.712E-01
RMM:   4    -0.824232761106E+03    0.16183E-02   -0.90869E-04  2993   0.558E-02    0.352E-01
RMM:   5    -0.824232157354E+03    0.60375E-03   -0.33094E-04  2986   0.316E-02    0.744E-02
RMM:   6    -0.824232310751E+03   -0.15340E-03   -0.14168E-04  2990   0.207E-02    0.201E-01
RMM:   7    -0.824232172665E+03    0.13809E-03   -0.74407E-05  2982   0.168E-02    0.695E-02
RMM:   8    -0.824232161429E+03    0.11236E-04   -0.19925E-05  2982   0.822E-03    0.250E-02
RMM:   9    -0.824232168209E+03   -0.67801E-05   -0.85947E-06  2898   0.511E-03    0.407E-02
RMM:  10    -0.824232163174E+03    0.50348E-05   -0.47465E-06  2529   0.427E-03    0.938E-03
RMM:  11    -0.824232166795E+03   -0.36213E-05   -0.23118E-06  1768   0.272E-03    0.221E-02
RMM:  12    -0.824232167333E+03   -0.53780E-06   -0.18304E-06  1674   0.280E-03
   3 F= -.82423217E+03 E0= -.82415553E+03  d E =-.306558E+00  mag=   201.6106
       N       E                     dE             d eps       ncg     rms          rms(c)
DAV:   1    -0.824225647569E+03    0.65192E-02   -0.24964E-01  3168   0.178E-01    0.263E-01
RMM:   2    -0.824225135136E+03    0.51243E-03   -0.61168E-03  2993   0.461E-02    0.162E-01
RMM:   3    -0.824227726940E+03   -0.25918E-02   -0.26203E-03  2994   0.816E-02    0.813E-01
RMM:   4    -0.824225448193E+03    0.22787E-02   -0.12843E-03  2998   0.683E-02    0.291E-01
RMM:   5    -0.824225140682E+03    0.30751E-03   -0.29849E-04  2995   0.291E-02    0.132E-01
RMM:   6    -0.824225618399E+03   -0.47772E-03   -0.36260E-04  2990   0.327E-02    0.363E-01
RMM:   7    -0.824225126040E+03    0.49236E-03   -0.26006E-04  2996   0.290E-02    0.114E-01
RMM:   8    -0.824225110355E+03    0.15685E-04   -0.79268E-05  2983   0.162E-02    0.792E-02
RMM:   9    -0.824225100341E+03    0.10014E-04   -0.34548E-05  2978   0.945E-03    0.620E-02
RMM:  10    -0.824225085599E+03    0.14741E-04   -0.13741E-05  2942   0.689E-03    0.123E-02
RMM:  11    -0.824225089307E+03   -0.37070E-05   -0.50209E-06  2391   0.363E-03    0.281E-02
RMM:  12    -0.824225087375E+03    0.19319E-05   -0.23948E-06  1714   0.325E-03    0.735E-03
RMM:  13    -0.824225088325E+03   -0.95050E-06   -0.87156E-07  1595   0.172E-03
   4 F= -.82422509E+03 E0= -.82414852E+03  d E =-.306257E+00  mag=   201.6090
       N       E                     dE             d eps       ncg     rms          rms(c)
DAV:   1    -0.824227942046E+03   -0.28547E-02   -0.50191E-01  3216   0.246E-01    0.430E-01
RMM:   2    -0.824226036305E+03    0.19057E-02   -0.15402E-02  2989   0.654E-02    0.229E-01
RMM:   3    -0.824230426780E+03   -0.43905E-02   -0.49322E-03  2993   0.110E-01    0.109E+00
RMM:   4    -0.824226110669E+03    0.43161E-02   -0.27507E-03  2997   0.981E-02    0.263E-01
RMM:   5    -0.824226400043E+03   -0.28937E-03   -0.60453E-04  2995   0.410E-02    0.328E-01
RMM:   6    -0.824227412629E+03   -0.10126E-02   -0.84214E-04  2991   0.478E-02    0.573E-01
RMM:   7    -0.824226013828E+03    0.13988E-02   -0.53756E-04  2995   0.431E-02    0.153E-01
RMM:   8    -0.824226001132E+03    0.12697E-04   -0.17011E-04  2989   0.228E-02    0.128E-01
RMM:   9    -0.824225945329E+03    0.55803E-04   -0.80144E-05  2984   0.145E-02    0.515E-02
RMM:  10    -0.824225940098E+03    0.52312E-05   -0.19113E-05  2973   0.772E-03    0.263E-02
RMM:  11    -0.824225943699E+03   -0.36014E-05   -0.83619E-06  2430   0.401E-03    0.268E-02
RMM:  12    -0.824225942361E+03    0.13387E-05   -0.29721E-06  1950   0.348E-03    0.118E-02
RMM:  13    -0.824225945469E+03   -0.31082E-05   -0.18157E-06  1679   0.226E-03    0.193E-02
RMM:  14    -0.824225945266E+03    0.20285E-06   -0.12104E-06  1624   0.235E-03
   5 F= -.82422595E+03 E0= -.82414927E+03  d E =-.306691E+00  mag=   201.6114
       N       E                     dE             d eps       ncg     rms          rms(c)
DAV:   1    -0.824232576836E+03   -0.66314E-02   -0.23733E-01  3048   0.166E-01    0.186E-01
RMM:   2    -0.824232649653E+03   -0.72817E-04   -0.33136E-03  2992   0.377E-02    0.144E-01
RMM:   3    -0.824234643103E+03   -0.19934E-02   -0.11978E-03  2990   0.589E-02    0.654E-01
RMM:   4    -0.824233147419E+03    0.14957E-02   -0.64958E-04  2996   0.475E-02    0.322E-01
RMM:   5    -0.824232705153E+03    0.44227E-03   -0.25608E-04  2985   0.291E-02    0.104E-01
RMM:   6    -0.824232853934E+03   -0.14878E-03   -0.18192E-04  2994   0.234E-02    0.213E-01
RMM:   7    -0.824232737212E+03    0.11672E-03   -0.11789E-04  2986   0.195E-02    0.115E-01
RMM:   8    -0.824232688668E+03    0.48544E-04   -0.42250E-05  2980   0.124E-02    0.287E-02
RMM:   9    -0.824232698069E+03   -0.94007E-05   -0.16136E-05  2976   0.691E-03    0.506E-02
RMM:  10    -0.824232688387E+03    0.96814E-05   -0.81778E-06  2841   0.543E-03    0.869E-03
RMM:  11    -0.824232691186E+03   -0.27985E-05   -0.23039E-06  1758   0.267E-03    0.205E-02
RMM:  12    -0.824232691161E+03    0.25146E-07   -0.16348E-06  1648   0.269E-03
   6 F= -.82423269E+03 E0= -.82415605E+03  d E =-.306569E+00  mag=   201.6111
       N       E                     dE             d eps       ncg     rms          rms(c)
DAV:   1    -0.824232043106E+03    0.64808E-03   -0.47779E-01  3024   0.230E-01    0.226E-01
RMM:   2    -0.824232481777E+03   -0.43867E-03   -0.48071E-03  2994   0.499E-02    0.188E-01
RMM:   3    -0.824235165881E+03   -0.26841E-02   -0.17085E-03  2991   0.691E-02    0.760E-01
RMM:   4    -0.824233723207E+03    0.14427E-02   -0.10083E-03  2995   0.580E-02    0.496E-01
RMM:   5    -0.824232663055E+03    0.10602E-02   -0.57533E-04  2986   0.438E-02    0.135E-01
RMM:   6    -0.824232831305E+03   -0.16825E-03   -0.24546E-04  2993   0.270E-02    0.241E-01
RMM:   7    -0.824232680112E+03    0.15119E-03   -0.15102E-04  2987   0.228E-02    0.125E-01
RMM:   8    -0.824232642369E+03    0.37743E-04   -0.75570E-05  2983   0.165E-02    0.599E-02
RMM:   9    -0.824232646603E+03   -0.42345E-05   -0.20214E-05  2977   0.832E-03    0.598E-02
RMM:  10    -0.824232634776E+03    0.11828E-04   -0.10713E-05  2915   0.641E-03    0.108E-02
RMM:  11    -0.824232643376E+03   -0.86000E-05   -0.41935E-06  2346   0.349E-03    0.269E-02
RMM:  12    -0.824232645917E+03   -0.25412E-05   -0.26167E-06  1804   0.335E-03    0.816E-03
RMM:  13    -0.824232651273E+03   -0.53568E-05   -0.12313E-06  1660   0.198E-03    0.160E-02
RMM:  14    -0.824232659302E+03   -0.80286E-05   -0.12496E-06  1723   0.186E-03    0.979E-03
RMM:  15    -0.824232661337E+03   -0.20344E-05   -0.40944E-07  1615   0.122E-03    0.329E-03
RMM:  16    -0.824232668787E+03   -0.74509E-05   -0.65127E-07  1679   0.939E-04    0.651E-03
RMM:  17    -0.824232672593E+03   -0.38055E-05   -0.34744E-07  1637   0.976E-04    0.209E-03
RMM:  18    -0.824232679730E+03   -0.71366E-05   -0.55100E-07  1692   0.699E-04    0.462E-03
RMM:  19    -0.824232684185E+03   -0.44551E-05   -0.36465E-07  1649   0.786E-04    0.145E-03
RMM:  20    -0.824232689130E+03   -0.49450E-05   -0.38851E-07  1634   0.537E-04    0.330E-03
RMM:  21    -0.824232691565E+03   -0.24358E-05   -0.18287E-07  1576   0.556E-04    0.972E-04
RMM:  22    -0.824232693719E+03   -0.21533E-05   -0.10120E-07  1224   0.338E-04    0.180E-03
RMM:  23    -0.824232695543E+03   -0.18238E-05   -0.75842E-08  1174   0.313E-04    0.552E-04
RMM:  24    -0.824232697352E+03   -0.18099E-05   -0.63470E-08   856   0.278E-04    0.123E-03
RMM:  25    -0.824232698786E+03   -0.14338E-05   -0.51819E-08   812   0.261E-04    0.488E-04
RMM:  26    -0.824232699704E+03   -0.91808E-06   -0.31587E-08   791   0.255E-04
   7 F= -.82423270E+03 E0= -.82415611E+03  d E =-.306357E+00  mag=   201.6090
       N       E                     dE             d eps       ncg     rms          rms(c)
DAV:   1    -0.824226043913E+03    0.66549E-02   -0.24193E-01  3120   0.174E-01    0.257E-01
RMM:   2    -0.824225494083E+03    0.54983E-03   -0.62855E-03  2992   0.449E-02    0.147E-01
RMM:   3    -0.824227645087E+03   -0.21510E-02   -0.21210E-03  2993   0.714E-02    0.733E-01
RMM:   4    -0.824225725068E+03    0.19200E-02   -0.11795E-03  2996   0.623E-02    0.218E-01
RMM:   5    -0.824225619415E+03    0.10565E-03   -0.20045E-04  2999   0.232E-02    0.148E-01
RMM:   6    -0.824225873789E+03   -0.25437E-03   -0.33533E-04  2988   0.298E-02    0.285E-01
RMM:   7    -0.824225559972E+03    0.31382E-03   -0.21243E-04  2992   0.276E-02    0.741E-02
RMM:   8    -0.824225580180E+03   -0.20209E-04   -0.57695E-05  2985   0.133E-02    0.974E-02
RMM:   9    -0.824225547342E+03    0.32839E-04   -0.27924E-05  2974   0.974E-03    0.385E-02
RMM:  10    -0.824225544043E+03    0.32980E-05   -0.66192E-06  2801   0.464E-03    0.186E-02
RMM:  11    -0.824225546202E+03   -0.21588E-05   -0.43143E-06  1959   0.323E-03    0.233E-02
RMM:  12    -0.824225544769E+03    0.14331E-05   -0.20869E-06  1647   0.309E-03    0.529E-03
RMM:  13    -0.824225546599E+03   -0.18300E-05   -0.79011E-07  1613   0.156E-03    0.118E-02
RMM:  14    -0.824225546819E+03   -0.21953E-06   -0.58640E-07  1593   0.166E-03
   8 F= -.82422555E+03 E0= -.82414886E+03  d E =-.306739E+00  mag=   201.6119
       N       E                     dE             d eps       ncg     rms          rms(c)
DAV:   1    -0.824226658644E+03   -0.11120E-02   -0.50240E-01  3288   0.257E-01    0.416E-01
RMM:   2    -0.824224863089E+03    0.17956E-02   -0.14251E-02  2991   0.674E-02    0.234E-01
RMM:   3    -0.824229073533E+03   -0.42104E-02   -0.57736E-03  2996   0.115E-01    0.109E+00
RMM:   4    -0.824224796781E+03    0.42768E-02   -0.29534E-03  2995   0.101E-01    0.194E-01
RMM:   5    -0.824225609234E+03   -0.81245E-03   -0.55259E-04  3001   0.384E-02    0.411E-01
RMM:   6    -0.824225495222E+03    0.11401E-03   -0.80356E-04  2987   0.463E-02    0.439E-01
RMM:   7    -0.824224802691E+03    0.69253E-03   -0.50448E-04  2992   0.424E-02    0.146E-01
RMM:   8    -0.824224815658E+03   -0.12967E-04   -0.14073E-04  2991   0.206E-02    0.155E-01
RMM:   9    -0.824224744917E+03    0.70741E-04   -0.86910E-05  2983   0.157E-02    0.776E-02
RMM:  10    -0.824224725197E+03    0.19720E-04   -0.27241E-05  2977   0.957E-03    0.223E-02
RMM:  11    -0.824224733978E+03   -0.87803E-05   -0.10980E-05  2870   0.501E-03    0.405E-02
RMM:  12    -0.824224729523E+03    0.44542E-05   -0.43935E-06  2428   0.410E-03    0.104E-02
RMM:  13    -0.824224732976E+03   -0.34530E-05   -0.19134E-06  1669   0.245E-03    0.193E-02
RMM:  14    -0.824224733984E+03   -0.10077E-05   -0.14960E-06  1648   0.240E-03    0.471E-03
RMM:  15    -0.824224735524E+03   -0.15401E-05   -0.40565E-07  1592   0.115E-03    0.803E-03
RMM:  16    -0.824224738319E+03   -0.27944E-05   -0.36822E-07  1621   0.106E-03    0.608E-03
RMM:  17    -0.824224739145E+03   -0.82681E-06   -0.14870E-07  1585   0.754E-04
   9 F= -.82422474E+03 E0= -.82414819E+03  d E =-.306189E+00  mag=   201.6080
       N       E                     dE             d eps       ncg     rms          rms(c)
DAV:   1    -0.824233172825E+03   -0.84345E-02   -0.24795E-01  3096   0.174E-01    0.253E-01
RMM:   2    -0.824232751356E+03    0.42147E-03   -0.55523E-03  2991   0.413E-02    0.145E-01
RMM:   3    -0.824234357081E+03   -0.16057E-02   -0.19899E-03  2992   0.693E-02    0.664E-01
RMM:   4    -0.824232750933E+03    0.16061E-02   -0.11816E-03  2996   0.627E-02    0.121E-01
RMM:   5    -0.824233117679E+03   -0.36675E-03   -0.23257E-04  2990   0.253E-02    0.271E-01
RMM:   6    -0.824233051395E+03    0.66285E-04   -0.29890E-04  2991   0.288E-02    0.276E-01
RMM:   7    -0.824232766098E+03    0.28530E-03   -0.19317E-04  2988   0.264E-02    0.917E-02
RMM:   8    -0.824232759770E+03    0.63280E-05   -0.45249E-05  2989   0.117E-02    0.748E-02
RMM:   9    -0.824232746624E+03    0.13146E-04   -0.23907E-05  2973   0.816E-03    0.441E-02
RMM:  10    -0.824232740319E+03    0.63051E-05   -0.81455E-06  2863   0.528E-03    0.129E-02
RMM:  11    -0.824232743390E+03   -0.30712E-05   -0.37575E-06  1842   0.299E-03    0.231E-02
RMM:  12    -0.824232742038E+03    0.13523E-05   -0.19739E-06  1641   0.307E-03    0.749E-03
RMM:  13    -0.824232743633E+03   -0.15954E-05   -0.94189E-07  1624   0.168E-03    0.135E-02
RMM:  14    -0.824232743431E+03    0.20250E-06   -0.59954E-07  1599   0.164E-03
  10 F= -.82423274E+03 E0= -.82415611E+03  d E =-.306521E+00  mag=   201.6098
       N       E                     dE             d eps       ncg     rms          rms(c)
DAV:   1    -0.824231781674E+03    0.96196E-03   -0.47967E-01  2976   0.221E-01    0.192E-01
RMM:   2    -0.824232274729E+03   -0.49306E-03   -0.30957E-03  2991   0.359E-02    0.132E-01
RMM:   3    -0.824234639438E+03   -0.23647E-02   -0.14487E-03  2991   0.648E-02    0.745E-01
RMM:   4    -0.824232799594E+03    0.18398E-02   -0.91203E-04  2995   0.574E-02    0.259E-01
RMM:   5    -0.824232583701E+03    0.21589E-03   -0.20775E-04  2987   0.253E-02    0.830E-02
RMM:   6    -0.824232596889E+03   -0.13188E-04   -0.52398E-05  2997   0.119E-02    0.102E-01
RMM:   7    -0.824232562543E+03    0.34346E-04   -0.22453E-05  2972   0.893E-03    0.394E-02
RMM:   8    -0.824232559424E+03    0.31189E-05   -0.92598E-06  2924   0.576E-03    0.170E-02
RMM:   9    -0.824232566371E+03   -0.69470E-05   -0.46536E-06  2365   0.365E-03    0.284E-02
RMM:  10    -0.824232565397E+03    0.97422E-06   -0.28677E-06  1913   0.354E-03
  11 F= -.82423257E+03 E0= -.82415596E+03  d E =-.306413E+00  mag=   201.6097
       N       E                     dE             d eps       ncg     rms          rms(c)
DAV:   1    -0.824232190590E+03    0.37578E-03   -0.23689E-01  3024   0.167E-01    0.158E-01
RMM:   2    -0.824232526568E+03   -0.33598E-03   -0.27072E-03  2993   0.411E-02    0.193E-01
RMM:   3    -0.824232996706E+03   -0.47014E-03   -0.61786E-04  2991   0.426E-02    0.397E-01
RMM:   4    -0.824233002480E+03   -0.57736E-05   -0.52513E-04  2994   0.406E-02    0.337E-01
RMM:   5    -0.824232615173E+03    0.38731E-03   -0.29726E-04  2987   0.328E-02    0.122E-01
RMM:   6    -0.824232599297E+03    0.15876E-04   -0.83069E-05  2986   0.153E-02    0.114E-01
RMM:   7    -0.824232592911E+03    0.63866E-05   -0.73024E-05  2987   0.153E-02    0.108E-01
RMM:   8    -0.824232549610E+03    0.43301E-04   -0.45419E-05  2982   0.131E-02    0.238E-02
RMM:   9    -0.824232555189E+03   -0.55788E-05   -0.89221E-06  2903   0.539E-03    0.369E-02
RMM:  10    -0.824232550816E+03    0.43732E-05   -0.38177E-06  2353   0.396E-03    0.952E-03
RMM:  11    -0.824232553051E+03   -0.22356E-05   -0.16138E-06  1650   0.234E-03    0.198E-02
RMM:  12    -0.824232553753E+03   -0.70148E-06   -0.12515E-06  1654   0.233E-03
  12 F= -.82423255E+03 E0= -.82415592E+03  d E =-.306528E+00  mag=   201.6102
       N       E                     dE             d eps       ncg     rms          rms(c)
DAV:   1    -0.824232074620E+03    0.47843E-03   -0.47717E-01  3048   0.233E-01    0.229E-01
RMM:   2    -0.824232444841E+03   -0.37022E-03   -0.50193E-03  2992   0.494E-02    0.158E-01
RMM:   3    -0.824235279420E+03   -0.28346E-02   -0.19861E-03  2992   0.737E-02    0.790E-01
RMM:   4    -0.824233192447E+03    0.20870E-02   -0.10367E-03  2997   0.609E-02    0.360E-01
RMM:   5    -0.824232672477E+03    0.51997E-03   -0.39429E-04  2985   0.348E-02    0.127E-01
RMM:   6    -0.824232991942E+03   -0.31947E-03   -0.26692E-04  2991   0.284E-02    0.307E-01
RMM:   7    -0.824232654943E+03    0.33700E-03   -0.17859E-04  2986   0.254E-02    0.932E-02
RMM:   8    -0.824232652041E+03    0.29018E-05   -0.69230E-05  2983   0.152E-02    0.682E-02
RMM:   9    -0.824232643794E+03    0.82475E-05   -0.16680E-05  2972   0.809E-03    0.351E-02
RMM:  10    -0.824232642406E+03    0.13873E-05   -0.63621E-06  2766   0.482E-03    0.152E-02
RMM:  11    -0.824232651941E+03   -0.95346E-05   -0.29863E-06  1794   0.275E-03    0.224E-02
RMM:  12    -0.824232653725E+03   -0.17847E-05   -0.18925E-06  1681   0.295E-03    0.838E-03
RMM:  13    -0.824232661338E+03   -0.76129E-05   -0.13925E-06  1701   0.200E-03    0.185E-02
RMM:  14    -0.824232667453E+03   -0.61146E-05   -0.11880E-06  1691   0.205E-03    0.565E-03
RMM:  15    -0.824232669764E+03   -0.23110E-05   -0.31829E-07  1609   0.984E-04    0.435E-03
RMM:  16    -0.824232678547E+03   -0.87834E-05   -0.74920E-07  1696   0.863E-04    0.512E-03
RMM:  17    -0.824232681593E+03   -0.30459E-05   -0.26088E-07  1628   0.837E-04    0.226E-03
RMM:  18    -0.824232690597E+03   -0.90037E-05   -0.74298E-07  1710   0.657E-04    0.398E-03
RMM:  19    -0.824232693669E+03   -0.30720E-05   -0.25032E-07  1621   0.709E-04    0.152E-03
RMM:  20    -0.824232699130E+03   -0.54615E-05   -0.43297E-07  1637   0.507E-04    0.297E-03
RMM:  21    -0.824232701058E+03   -0.19275E-05   -0.14059E-07  1556   0.506E-04    0.965E-04
RMM:  22    -0.824232703449E+03   -0.23915E-05   -0.10818E-07  1195   0.328E-04    0.168E-03
RMM:  23    -0.824232705062E+03   -0.16127E-05   -0.64319E-08  1127   0.302E-04    0.492E-04
RMM:  24    -0.824232707329E+03   -0.22674E-05   -0.96163E-08   966   0.292E-04    0.123E-03
RMM:  25    -0.824232708371E+03   -0.10419E-05   -0.35411E-08   782   0.256E-04    0.440E-04
RMM:  26    -0.824232709282E+03   -0.91085E-06   -0.30905E-08   756   0.252E-04
  13 F= -.82423271E+03 E0= -.82415611E+03  d E =-.306402E+00  mag=   201.6094
       N       E                     dE             d eps       ncg     rms          rms(c)
DAV:   1    -0.824222658800E+03    0.10050E-01   -0.22493E+00  2976   0.764E-01    0.306E-01
RMM:   2    -0.824223449309E+03   -0.79051E-03   -0.22243E-02  2994   0.842E-02    0.169E-01
RMM:   3    -0.824224516782E+03   -0.10675E-02   -0.27205E-03  2992   0.649E-02    0.494E-01
RMM:   4    -0.824223717620E+03    0.79916E-03   -0.12651E-03  3002   0.617E-02    0.166E-01
RMM:   5    -0.824224506691E+03   -0.78907E-03   -0.44349E-04  2997   0.361E-02    0.405E-01
RMM:   6    -0.824224001585E+03    0.50511E-03   -0.31128E-04  2998   0.309E-02    0.256E-01
RMM:   7    -0.824223715482E+03    0.28610E-03   -0.13476E-04  2988   0.219E-02    0.632E-02
RMM:   8    -0.824223727316E+03   -0.11833E-04   -0.40326E-05  2988   0.110E-02    0.674E-02
RMM:   9    -0.824223714701E+03    0.12615E-04   -0.14138E-05  2946   0.688E-03    0.319E-02
RMM:  10    -0.824223713213E+03    0.14880E-05   -0.73227E-06  2822   0.504E-03    0.221E-02
RMM:  11    -0.824223715805E+03   -0.25922E-05   -0.55062E-06  2088   0.350E-03    0.247E-02
RMM:  12    -0.824223714324E+03    0.14809E-05   -0.28792E-06  1874   0.348E-03    0.955E-03
RMM:  13    -0.824223716193E+03   -0.18694E-05   -0.11285E-06  1633   0.189E-03    0.145E-02
RMM:  14    -0.824223716257E+03   -0.64174E-07   -0.64926E-07  1590   0.179E-03
  14 F= -.82422372E+03 E0= -.82414714E+03  d E =-.306316E+00  mag=   201.6081
       N       E                     dE             d eps       ncg     rms          rms(c)
DAV:   1    -0.824221010573E+03    0.27056E-02   -0.89985E+00  2976   0.153E+00    0.634E-01
RMM:   2    -0.824224034597E+03   -0.30240E-02   -0.10531E-01  2993   0.177E-01    0.329E-01
RMM:   3    -0.824233153313E+03   -0.91187E-02   -0.12037E-02  2994   0.133E-01    0.140E+00
RMM:   4    -0.824224679315E+03    0.84740E-02   -0.43836E-03  3006   0.110E-01    0.448E-01
RMM:   5    -0.824225207440E+03   -0.52813E-03   -0.19141E-03  2998   0.743E-02    0.535E-01
RMM:   6    -0.824226511021E+03   -0.13036E-02   -0.19846E-03  2994   0.733E-02    0.759E-01
RMM:   7    -0.824224372489E+03    0.21385E-02   -0.11706E-03  2997   0.654E-02    0.169E-01
RMM:   8    -0.824224482026E+03   -0.10954E-03   -0.35607E-04  2997   0.328E-02    0.190E-01
RMM:   9    -0.824224370662E+03    0.11136E-03   -0.12568E-04  2989   0.206E-02    0.768E-02
RMM:  10    -0.824224363270E+03    0.73926E-05   -0.46457E-05  2981   0.124E-02    0.573E-02
RMM:  11    -0.824224368989E+03   -0.57190E-05   -0.27294E-05  2963   0.775E-03    0.515E-02
RMM:  12    -0.824224361874E+03    0.71145E-05   -0.12297E-05  2958   0.653E-03    0.243E-02
RMM:  13    -0.824224369591E+03   -0.77163E-05   -0.69511E-06  2687   0.433E-03    0.405E-02
RMM:  14    -0.824224364887E+03    0.47033E-05   -0.38736E-06  2169   0.388E-03    0.104E-02
RMM:  15    -0.824224367086E+03   -0.21985E-05   -0.18651E-06  1670   0.246E-03    0.174E-02
RMM:  16    -0.824224368102E+03   -0.10167E-05   -0.11134E-06  1639   0.224E-03    0.662E-03
RMM:  17    -0.824224368413E+03   -0.31017E-06   -0.24216E-07  1582   0.101E-03
  15 F= -.82422437E+03 E0= -.82414771E+03  d E =-.306636E+00  mag=   201.6112
       N       E                     dE             d eps       ncg     rms          rms(c)
DAV:   1    -0.824224625522E+03   -0.25742E-03   -0.44846E+00  2976   0.101E+00    0.415E-01
RMM:   2    -0.824225168196E+03   -0.54267E-03   -0.37155E-02  2992   0.997E-02    0.238E-01
RMM:   3    -0.824227243183E+03   -0.20750E-02   -0.78360E-03  3010   0.924E-02    0.764E-01
RMM:   4    -0.824225234690E+03    0.20085E-02   -0.20688E-03  3003   0.808E-02    0.200E-01
RMM:   5    -0.824225572881E+03   -0.33819E-03   -0.58235E-04  3005   0.413E-02    0.326E-01
RMM:   6    -0.824225395113E+03    0.17777E-03   -0.24474E-04  2993   0.295E-02    0.217E-01
RMM:   7    -0.824225184894E+03    0.21022E-03   -0.89929E-05  2982   0.178E-02    0.740E-02
RMM:   8    -0.824225195761E+03   -0.10868E-04   -0.47893E-05  2991   0.120E-02    0.806E-02
RMM:   9    -0.824225194564E+03    0.11976E-05   -0.29386E-05  2982   0.888E-03    0.513E-02
RMM:  10    -0.824225189562E+03    0.50018E-05   -0.13998E-05  2962   0.703E-03    0.275E-02
RMM:  11    -0.824225192946E+03   -0.33841E-05   -0.43146E-06  2427   0.394E-03    0.244E-02
RMM:  12    -0.824225191109E+03    0.18369E-05   -0.18796E-06  1660   0.294E-03    0.733E-03
RMM:  13    -0.824225191962E+03   -0.85298E-06   -0.68021E-07  1592   0.150E-03
  16 F= -.82422519E+03 E0= -.82414854E+03  d E =-.306589E+00  mag=   201.6117
       N       E                     dE             d eps       ncg     rms          rms(c)
DAV:   1    -0.824221637362E+03    0.35537E-02   -0.90805E+00  2976   0.156E+00    0.629E-01
RMM:   2    -0.824224175585E+03   -0.25382E-02   -0.96251E-02  2994   0.179E-01    0.321E-01
RMM:   3    -0.824235466177E+03   -0.11291E-01   -0.13136E-02  3000   0.146E-01    0.155E+00
RMM:   4    -0.824224901937E+03    0.10564E-01   -0.44067E-03  3005   0.115E-01    0.473E-01
RMM:   5    -0.824224652299E+03    0.24964E-03   -0.14217E-03  2993   0.644E-02    0.375E-01
RMM:   6    -0.824225926881E+03   -0.12746E-02   -0.17256E-03  2992   0.663E-02    0.657E-01
RMM:   7    -0.824224367016E+03    0.15599E-02   -0.10439E-03  2996   0.611E-02    0.197E-01
RMM:   8    -0.824224488044E+03   -0.12103E-03   -0.39470E-04  3002   0.348E-02    0.235E-01
RMM:   9    -0.824224295996E+03    0.19205E-03   -0.14503E-04  2989   0.225E-02    0.844E-02
RMM:  10    -0.824224278026E+03    0.17970E-04   -0.43209E-05  2979   0.119E-02    0.447E-02
RMM:  11    -0.824224282537E+03   -0.45113E-05   -0.32150E-05  2965   0.706E-03    0.471E-02
RMM:  12    -0.824224276433E+03    0.61044E-05   -0.12156E-05  2952   0.638E-03    0.217E-02
RMM:  13    -0.824224280977E+03   -0.45437E-05   -0.60690E-06  2532   0.395E-03    0.326E-02
RMM:  14    -0.824224278111E+03    0.28659E-05   -0.31595E-06  1919   0.361E-03    0.103E-02
RMM:  15    -0.824224280010E+03   -0.18994E-05   -0.16014E-06  1657   0.227E-03    0.177E-02
RMM:  16    -0.824224280831E+03   -0.82041E-06   -0.11515E-06  1636   0.219E-03
  17 F= -.82422428E+03 E0= -.82414769E+03  d E =-.306348E+00  mag=   201.6094
       N       E                     dE             d eps       ncg     rms          rms(c)
DAV:   1    -0.824227696680E+03   -0.34167E-02   -0.46176E+00  2976   0.120E+00    0.341E-01
RMM:   2    -0.824231380839E+03   -0.36842E-02   -0.53944E-02  2995   0.146E-01    0.196E-01
RMM:   3    -0.824235202778E+03   -0.38219E-02   -0.45958E-03  3002   0.845E-02    0.840E-01
RMM:   4    -0.824231782263E+03    0.34205E-02   -0.15945E-03  3020   0.652E-02    0.295E-01
RMM:   5    -0.824231853314E+03   -0.71051E-04   -0.73792E-04  2998   0.470E-02    0.318E-01
RMM:   6    -0.824232261906E+03   -0.40859E-03   -0.70862E-04  2996   0.453E-02    0.451E-01
RMM:   7    -0.824231483558E+03    0.77835E-03   -0.44229E-04  2996   0.405E-02    0.989E-02
RMM:   8    -0.824231524456E+03   -0.40898E-04   -0.12570E-04  2997   0.195E-02    0.113E-01
RMM:   9    -0.824231483575E+03    0.40880E-04   -0.39307E-05  2983   0.120E-02    0.527E-02
RMM:  10    -0.824231478754E+03    0.48215E-05   -0.16802E-05  2973   0.764E-03    0.311E-02
RMM:  11    -0.824231489159E+03   -0.10405E-04   -0.12397E-05  2897   0.547E-03    0.413E-02
RMM:  12    -0.824231486347E+03    0.28121E-05   -0.66549E-06  2795   0.496E-03    0.104E-02
RMM:  13    -0.824231495658E+03   -0.93111E-05   -0.25278E-06  1808   0.271E-03    0.212E-02
RMM:  14    -0.824231499380E+03   -0.37224E-05   -0.18687E-06  1665   0.291E-03    0.594E-03
RMM:  15    -0.824231507169E+03   -0.77887E-05   -0.95884E-07  1650   0.166E-03    0.135E-02
RMM:  16    -0.824231514690E+03   -0.75211E-05   -0.75272E-07  1658   0.165E-03    0.611E-03
RMM:  17    -0.824231517275E+03   -0.25850E-05   -0.22416E-07  1601   0.824E-04    0.364E-03
RMM:  18    -0.824231529325E+03   -0.12050E-04   -0.58850E-07  1675   0.755E-04    0.404E-03
RMM:  19    -0.824231534542E+03   -0.52173E-05   -0.27264E-07  1624   0.816E-04    0.314E-03
RMM:  20    -0.824231550478E+03   -0.15936E-04   -0.11603E-06  1741   0.825E-04    0.447E-03
RMM:  21    -0.824231554233E+03   -0.37552E-05   -0.25960E-07  1634   0.754E-04    0.154E-03
RMM:  22    -0.824231558981E+03   -0.47476E-05   -0.20618E-07  1489   0.423E-04    0.216E-03
RMM:  23    -0.824231560852E+03   -0.18711E-05   -0.68788E-08  1432   0.397E-04    0.834E-04
RMM:  24    -0.824231565946E+03   -0.50942E-05   -0.20565E-07  1323   0.350E-04    0.170E-03
RMM:  25    -0.824231567834E+03   -0.18878E-05   -0.66453E-08  1198   0.322E-04    0.637E-04
RMM:  26    -0.824231570143E+03   -0.23091E-05   -0.74610E-08   893   0.280E-04    0.108E-03
RMM:  27    -0.824231571140E+03   -0.99721E-06   -0.24887E-08   677   0.242E-04
  18 F= -.82423157E+03 E0= -.82415502E+03  d E =-.306218E+00  mag=   201.6075
       N       E                     dE             d eps       ncg     rms          rms(c)
DAV:   1    -0.824224166451E+03    0.74037E-02   -0.91602E+00  2976   0.168E+00    0.493E-01
RMM:   2    -0.824231374346E+03   -0.72079E-02   -0.10805E-01  2998   0.212E-01    0.302E-01
RMM:   3    -0.824250663589E+03   -0.19289E-01   -0.10968E-02  3004   0.144E-01    0.179E+00
RMM:   4    -0.824231887642E+03    0.18776E-01   -0.37697E-03  3002   0.114E-01    0.512E-01
RMM:   5    -0.824231341550E+03    0.54609E-03   -0.14057E-03  2994   0.672E-02    0.295E-01
RMM:   6    -0.824232370141E+03   -0.10286E-02   -0.15590E-03  2996   0.655E-02    0.585E-01
RMM:   7    -0.824231134305E+03    0.12358E-02   -0.11564E-03  2994   0.634E-02    0.201E-01
RMM:   8    -0.824231373104E+03   -0.23880E-03   -0.44439E-04  2994   0.374E-02    0.302E-01
RMM:   9    -0.824231020530E+03    0.35257E-03   -0.18205E-04  2991   0.262E-02    0.101E-01
RMM:  10    -0.824230993812E+03    0.26718E-04   -0.61039E-05  2983   0.144E-02    0.453E-02
RMM:  11    -0.824231001866E+03   -0.80545E-05   -0.24274E-05  2976   0.725E-03    0.502E-02
RMM:  12    -0.824230998077E+03    0.37890E-05   -0.14204E-05  2962   0.703E-03    0.246E-02
RMM:  13    -0.824231016689E+03   -0.18612E-04   -0.62873E-06  2708   0.431E-03    0.358E-02
RMM:  14    -0.824231018818E+03   -0.21288E-05   -0.39084E-06  2286   0.396E-03    0.141E-02
RMM:  15    -0.824231033325E+03   -0.14508E-04   -0.33326E-06  2083   0.321E-03    0.274E-02
RMM:  16    -0.824231056196E+03   -0.22871E-04   -0.32539E-06  1855   0.321E-03    0.107E-02
RMM:  17    -0.824231062974E+03   -0.67780E-05   -0.85031E-07  1630   0.177E-03    0.798E-03
RMM:  18    -0.824231086000E+03   -0.23026E-04   -0.80219E-07  1689   0.122E-03    0.582E-03
RMM:  19    -0.824231094601E+03   -0.86006E-05   -0.39363E-07  1624   0.114E-03    0.547E-03
RMM:  20    -0.824231143038E+03   -0.48437E-04   -0.26924E-06  1849   0.134E-03    0.805E-03
RMM:  21    -0.824231153090E+03   -0.10052E-04   -0.66358E-07  1669   0.132E-03    0.309E-03
RMM:  22    -0.824231164320E+03   -0.11230E-04   -0.44222E-07  1663   0.722E-04    0.355E-03
RMM:  23    -0.824231167630E+03   -0.33107E-05   -0.13802E-07  1604   0.649E-04    0.135E-03
RMM:  24    -0.824231178590E+03   -0.10959E-04   -0.30246E-07  1601   0.460E-04    0.255E-03
RMM:  25    -0.824231182286E+03   -0.36961E-05   -0.10244E-07  1530   0.489E-04    0.135E-03
RMM:  26    -0.824231189274E+03   -0.69884E-05   -0.20875E-07  1457   0.379E-04    0.210E-03
RMM:  27    -0.824231191412E+03   -0.21379E-05   -0.65764E-08  1366   0.366E-04    0.806E-04
RMM:  28    -0.824231194044E+03   -0.26320E-05   -0.64718E-08   807   0.264E-04    0.114E-03
RMM:  29    -0.824231194841E+03   -0.79710E-06   -0.15255E-08   615   0.223E-04
  19 F= -.82423119E+03 E0= -.82415452E+03  d E =-.306714E+00  mag=   201.6130
