   Co     H     O  
  1.00000 
    9.9561004638671875       0.0000000000000000       0.0000000000000000    
    -7.4670500755310059       12.9333095550537109       0.0000000000000000    
    0.0000000000000000       0.0000000000000000       23.1291007995605469    
   Co     H     O   
   120     2     1   
Selective dynamics 
Direct 
    0.1666693389415741    0.0555596239864826    0.0000000000000000   F      F      F    
    0.4166698753833771    0.0555596239864826    0.0000000000000000   F      F      F    
    0.6666693091392517    0.0555596239864826    0.0000000000000000   F      F      F    
    0.9166698455810547    0.0555596239864826    0.0000000000000000   F      F      F    
    0.1666704565286636    0.2222199738025665    0.0000000000000000   F      F      F    
    0.4166699647903442    0.2222199738025665    0.0000000000000000   F      F      F    
    0.6666705012321472    0.2222199738025665    0.0000000000000000   F      F      F    
    0.9166700243949890    0.2222199738025665    0.0000000000000000   F      F      F    
    0.1666694879531860    0.3888895809650421    0.0000000000000000   F      F      F    
    0.4166699945926666    0.3888895809650421    0.0000000000000000   F      F      F    
    0.6666694879531860    0.3888895809650421    0.0000000000000000   F      F      F    
    0.9166700839996338    0.3888895809650421    0.0000000000000000   F      F      F    
    0.1666700690984726    0.5555600523948669    0.0000000000000000   F      F      F    
    0.4166696071624756    0.5555600523948669    0.0000000000000000   F      F      F    
    0.6666701436042786    0.5555600523948669    0.0000000000000000   F      F      F    
    0.9166695475578308    0.5555600523948669    0.0000000000000000   F      F      F    
    0.1666696369647980    0.7222195863723755    0.0000000000000000   F      F      F    
    0.4166691303253174    0.7222195863723755    0.0000000000000000   F      F      F    
    0.6666696667671204    0.7222195863723755    0.0000000000000000   F      F      F    
    0.9166701436042786    0.7222195863723755    0.0000000000000000   F      F      F    
    0.1666703224182129    0.8888900279998779    0.0000000000000000   F      F      F    
    0.4166697859764099    0.8888900279998779    0.0000000000000000   F      F      F    
    0.6666703820228577    0.8888900279998779    0.0000000000000000   F      F      F    
    0.9166698455810547    0.8888900279998779    0.0000000000000000   F      F      F    
    0.0000000000000000    0.0000000000000000    0.0878698304295540   F      F      F    
    0.2500005066394806    0.0000000000000000    0.0878698304295540   F      F      F    
    0.5000000000000000    0.0000000000000000    0.0878698304295540   F      F      F    
    0.7500004768371582    0.0000000000000000    0.0878698304295540   F      F      F    
    0.0000000000000000    0.1666696518659592    0.0878698304295540   F      F      F    
    0.2499995529651642    0.1666696518659592    0.0878698304295540   F      F      F    
    0.5000000596046448    0.1666696518659592    0.0878698304295540   F      F      F    
    0.7499995231628418    0.1666696518659592    0.0878698304295540   F      F      F    
    0.0000000000000000    0.3333299756050110    0.0878698304295540   F      F      F    
    0.2499996572732925    0.3333299756050110    0.0878698304295540   F      F      F    
    0.5000001788139343    0.3333299756050110    0.0878698304295540   F      F      F    
    0.7499997019767761    0.3333299756050110    0.0878698304295540   F      F      F    
    0.0000000000000000    0.4999995827674866    0.0878698304295540   F      F      F    
    0.2499997019767761    0.4999995827674866    0.0878698304295540   F      F      F    
    0.4999991655349731    0.4999995827674866    0.0878698304295540   F      F      F    
    0.7499997019767761    0.4999995827674866    0.0878698304295540   F      F      F    
    0.0000000000000000    0.6666700243949890    0.0878698304295540   F      F      F    
    0.2500003576278687    0.6666700243949890    0.0878698304295540   F      F      F    
    0.4999998211860657    0.6666700243949890    0.0878698304295540   F      F      F    
    0.7500003576278687    0.6666700243949890    0.0878698304295540   F      F      F    
    0.0000000000000000    0.8333296179771423    0.0878698304295540   F      F      F    
    0.2499998211860657    0.8333296179771423    0.0878698304295540   F      F      F    
    0.4999993741512299    0.8333296179771423    0.0878698304295540   F      F      F    
    0.7499998807907104    0.8333296179771423    0.0878698304295540   F      F      F    
    0.0833302065730095    0.1111099869012833    0.1757301539182663   F      F      F    
    0.3333297073841095    0.1111099869012833    0.1757301539182663   F      F      F    
    0.5833302736282349    0.1111099869012833    0.1757301539182663   F      F      F    
    0.8333296775817871    0.1111099869012833    0.1757301539182663   F      F      F    
    0.0833292305469513    0.2777796387672424    0.1757301539182663   F      F      F    
    0.3333297371864319    0.2777796387672424    0.1757301539182663   F      F      F    
    0.5833292603492737    0.2777796387672424    0.1757301539182663   F      F      F    
    0.8333297967910767    0.2777796387672424    0.1757301539182663   F      F      F    
    0.0833303332328796    0.4444399476051331    0.1757301539182663   F      F      F    
    0.3333298563957214    0.4444399476051331    0.1757301539182663   F      F      F    
    0.5833303928375244    0.4444399476051331    0.1757301539182663   F      F      F    
    0.8333299160003662    0.4444399476051331    0.1757301539182663   F      F      F    
    0.0833294093608856    0.6111096143722534    0.1757301539182663   F      F      F    
    0.3333299160003662    0.6111096143722534    0.1757301539182663   F      F      F    
    0.5833294391632080    0.6111096143722534    0.1757301539182663   F      F      F    
    0.8333299756050110    0.6111096143722534    0.1757301539182663   F      F      F    
    0.0833300948143005    0.7777799963951111    0.1757301539182663   F      F      F    
    0.3333295583724976    0.7777799963951111    0.1757301539182663   F      F      F    
    0.5833300948143005    0.7777799963951111    0.1757301539182663   F      F      F    
    0.8333296179771423    0.7777799963951111    0.1757301539182663   F      F      F    
    0.0833300948143005    0.9444403648376465    0.1757301539182663   F      F      F    
    0.3333295881748199    0.9444403648376465    0.1757301539182663   F      F      F    
    0.5833301544189453    0.9444403648376465    0.1757301539182663   F      F      F    
    0.8333296775817871    0.9444403648376465    0.1757301539182663   F      F      F    
    0.1660349667072296    0.0550783351063728    0.2645471692085266   T      T      T    
    0.4159922301769257    0.0550062209367752    0.2645576596260071   T      T      T    
    0.6660336852073669    0.0550781860947609    0.2645469307899475   T      T      T    
    0.9159894585609436    0.0550088733434677    0.2645587325096130   T      T      T    
    0.1659770756959915    0.2217468768358231    0.2644936740398407   T      T      T    
    0.4160626530647278    0.2216986715793610    0.2645602226257324   T      T      T    
    0.6659772396087646    0.2217478752136230    0.2644945383071899   T      T      T    
    0.9160628914833069    0.2217003852128983    0.2645599544048309   T      T      T    
    0.1659859120845795    0.3883187472820282    0.2644348740577698   T      T      T    
    0.4158752858638763    0.3883771896362305    0.2645602822303772   T      T      T    
    0.6659862995147705    0.3883184492588043    0.2644349634647369   T      T      T    
    0.9158748388290405    0.3883773684501648    0.2645599544048309   T      T      T    
    0.1660337746143341    0.5550754666328430    0.2645477056503296   T      T      T    
    0.4159898757934570    0.5550072789192200    0.2645582854747772   T      T      T    
    0.6660338640213013    0.5550780892372131    0.2645472288131714   T      T      T    
    0.9159871339797974    0.5550062060356140    0.2645542621612549   T      T      T    
    0.1659786105155945    0.7217475175857544    0.2644951343536377   T      T      T    
    0.4160615205764771    0.7216974496841431    0.2645598948001862   T      T      T    
    0.6659876108169556    0.7217496037483215    0.2644963562488556   T      T      T    
    0.9160626530647278    0.7216985225677490    0.2645611763000488   T      T      T    
    0.1659846305847168    0.8883178830146790    0.2644371390342712   T      T      T    
    0.4158757030963898    0.8883757591247559    0.2645584046840668   T      T      T    
    0.6659837961196899    0.8883180618286133    0.2644356787204742   T      T      T    
    0.9158783555030823    0.8883774876594543    0.2645579576492310   T      T      T    
    0.9994127154350281    0.9994817376136780    0.3496398925781250   T      T      T    
    0.2493798732757568    0.9995565414428711    0.3496458232402802   T      T      T    
    0.4994143247604370    0.9994820356369019    0.3496412038803101   T      T      T    
    0.7493792176246643    0.9995553493499756    0.3496445119380951   T      T      T    
    0.9994338750839233    0.1661623269319534    0.3496560454368591   T      T      T    
    0.2494793534278870    0.1663328856229782    0.3496320545673370   T      T      T    
    0.4994335770606995    0.1661621183156967    0.3496575355529785   T      T      T    
    0.7494814991950989    0.1663331836462021    0.3496321737766266   T      T      T    
    0.9994129538536072    0.3329002261161804    0.3496358096599579   T      T      T    
    0.2493449896574020    0.3329683244228363    0.3496346473693848   T      T      T    
    0.4994065761566162    0.3328948020935059    0.3496381044387817   T      T      T    
    0.7493364214897156    0.3329595029354095    0.3496332466602325   T      T      T    
    0.9994176626205444    0.4994808137416840    0.3496395945549011   T      T      T    
    0.2493855953216553    0.4995537698268890    0.3496448397636414   T      T      T    
    0.4994236826896667    0.4994817078113556    0.3496430516242981   T      T      T    
    0.7493802309036255    0.4995545148849487    0.3496441841125488   T      T      T    
    0.9994338750839233    0.6661593914031982    0.3496569991111755   T      T      T    
    0.2494797706604004    0.6663284301757813    0.3496313989162445   T      T      T    
    0.4994364380836487    0.6661606431007385    0.3496555089950562   T      T      T    
    0.7494824528694153    0.6663322448730469    0.3496332168579102   T      T      T    
    0.9994089007377625    0.8328963518142700    0.3496394753456116   T      T      T    
    0.2493360340595245    0.8329587578773499    0.3496342301368713   T      T      T    
    0.4994063675403595    0.8328931927680969    0.3496384918689728   T      T      T    
    0.7493402957916260    0.8329644203186035    0.3496348559856415   T      T      T    
    0.4231056571006775    0.4232417345046997    0.4230966567993164   T      T      T    
    0.6028764247894287    0.4932542443275452    0.4233645796775818   T      T      T    
    0.5066884756088257    0.4940958023071289    0.4157233536243439   T      T      T    
