   Co     H     O                       
   1.00000000000000     
     9.9561004638671875    0.0000000000000000    0.0000000000000000
    -7.4670500755310059   12.9333095550537109    0.0000000000000000
     0.0000000000000000    0.0000000000000000   23.1291007995605469
   Co   H    O 
   120     2     1
Selective dynamics
Direct
  0.1666693389415741  0.0555596239864826  0.0000000000000000   F   F   F
  0.4166698753833772  0.0555596239864826  0.0000000000000000   F   F   F
  0.6666693091392517  0.0555596239864826  0.0000000000000000   F   F   F
  0.9166698455810547  0.0555596239864826  0.0000000000000000   F   F   F
  0.1666704565286636  0.2222199738025665  0.0000000000000000   F   F   F
  0.4166699647903442  0.2222199738025665  0.0000000000000000   F   F   F
  0.6666705012321472  0.2222199738025665  0.0000000000000000   F   F   F
  0.9166700243949890  0.2222199738025665  0.0000000000000000   F   F   F
  0.1666694879531860  0.3888895809650421  0.0000000000000000   F   F   F
  0.4166699945926666  0.3888895809650421  0.0000000000000000   F   F   F
  0.6666694879531860  0.3888895809650421  0.0000000000000000   F   F   F
  0.9166700839996338  0.3888895809650421  0.0000000000000000   F   F   F
  0.1666700690984726  0.5555600523948669  0.0000000000000000   F   F   F
  0.4166696071624756  0.5555600523948669  0.0000000000000000   F   F   F
  0.6666701436042786  0.5555600523948669  0.0000000000000000   F   F   F
  0.9166695475578310  0.5555600523948669  0.0000000000000000   F   F   F
  0.1666696369647979  0.7222195863723755  0.0000000000000000   F   F   F
  0.4166691303253174  0.7222195863723755  0.0000000000000000   F   F   F
  0.6666696667671204  0.7222195863723755  0.0000000000000000   F   F   F
  0.9166701436042786  0.7222195863723755  0.0000000000000000   F   F   F
  0.1666703224182128  0.8888900279998779  0.0000000000000000   F   F   F
  0.4166697859764099  0.8888900279998779  0.0000000000000000   F   F   F
  0.6666703820228577  0.8888900279998779  0.0000000000000000   F   F   F
  0.9166698455810547  0.8888900279998779  0.0000000000000000   F   F   F
  0.0000000000000000  0.0000000000000000  0.0878698304295540   F   F   F
  0.2500005066394806  0.0000000000000000  0.0878698304295540   F   F   F
  0.5000000000000000  0.0000000000000000  0.0878698304295540   F   F   F
  0.7500004768371584  0.0000000000000000  0.0878698304295540   F   F   F
 -0.0000000000000000  0.1666696518659592  0.0878698304295540   F   F   F
  0.2499995529651642  0.1666696518659592  0.0878698304295540   F   F   F
  0.5000000596046448  0.1666696518659592  0.0878698304295540   F   F   F
  0.7499995231628420  0.1666696518659592  0.0878698304295540   F   F   F
 -0.0000000000000001  0.3333299756050110  0.0878698304295540   F   F   F
  0.2499996572732925  0.3333299756050110  0.0878698304295540   F   F   F
  0.5000001788139343  0.3333299756050110  0.0878698304295540   F   F   F
  0.7499997019767761  0.3333299756050110  0.0878698304295540   F   F   F
 -0.0000000000000001  0.4999995827674866  0.0878698304295540   F   F   F
  0.2499997019767761  0.4999995827674866  0.0878698304295540   F   F   F
  0.4999991655349731  0.4999995827674866  0.0878698304295540   F   F   F
  0.7499997019767761  0.4999995827674866  0.0878698304295540   F   F   F
  0.0000000000000000  0.6666700243949890  0.0878698304295540   F   F   F
  0.2500003576278687  0.6666700243949890  0.0878698304295540   F   F   F
  0.4999998211860657  0.6666700243949890  0.0878698304295540   F   F   F
  0.7500003576278687  0.6666700243949890  0.0878698304295540   F   F   F
 -0.0000000000000002  0.8333296179771423  0.0878698304295540   F   F   F
  0.2499998211860612  0.8333296179771423  0.0878698304295540   F   F   F
  0.4999993741512299  0.8333296179771423  0.0878698304295540   F   F   F
  0.7499998807907104  0.8333296179771423  0.0878698304295540   F   F   F
  0.0833302065730095  0.1111099869012833  0.1757301539182663   F   F   F
  0.3333297073841095  0.1111099869012833  0.1757301539182663   F   F   F
  0.5833302736282349  0.1111099869012833  0.1757301539182663   F   F   F
  0.8333296775817871  0.1111099869012833  0.1757301539182663   F   F   F
  0.0833292305469513  0.2777796387672424  0.1757301539182663   F   F   F
  0.3333297371864319  0.2777796387672424  0.1757301539182663   F   F   F
  0.5833292603492737  0.2777796387672424  0.1757301539182663   F   F   F
  0.8333297967910769  0.2777796387672424  0.1757301539182663   F   F   F
  0.0833303332328796  0.4444399476051331  0.1757301539182663   F   F   F
  0.3333298563957214  0.4444399476051331  0.1757301539182663   F   F   F
  0.5833303928375244  0.4444399476051331  0.1757301539182663   F   F   F
  0.8333299160003662  0.4444399476051331  0.1757301539182663   F   F   F
  0.0833294093608855  0.6111096143722534  0.1757301539182663   F   F   F
  0.3333299160003662  0.6111096143722534  0.1757301539182663   F   F   F
  0.5833294391632080  0.6111096143722534  0.1757301539182663   F   F   F
  0.8333299756050110  0.6111096143722534  0.1757301539182663   F   F   F
  0.0833300948143005  0.7777799963951111  0.1757301539182663   F   F   F
  0.3333295583724976  0.7777799963951111  0.1757301539182663   F   F   F
  0.5833300948143005  0.7777799963951111  0.1757301539182663   F   F   F
  0.8333296179771423  0.7777799963951111  0.1757301539182663   F   F   F
  0.0833300948143004  0.9444403648376465  0.1757301539182663   F   F   F
  0.3333295881748199  0.9444403648376465  0.1757301539182663   F   F   F
  0.5833301544189453  0.9444403648376465  0.1757301539182663   F   F   F
  0.8333296775817871  0.9444403648376465  0.1757301539182663   F   F   F
  0.1658582042626137  0.0547293589509177  0.2645483068770416   T   T   T
  0.4158462372378027  0.0546972878933685  0.2645417566410508   T   T   T
  0.6658542584716826  0.0547523281814388  0.2645560531884024   T   T   T
  0.9159557673055683  0.0546381652253584  0.2646282745403863   T   T   T
  0.1655004088454575  0.2212577440361279  0.2643125524553696   T   T   T
  0.4158561309015029  0.2213937434721922  0.2644211288099581   T   T   T
  0.6656957114371931  0.2213518438103863  0.2644407808930908   T   T   T
  0.9157905179543333  0.2213510309495188  0.2645317845033248   T   T   T
  0.1657078878292501  0.3880947586900438  0.2640962406981144   T   T   T
  0.4166067470512268  0.3893214701995601  0.2654235397568865   T   T   T
  0.6657972248170513  0.3880226242978413  0.2639779368214002   T   T   T
  0.9155033532093908  0.3880271666744226  0.2645373154527716   T   T   T
  0.1657332875093916  0.5548723190191357  0.2644531392561614   T   T   T
  0.4164667226603493  0.5541667188190318  0.2655299963084637   T   T   T
  0.6633149940873233  0.5541403950936181  0.2653851658255440   T   T   T
  0.9156866746957655  0.5549273976432620  0.2643093606003429   T   T   T
  0.1658020146938243  0.7215982749396043  0.2645407030757488   T   T   T
  0.4156542818941736  0.7213623086521006  0.2645214064958418   T   T   T
  0.6655508822933378  0.7214277278874923  0.2641995678603176   T   T   T
  0.9157542877083774  0.7213788883998863  0.2644267583516518   T   T   T
  0.1658093242259904  0.8879427038225733  0.2643741714699034   T   T   T
  0.4156534851162489  0.8879900094783960  0.2645778622314282   T   T   T
  0.6657495017774742  0.8880469580257692  0.2644168528458392   T   T   T
  0.9159087234339871  0.8881401148524751  0.2645598442214752   T   T   T
  0.9994266723797385  0.9990286676118086  0.3497740379091110   T   T   T
  0.2495563744434627  0.9993049841758709  0.3496824678173017   T   T   T
  0.4992999767095959  0.9992121105848747  0.3496510051251822   T   T   T
  0.7492592131553929  0.9991705115318845  0.3496949450861592   T   T   T
  0.9988553469993244  0.1653473981253165  0.3497403675085068   T   T   T
  0.2491882505703976  0.1659838535339867  0.3496092024363471   T   T   T
  0.4991220887617459  0.1654933819059504  0.3497565894014395   T   T   T
  0.7491566659563642  0.1658436944886891  0.3498168063528982   T   T   T
  0.9986724582417834  0.3324165355640515  0.3495923563089348   T   T   T
  0.2465028675696010  0.3309730189516468  0.3488224199055084   T   T   T
  0.4992598253485155  0.3312808694654018  0.3490306036963157   T   T   T
  0.7490170939767623  0.3324933544454033  0.3496140601619013   T   T   T
  0.9986002762966786  0.4991798465348611  0.3495322189307107   T   T   T
  0.2465680600631010  0.4987173279346994  0.3492091445718135   T   T   T
  0.4989968885194761  0.4992885149564549  0.3547462021817375   T   T   T
  0.7507950338089635  0.4989384931766051  0.3488524539768968   T   T   T
  0.9989702147755548  0.6656204424043799  0.3496736081066119   T   T   T
  0.2486848441916432  0.6658256645262196  0.3496316983477591   T   T   T
  0.4992779430275006  0.6673443025711809  0.3493309965477285   T   T   T
  0.7513192471368718  0.6672652680135794  0.3490261028599875   T   T   T
  0.9997082588749070  0.8327528500200319  0.3496989067623140   T   T   T
  0.2493053796643058  0.8327379702473416  0.3497721209710513   T   T   T
  0.4991212292888277  0.8329425255504074  0.3496982702486544   T   T   T
  0.7494629947392035  0.8329267936639884  0.3494132107584596   T   T   T
  0.4204935110982616  0.4278321200224020  0.4614922875155080   T   T   T
  0.5979099242124208  0.5074398035835056  0.4621329391107140   T   T   T
  0.4973913786604740  0.4985915100246944  0.4505541253486992   T   T   T
