 Co   H   O
   1.0 
   9.95610046   0.00000000   0.00000000 
  -7.46705008  12.93330956   0.00000000 
   0.00000000   0.00000000  23.12910080 
 120 2 1 
Selective dynamics
Direct
  0.166669338941574  0.055559623986483  0.000000000000000   F   F   F 
  0.416669875383377  0.055559623986483  0.000000000000000   F   F   F 
  0.666669309139252  0.055559623986483  0.000000000000000   F   F   F 
  0.916669845581055  0.055559623986483  0.000000000000000   F   F   F 
  0.166670456528664  0.222219973802567  0.000000000000000   F   F   F 
  0.416669964790344  0.222219973802567  0.000000000000000   F   F   F 
  0.666670501232147  0.222219973802567  0.000000000000000   F   F   F 
  0.916670024394989  0.222219973802567  0.000000000000000   F   F   F 
  0.166669487953186  0.388889580965042  0.000000000000000   F   F   F 
  0.416669994592667  0.388889580965042  0.000000000000000   F   F   F 
  0.666669487953186  0.388889580965042  0.000000000000000   F   F   F 
  0.916670083999634  0.388889580965042  0.000000000000000   F   F   F 
  0.166670069098473  0.555560052394867  0.000000000000000   F   F   F 
  0.416669607162476  0.555560052394867  0.000000000000000   F   F   F 
  0.666670143604279  0.555560052394867  0.000000000000000   F   F   F 
  0.916669547557831  0.555560052394867  0.000000000000000   F   F   F 
  0.166669636964798  0.722219586372375  0.000000000000000   F   F   F 
  0.416669130325317  0.722219586372375  0.000000000000000   F   F   F 
  0.666669666767120  0.722219586372375  0.000000000000000   F   F   F 
  0.916670143604279  0.722219586372375  0.000000000000000   F   F   F 
  0.166670322418213  0.888890027999878  0.000000000000000   F   F   F 
  0.416669785976410  0.888890027999878  0.000000000000000   F   F   F 
  0.666670382022858  0.888890027999878  0.000000000000000   F   F   F 
  0.916669845581055  0.888890027999878  0.000000000000000   F   F   F 
  0.000000000000000  0.000000000000000  0.087869830429554   F   F   F 
  0.250000506639481  0.000000000000000  0.087869830429554   F   F   F 
  0.500000000000000  0.000000000000000  0.087869830429554   F   F   F 
  0.750000476837158  0.000000000000000  0.087869830429554   F   F   F 
 -0.000000000000000  0.166669651865959  0.087869830429554   F   F   F 
  0.249999552965164  0.166669651865959  0.087869830429554   F   F   F 
  0.500000059604645  0.166669651865959  0.087869830429554   F   F   F 
  0.749999523162842  0.166669651865959  0.087869830429554   F   F   F 
 -0.000000000000000  0.333329975605011  0.087869830429554   F   F   F 
  0.249999657273293  0.333329975605011  0.087869830429554   F   F   F 
  0.500000178813934  0.333329975605011  0.087869830429554   F   F   F 
  0.749999701976776  0.333329975605011  0.087869830429554   F   F   F 
 -0.000000000000000  0.499999582767487  0.087869830429554   F   F   F 
  0.249999701976776  0.499999582767487  0.087869830429554   F   F   F 
  0.499999165534973  0.499999582767487  0.087869830429554   F   F   F 
  0.749999701976776  0.499999582767487  0.087869830429554   F   F   F 
  0.000000000000000  0.666670024394989  0.087869830429554   F   F   F 
  0.250000357627869  0.666670024394989  0.087869830429554   F   F   F 
  0.499999821186066  0.666670024394989  0.087869830429554   F   F   F 
  0.750000357627869  0.666670024394989  0.087869830429554   F   F   F 
 -0.000000000000000  0.833329617977142  0.087869830429554   F   F   F 
  0.249999821186061  0.833329617977142  0.087869830429554   F   F   F 
  0.499999374151230  0.833329617977142  0.087869830429554   F   F   F 
  0.749999880790710  0.833329617977142  0.087869830429554   F   F   F 
  0.083330206573010  0.111109986901283  0.175730153918266   F   F   F 
  0.333329707384109  0.111109986901283  0.175730153918266   F   F   F 
  0.583330273628235  0.111109986901283  0.175730153918266   F   F   F 
  0.833329677581787  0.111109986901283  0.175730153918266   F   F   F 
  0.083329230546951  0.277779638767242  0.175730153918266   F   F   F 
  0.333329737186432  0.277779638767242  0.175730153918266   F   F   F 
  0.583329260349274  0.277779638767242  0.175730153918266   F   F   F 
  0.833329796791077  0.277779638767242  0.175730153918266   F   F   F 
  0.083330333232880  0.444439947605133  0.175730153918266   F   F   F 
  0.333329856395721  0.444439947605133  0.175730153918266   F   F   F 
  0.583330392837524  0.444439947605133  0.175730153918266   F   F   F 
  0.833329916000366  0.444439947605133  0.175730153918266   F   F   F 
  0.083329409360885  0.611109614372253  0.175730153918266   F   F   F 
  0.333329916000366  0.611109614372253  0.175730153918266   F   F   F 
  0.583329439163208  0.611109614372253  0.175730153918266   F   F   F 
  0.833329975605011  0.611109614372253  0.175730153918266   F   F   F 
  0.083330094814300  0.777779996395111  0.175730153918266   F   F   F 
  0.333329558372498  0.777779996395111  0.175730153918266   F   F   F 
  0.583330094814301  0.777779996395111  0.175730153918266   F   F   F 
  0.833329617977142  0.777779996395111  0.175730153918266   F   F   F 
  0.083330094814300  0.944440364837646  0.175730153918266   F   F   F 
  0.333329588174820  0.944440364837646  0.175730153918266   F   F   F 
  0.583330154418945  0.944440364837646  0.175730153918266   F   F   F 
  0.833329677581787  0.944440364837646  0.175730153918266   F   F   F 
  0.165858204262614  0.054729358950918  0.264548306877042   F   F   F 
  0.415846237237803  0.054697287893369  0.264541756641051   F   F   F 
  0.665854258471683  0.054752328181439  0.264556053188402   F   F   F 
  0.915955767305568  0.054638165225358  0.264628274540386   F   F   F 
  0.165500408845457  0.221257744036128  0.264312552455370   F   F   F 
  0.415856130901503  0.221393743472192  0.264421128809958   F   F   F 
  0.665695711437193  0.221351843810386  0.264440780893091   F   F   F 
  0.915790517954333  0.221351030949519  0.264531784503325   F   F   F 
  0.165707887829250  0.388094758690044  0.264096240698114   F   F   F 
  0.416606747051227  0.389321470199560  0.265423539756886   F   F   F 
  0.665797224817051  0.388022624297841  0.263977936821400   F   F   F 
  0.915503353209391  0.388027166674423  0.264537315452772   F   F   F 
  0.165733287509392  0.554872319019136  0.264453139256161   F   F   F 
  0.416466722660349  0.554166718819032  0.265529996308464   F   F   F 
  0.663314994087323  0.554140395093618  0.265385165825544   F   F   F 
  0.915686674695765  0.554927397643262  0.264309360600343   F   F   F 
  0.165802014693824  0.721598274939604  0.264540703075749   F   F   F 
  0.415654281894174  0.721362308652101  0.264521406495842   F   F   F 
  0.665550882293338  0.721427727887492  0.264199567860318   F   F   F 
  0.915754287708377  0.721378888399886  0.264426758351652   F   F   F 
  0.165809324225990  0.887942703822573  0.264374171469903   F   F   F 
  0.415653485116249  0.887990009478396  0.264577862231428   F   F   F 
  0.665749501777474  0.888046958025769  0.264416852845839   F   F   F 
  0.915908723433987  0.888140114852475  0.264559844221475   F   F   F 
  0.999426672379738  0.999028667611809  0.349774037909111   F   F   F 
  0.249556374443463  0.999304984175871  0.349682467817302   F   F   F 
  0.499299976709596  0.999212110584875  0.349651005125182   F   F   F 
  0.749259213155393  0.999170511531885  0.349694945086159   F   F   F 
  0.998855346999324  0.165347398125317  0.349740367508507   F   F   F 
  0.249188250570398  0.165983853533987  0.349609202436347   F   F   F 
  0.499122088761746  0.165493381905950  0.349756589401439   F   F   F 
  0.749156665956364  0.165843694488689  0.349816806352898   F   F   F 
  0.998672458241783  0.332416535564051  0.349592356308935   F   F   F 
  0.246502867569601  0.330973018951647  0.348822419905508   F   F   F 
  0.499259825348515  0.331280869465402  0.349030603696316   F   F   F 
  0.749017093976762  0.332493354445403  0.349614060161901   F   F   F 
  0.998600276296679  0.499179846534861  0.349532218930711   F   F   F 
  0.246568060063101  0.498717327934699  0.349209144571814   F   F   F 
  0.498996888519476  0.499288514956455  0.354746202181738   F   F   F 
  0.750795033808964  0.498938493176605  0.348852453976897   F   F   F 
  0.998970214775555  0.665620442404380  0.349673608106612   F   F   F 
  0.248684844191643  0.665825664526220  0.349631698347759   F   F   F 
  0.499277943027501  0.667344302571181  0.349330996547728   F   F   F 
  0.751319247136872  0.667265268013579  0.349026102859987   F   F   F 
  0.999708258874907  0.832752850020032  0.349698906762314   F   F   F 
  0.249305379664306  0.832737970247342  0.349772120971051   F   F   F 
  0.499121229288828  0.832942525550407  0.349698270248654   F   F   F 
  0.749462994739204  0.832926793663988  0.349413210758460   F   F   F 
  0.420493511098262  0.427832120022402  0.461492287515508   T   T   T 
  0.597909924212421  0.507439803583506  0.462132939110714   T   T   T 
  0.497391378660474  0.498591510024694  0.450554125348699   T   T   T 
