       N       E                     dE             d eps       ncg     rms          rms(c)
DAV:   1    -0.820860190465E+03   -0.82086E+03   -0.11968E-02  4720   0.716E-01    0.140E+00
RMM:   2    -0.822234266638E+03   -0.13741E+01   -0.43735E-01  2897   0.120E+00    0.173E+01
RMM:   3    -0.820872485656E+03    0.13618E+01   -0.29522E-01  2898   0.108E+00    0.269E+00
RMM:   4    -0.820850203308E+03    0.22282E-01   -0.25946E-02  2897   0.271E-01    0.577E-01
RMM:   5    -0.820852584915E+03   -0.23816E-02   -0.72286E-03  2897   0.144E-01    0.876E-01
RMM:   6    -0.820850070097E+03    0.25148E-02   -0.22460E-03  2898   0.940E-02    0.313E-01
RMM:   7    -0.820849799987E+03    0.27011E-03   -0.54180E-04  2899   0.433E-02    0.117E-01
RMM:   8    -0.820849904803E+03   -0.10482E-03   -0.12497E-04  2897   0.205E-02    0.162E-01
RMM:   9    -0.820849824304E+03    0.80499E-04   -0.62249E-05  2894   0.158E-02    0.690E-02
RMM:  10    -0.820849854280E+03   -0.29976E-04   -0.23666E-05  2886   0.852E-03    0.772E-02
RMM:  11    -0.820849866556E+03   -0.12276E-04   -0.14308E-05  2861   0.700E-03    0.363E-02
RMM:  12    -0.820849869862E+03   -0.33059E-05   -0.63456E-06  2654   0.470E-03    0.226E-02
RMM:  13    -0.820849881998E+03   -0.12135E-04   -0.37267E-06  2074   0.357E-03    0.224E-02
RMM:  14    -0.820849882713E+03   -0.71572E-06   -0.24477E-06  1713   0.337E-03
   1 F= -.82084988E+03 E0= -.82077926E+03  d E =-.282501E+00  mag=   202.2385
       N       E                     dE             d eps       ncg     rms          rms(c)
DAV:   1    -0.820844985461E+03    0.48965E-02   -0.22813E+00  2880   0.108E+00    0.189E-01
RMM:   2    -0.820849164178E+03   -0.41787E-02   -0.44129E-02  2910   0.183E-01    0.185E-01
RMM:   3    -0.820849618353E+03   -0.45417E-03   -0.28039E-03  2916   0.683E-02    0.418E-01
RMM:   4    -0.820849176390E+03    0.44196E-03   -0.73651E-04  2918   0.458E-02    0.239E-01
RMM:   5    -0.820849057817E+03    0.11857E-03   -0.25153E-04  2927   0.276E-02    0.192E-01
RMM:   6    -0.820849437556E+03   -0.37974E-03   -0.61945E-04  2893   0.437E-02    0.377E-01
RMM:   7    -0.820848913761E+03    0.52380E-03   -0.49125E-04  2898   0.425E-02    0.111E-01
RMM:   8    -0.820848977952E+03   -0.64192E-04   -0.16244E-04  2893   0.230E-02    0.151E-01
RMM:   9    -0.820848929370E+03    0.48583E-04   -0.54978E-05  2894   0.146E-02    0.860E-02
RMM:  10    -0.820848903283E+03    0.26087E-04   -0.20715E-05  2882   0.911E-03    0.142E-02
RMM:  11    -0.820848907453E+03   -0.41699E-05   -0.63188E-06  2638   0.429E-03    0.316E-02
RMM:  12    -0.820848903760E+03    0.36927E-05   -0.37562E-06  2019   0.385E-03    0.117E-02
RMM:  13    -0.820848905522E+03   -0.17620E-05   -0.27761E-06  1760   0.312E-03    0.217E-02
RMM:  14    -0.820848904627E+03    0.89548E-06   -0.23382E-06  1608   0.310E-03
   2 F= -.82084890E+03 E0= -.82077825E+03  d E =-.282636E+00  mag=   202.2399
       N       E                     dE             d eps       ncg     rms          rms(c)
DAV:   1    -0.820832155706E+03    0.16750E-01   -0.91094E+00  2880   0.216E+00    0.373E-01
RMM:   2    -0.820849676595E+03   -0.17521E-01   -0.18503E-01  2906   0.365E-01    0.314E-01
RMM:   3    -0.820850713688E+03   -0.10371E-02   -0.10492E-02  2911   0.120E-01    0.709E-01
RMM:   4    -0.820849292798E+03    0.14209E-02   -0.29616E-03  2921   0.894E-02    0.366E-01
RMM:   5    -0.820850258691E+03   -0.96589E-03   -0.10693E-03  2921   0.556E-02    0.560E-01
RMM:   6    -0.820850800284E+03   -0.54159E-03   -0.19443E-03  2896   0.728E-02    0.726E-01
RMM:   7    -0.820848811350E+03    0.19889E-02   -0.14087E-03  2905   0.720E-02    0.240E-01
RMM:   8    -0.820849033554E+03   -0.22220E-03   -0.73766E-04  2898   0.485E-02    0.294E-01
RMM:   9    -0.820848752006E+03    0.28155E-03   -0.22519E-04  2898   0.311E-02    0.880E-02
RMM:  10    -0.820848733008E+03    0.18998E-04   -0.42734E-05  2887   0.124E-02    0.389E-02
RMM:  11    -0.820848738929E+03   -0.59210E-05   -0.21270E-05  2882   0.739E-03    0.609E-02
RMM:  12    -0.820848725156E+03    0.13773E-04   -0.12775E-05  2864   0.684E-03    0.242E-02
RMM:  13    -0.820848733437E+03   -0.82812E-05   -0.12099E-05  2865   0.607E-03    0.506E-02
RMM:  14    -0.820848725540E+03    0.78977E-05   -0.82060E-06  2729   0.524E-03    0.197E-02
RMM:  15    -0.820848725173E+03    0.36652E-06   -0.20356E-06  1620   0.279E-03
   3 F= -.82084873E+03 E0= -.82077813E+03  d E =-.282368E+00  mag=   202.2418
       N       E                     dE             d eps       ncg     rms          rms(c)
DAV:   1    -0.820840362969E+03    0.83626E-02   -0.45585E+00  2880   0.153E+00    0.271E-01
RMM:   2    -0.820849341624E+03   -0.89787E-02   -0.94570E-02  2912   0.259E-01    0.237E-01
RMM:   3    -0.820850181626E+03   -0.84000E-03   -0.58880E-03  2914   0.948E-02    0.581E-01
RMM:   4    -0.820849012237E+03    0.11694E-02   -0.15999E-03  2919   0.683E-02    0.214E-01
RMM:   5    -0.820849691311E+03   -0.67907E-03   -0.72595E-04  2914   0.472E-02    0.432E-01
RMM:   6    -0.820850442611E+03   -0.75130E-03   -0.93343E-04  2900   0.505E-02    0.566E-01
RMM:   7    -0.820848937725E+03    0.15049E-02   -0.71628E-04  2900   0.501E-02    0.178E-01
RMM:   8    -0.820849027893E+03   -0.90167E-04   -0.34596E-04  2902   0.333E-02    0.211E-01
RMM:   9    -0.820848917532E+03    0.11036E-03   -0.11259E-04  2896   0.211E-02    0.111E-01
RMM:  10    -0.820848872124E+03    0.45408E-04   -0.39447E-05  2888   0.126E-02    0.242E-02
RMM:  11    -0.820848879212E+03   -0.70876E-05   -0.13242E-05  2869   0.620E-03    0.475E-02
RMM:  12    -0.820848869561E+03    0.96504E-05   -0.89371E-06  2741   0.529E-03    0.164E-02
RMM:  13    -0.820848873068E+03   -0.35071E-05   -0.62705E-06  2634   0.447E-03    0.333E-02
RMM:  14    -0.820848870946E+03    0.21223E-05   -0.41556E-06  1982   0.380E-03    0.200E-02
RMM:  15    -0.820848869760E+03    0.11863E-05   -0.13265E-06  1536   0.239E-03    0.734E-03
RMM:  16    -0.820848870119E+03   -0.35921E-06   -0.53009E-07  1494   0.142E-03
   4 F= -.82084887E+03 E0= -.82077824E+03  d E =-.282525E+00  mag=   202.2416
       N       E                     dE             d eps       ncg     rms          rms(c)
DAV:   1    -0.820832403621E+03    0.16466E-01   -0.91288E+00  2880   0.216E+00    0.389E-01
RMM:   2    -0.820849168700E+03   -0.16765E-01   -0.17911E-01  2902   0.361E-01    0.318E-01
RMM:   3    -0.820851046553E+03   -0.18779E-02   -0.11245E-02  2909   0.130E-01    0.784E-01
RMM:   4    -0.820849143084E+03    0.19035E-02   -0.30824E-03  2923   0.928E-02    0.327E-01
RMM:   5    -0.820850399317E+03   -0.12562E-02   -0.12618E-03  2918   0.611E-02    0.593E-01
RMM:   6    -0.820851434261E+03   -0.10349E-02   -0.17318E-03  2902   0.687E-02    0.764E-01
RMM:   7    -0.820848854385E+03    0.25799E-02   -0.13261E-03  2903   0.690E-02    0.234E-01
RMM:   8    -0.820849208903E+03   -0.35452E-03   -0.86114E-04  2899   0.527E-02    0.338E-01
RMM:   9    -0.820848816629E+03    0.39227E-03   -0.28915E-04  2897   0.352E-02    0.948E-02
RMM:  10    -0.820848793503E+03    0.23126E-04   -0.45940E-05  2890   0.128E-02    0.374E-02
RMM:  11    -0.820848802431E+03   -0.89279E-05   -0.23252E-05  2883   0.794E-03    0.633E-02
RMM:  12    -0.820848786936E+03    0.15496E-04   -0.14502E-05  2862   0.716E-03    0.226E-02
RMM:  13    -0.820848795350E+03   -0.84142E-05   -0.11691E-05  2854   0.593E-03    0.502E-02
RMM:  14    -0.820848788904E+03    0.64459E-05   -0.80204E-06  2685   0.513E-03    0.204E-02
RMM:  15    -0.820848788284E+03    0.61996E-06   -0.18946E-06  1591   0.271E-03
   5 F= -.82084879E+03 E0= -.82077820E+03  d E =-.282368E+00  mag=   202.2420
       N       E                     dE             d eps       ncg     rms          rms(c)
DAV:   1    -0.820830984721E+03    0.17804E-01   -0.45248E+00  2880   0.145E+00    0.406E-01
RMM:   2    -0.820838594443E+03   -0.76097E-02   -0.10245E-01  2914   0.272E-01    0.413E-01
RMM:   3    -0.820846922527E+03   -0.83281E-02   -0.10109E-02  2904   0.137E-01    0.130E+00
RMM:   4    -0.820839466915E+03    0.74556E-02   -0.33059E-03  2910   0.994E-02    0.620E-01
RMM:   5    -0.820838007304E+03    0.14596E-02   -0.13974E-03  2904   0.690E-02    0.286E-01
RMM:   6    -0.820839309843E+03   -0.13025E-02   -0.18338E-03  2902   0.739E-02    0.640E-01
RMM:   7    -0.820837868393E+03    0.14415E-02   -0.13690E-03  2903   0.695E-02    0.223E-01
RMM:   8    -0.820838403213E+03   -0.53482E-03   -0.84818E-04  2902   0.526E-02    0.413E-01
RMM:   9    -0.820837887369E+03    0.51584E-03   -0.36992E-04  2898   0.380E-02    0.184E-01
RMM:  10    -0.820837781058E+03    0.10631E-03   -0.14111E-04  2895   0.227E-02    0.414E-02
RMM:  11    -0.820837810390E+03   -0.29332E-04   -0.33904E-05  2885   0.101E-02    0.713E-02
RMM:  12    -0.820837797559E+03    0.12830E-04   -0.17910E-05  2868   0.840E-03    0.184E-02
RMM:  13    -0.820837814169E+03   -0.16610E-04   -0.95574E-06  2810   0.535E-03    0.469E-02
RMM:  14    -0.820837821014E+03   -0.68446E-05   -0.71244E-06  2576   0.480E-03    0.229E-02
RMM:  15    -0.820837824596E+03   -0.35826E-05   -0.31702E-06  1880   0.337E-03    0.183E-02
RMM:  16    -0.820837834176E+03   -0.95797E-05   -0.17720E-06  1608   0.265E-03    0.126E-02
RMM:  17    -0.820837835868E+03   -0.16924E-05   -0.64641E-07  1539   0.176E-03    0.448E-03
RMM:  18    -0.820837841747E+03   -0.58786E-05   -0.29869E-07  1553   0.827E-04    0.495E-03
RMM:  19    -0.820837844610E+03   -0.28628E-05   -0.16384E-07  1531   0.788E-04    0.204E-03
RMM:  20    -0.820837852221E+03   -0.76117E-05   -0.25720E-07  1525   0.523E-04    0.311E-03
RMM:  21    -0.820837857298E+03   -0.50766E-05   -0.18851E-07  1514   0.585E-04    0.172E-03
RMM:  22    -0.820837864600E+03   -0.73022E-05   -0.32079E-07  1470   0.476E-04    0.257E-03
RMM:  23    -0.820837868240E+03   -0.36398E-05   -0.16646E-07  1422   0.490E-04    0.134E-03
RMM:  24    -0.820837872330E+03   -0.40900E-05   -0.20029E-07  1267   0.387E-04    0.164E-03
RMM:  25    -0.820837873986E+03   -0.16562E-05   -0.79256E-08  1175   0.357E-04    0.756E-04
RMM:  26    -0.820837876096E+03   -0.21101E-05   -0.90379E-08   890   0.300E-04    0.987E-04
RMM:  27    -0.820837876991E+03   -0.89515E-06   -0.35788E-08   723   0.273E-04
   6 F= -.82083788E+03 E0= -.82076725E+03  d E =-.282521E+00  mag=   202.2437
       N       E                     dE             d eps       ncg     rms          rms(c)
DAV:   1    -0.820829243616E+03    0.86325E-02   -0.89348E+00  2880   0.194E+00    0.711E-01
RMM:   2    -0.820841880702E+03   -0.12637E-01   -0.22122E-01  2935   0.350E-01    0.739E-01
RMM:   3    -0.820872454995E+03   -0.30574E-01   -0.25815E-02  2901   0.230E-01    0.244E+00
RMM:   4    -0.820843310772E+03    0.29144E-01   -0.95340E-03  2906   0.177E-01    0.103E+00
RMM:   5    -0.820839238796E+03    0.40720E-02   -0.39159E-03  2901   0.116E-01    0.449E-01
RMM:   6    -0.820842045001E+03   -0.28062E-02   -0.45954E-03  2905   0.110E-01    0.941E-01
RMM:   7    -0.820838973784E+03    0.30712E-02   -0.35159E-03  2904   0.110E-01    0.346E-01
RMM:   8    -0.820840407180E+03   -0.14334E-02   -0.23199E-03  2903   0.847E-02    0.693E-01
RMM:   9    -0.820838757898E+03    0.16493E-02   -0.11583E-03  2903   0.677E-02    0.208E-01
RMM:  10    -0.820838710476E+03    0.47421E-04   -0.32216E-04  2902   0.319E-02    0.140E-01
RMM:  11    -0.820838692498E+03    0.17979E-04   -0.10519E-04  2904   0.174E-02    0.105E-01
RMM:  12    -0.820838656775E+03    0.35722E-04   -0.54003E-05  2888   0.144E-02    0.357E-02
RMM:  13    -0.820838690739E+03   -0.33964E-04   -0.23576E-05  2888   0.814E-03    0.573E-02
RMM:  14    -0.820838689139E+03    0.16003E-05   -0.15564E-05  2876   0.762E-03    0.234E-02
RMM:  15    -0.820838713766E+03   -0.24627E-04   -0.79375E-06  2751   0.499E-03    0.372E-02
RMM:  16    -0.820838720908E+03   -0.71418E-05   -0.41703E-06  2295   0.419E-03    0.971E-03
RMM:  17    -0.820838729644E+03   -0.87365E-05   -0.10301E-06  1562   0.183E-03    0.118E-02
RMM:  18    -0.820838743398E+03   -0.13753E-04   -0.74505E-07  1590   0.170E-03    0.434E-03
RMM:  19    -0.820838748684E+03   -0.52864E-05   -0.21316E-07  1532   0.745E-04    0.485E-03
RMM:  20    -0.820838770641E+03   -0.21957E-04   -0.63495E-07  1629   0.883E-04    0.581E-03
RMM:  21    -0.820838782331E+03   -0.11690E-04   -0.39525E-07  1578   0.911E-04    0.326E-03
RMM:  22    -0.820838801156E+03   -0.18825E-04   -0.78843E-07  1655   0.793E-04    0.459E-03
RMM:  23    -0.820838809994E+03   -0.88376E-05   -0.40854E-07  1582   0.846E-04    0.215E-03
RMM:  24    -0.820838819977E+03   -0.99839E-05   -0.49993E-07  1578   0.579E-04    0.285E-03
RMM:  25    -0.820838823572E+03   -0.35943E-05   -0.17715E-07  1489   0.577E-04    0.141E-03
RMM:  26    -0.820838829235E+03   -0.56628E-05   -0.26989E-07  1305   0.408E-04    0.178E-03
RMM:  27    -0.820838831273E+03   -0.20383E-05   -0.92181E-08  1215   0.399E-04    0.931E-04
RMM:  28    -0.820838834424E+03   -0.31509E-05   -0.15949E-07  1080   0.340E-04    0.120E-03
RMM:  29    -0.820838835331E+03   -0.90706E-06   -0.42850E-08   847   0.302E-04
   7 F= -.82083884E+03 E0= -.82076825E+03  d E =-.282327E+00  mag=   202.2397
       N       E                     dE             d eps       ncg     rms          rms(c)
DAV:   1    -0.820847077880E+03   -0.82435E-02   -0.23452E+00  2880   0.963E-01    0.366E-01
RMM:   2    -0.820850281402E+03   -0.32035E-02   -0.55618E-02  2913   0.184E-01    0.358E-01
RMM:   3    -0.820858599045E+03   -0.83176E-02   -0.71083E-03  2905   0.119E-01    0.127E+00
RMM:   4    -0.820850805548E+03    0.77935E-02   -0.26048E-03  2903   0.913E-02    0.527E-01
RMM:   5    -0.820849809894E+03    0.99565E-03   -0.10359E-03  2901   0.599E-02    0.233E-01
RMM:   6    -0.820850739238E+03   -0.92934E-03   -0.12350E-03  2902   0.592E-02    0.513E-01
RMM:   7    -0.820849807330E+03    0.93191E-03   -0.94914E-04  2903   0.584E-02    0.178E-01
RMM:   8    -0.820850238832E+03   -0.43150E-03   -0.62860E-04  2906   0.446E-02    0.368E-01
RMM:   9    -0.820849784175E+03    0.45466E-03   -0.29931E-04  2901   0.348E-02    0.122E-01
RMM:  10    -0.820849757807E+03    0.26368E-04   -0.86812E-05  2893   0.170E-02    0.577E-02
RMM:  11    -0.820849770660E+03   -0.12853E-04   -0.23904E-05  2884   0.858E-03    0.549E-02
RMM:  12    -0.820849763570E+03    0.70901E-05   -0.12920E-05  2860   0.714E-03    0.156E-02
RMM:  13    -0.820849781498E+03   -0.17928E-04   -0.65745E-06  2577   0.425E-03    0.311E-02
RMM:  14    -0.820849785896E+03   -0.43977E-05   -0.44610E-06  2273   0.421E-03    0.124E-02
RMM:  15    -0.820849796477E+03   -0.10581E-04   -0.22343E-06  1668   0.270E-03    0.204E-02
RMM:  16    -0.820849801788E+03   -0.53116E-05   -0.13943E-06  1581   0.259E-03    0.708E-03
RMM:  17    -0.820849803612E+03   -0.18234E-05   -0.27914E-07  1535   0.956E-04    0.492E-03
RMM:  18    -0.820849810314E+03   -0.67025E-05   -0.30215E-07  1560   0.801E-04    0.446E-03
RMM:  19    -0.820849812937E+03   -0.26230E-05   -0.14230E-07  1532   0.694E-04    0.206E-03
RMM:  20    -0.820849822604E+03   -0.96668E-05   -0.43485E-07  1577   0.565E-04    0.317E-03
RMM:  21    -0.820849827446E+03   -0.48418E-05   -0.23999E-07  1545   0.624E-04    0.179E-03
RMM:  22    -0.820849834345E+03   -0.68996E-05   -0.40603E-07  1507   0.509E-04    0.229E-03
RMM:  23    -0.820849836503E+03   -0.21576E-05   -0.12780E-07  1424   0.468E-04    0.122E-03
RMM:  24    -0.820849839655E+03   -0.31520E-05   -0.16186E-07  1078   0.345E-04    0.127E-03
RMM:  25    -0.820849840618E+03   -0.96257E-06   -0.45047E-08   927   0.297E-04
   8 F= -.82084984E+03 E0= -.82077921E+03  d E =-.282522E+00  mag=   202.2401
       N       E                     dE             d eps       ncg     rms          rms(c)
DAV:   1    -0.820848561468E+03    0.12782E-02   -0.47247E-01  2928   0.312E-01    0.196E-01
RMM:   2    -0.820849290802E+03   -0.72933E-03   -0.49750E-03  2902   0.569E-02    0.135E-01
RMM:   3    -0.820850708338E+03   -0.14175E-02   -0.17010E-03  2899   0.701E-02    0.586E-01
RMM:   4    -0.820849566002E+03    0.11423E-02   -0.11849E-03  2899   0.657E-02    0.128E-01
RMM:   5    -0.820849686037E+03   -0.12004E-03   -0.18374E-04  2898   0.233E-02    0.175E-01
RMM:   6    -0.820849676414E+03    0.96237E-05   -0.97258E-05  2888   0.176E-02    0.164E-01
RMM:   7    -0.820849560586E+03    0.11583E-03   -0.65116E-05  2890   0.159E-02    0.513E-02
RMM:   8    -0.820849560949E+03   -0.36263E-06   -0.16891E-05  2880   0.721E-03    0.387E-02
RMM:   9    -0.820849573353E+03   -0.12404E-04   -0.82291E-06  2765   0.523E-03    0.372E-02
RMM:  10    -0.820849573087E+03    0.26551E-06   -0.42365E-06  2314   0.413E-03
   9 F= -.82084957E+03 E0= -.82077898E+03  d E =-.282353E+00  mag=   202.2420
       N       E                     dE             d eps       ncg     rms          rms(c)
DAV:   1    -0.820849116921E+03    0.45643E-03   -0.23627E-01  2928   0.221E-01    0.140E-01
RMM:   2    -0.820849621065E+03   -0.50414E-03   -0.29201E-03  2901   0.499E-02    0.169E-01
RMM:   3    -0.820849860165E+03   -0.23910E-03   -0.57821E-04  2897   0.416E-02    0.284E-01
RMM:   4    -0.820850063007E+03   -0.20284E-03   -0.46464E-04  2902   0.392E-02    0.325E-01
RMM:   5    -0.820849676520E+03    0.38649E-03   -0.29775E-04  2901   0.343E-02    0.767E-02
RMM:   6    -0.820849736502E+03   -0.59982E-04   -0.77324E-05  2896   0.153E-02    0.117E-01
RMM:   7    -0.820849728140E+03    0.83626E-05   -0.35891E-05  2876   0.110E-02    0.104E-01
RMM:   8    -0.820849678504E+03    0.49636E-04   -0.20079E-05  2872   0.883E-03    0.276E-02
RMM:   9    -0.820849679706E+03   -0.12014E-05   -0.75156E-06  2737   0.486E-03    0.230E-02
RMM:  10    -0.820849683168E+03   -0.34628E-05   -0.22501E-06  1700   0.298E-03    0.160E-02
RMM:  11    -0.820849683347E+03   -0.17806E-06   -0.11085E-06  1529   0.233E-03
  10 F= -.82084968E+03 E0= -.82077906E+03  d E =-.282485E+00  mag=   202.2422
       N       E                     dE             d eps       ncg     rms          rms(c)
DAV:   1    -0.820848719979E+03    0.96319E-03   -0.47261E-01  2944   0.311E-01    0.198E-01
RMM:   2    -0.820849529589E+03   -0.80961E-03   -0.50873E-03  2902   0.614E-02    0.184E-01
RMM:   3    -0.820850887804E+03   -0.13582E-02   -0.11647E-03  2899   0.596E-02    0.602E-01
RMM:   4    -0.820850186500E+03    0.70130E-03   -0.84575E-04  2900   0.548E-02    0.348E-01
RMM:   5    -0.820849825644E+03    0.36086E-03   -0.41613E-04  2894   0.391E-02    0.155E-01
RMM:   6    -0.820849804924E+03    0.20721E-04   -0.13955E-04  2894   0.201E-02    0.149E-01
RMM:   7    -0.820849745605E+03    0.59318E-04   -0.69387E-05  2887   0.159E-02    0.844E-02
RMM:   8    -0.820849722633E+03    0.22972E-04   -0.32802E-05  2882   0.113E-02    0.244E-02
RMM:   9    -0.820849739743E+03   -0.17110E-04   -0.11734E-05  2860   0.606E-03    0.496E-02
RMM:  10    -0.820849735300E+03    0.44430E-05   -0.60703E-06  2647   0.495E-03    0.162E-02
RMM:  11    -0.820849737552E+03   -0.22525E-05   -0.15482E-06  1570   0.235E-03    0.140E-02
RMM:  12    -0.820849745072E+03   -0.75196E-05   -0.14502E-06  1632   0.215E-03    0.121E-02
RMM:  13    -0.820849747041E+03   -0.19694E-05   -0.74107E-07  1552   0.182E-03    0.573E-03
RMM:  14    -0.820849751759E+03   -0.47173E-05   -0.57162E-07  1574   0.121E-03    0.863E-03
RMM:  15    -0.820849754826E+03   -0.30671E-05   -0.43874E-07  1564   0.125E-03    0.273E-03
RMM:  16    -0.820849757739E+03   -0.29137E-05   -0.25004E-07  1553   0.715E-04    0.451E-03
RMM:  17    -0.820849760648E+03   -0.29090E-05   -0.24797E-07  1563   0.779E-04    0.180E-03
RMM:  18    -0.820849762823E+03   -0.21751E-05   -0.14862E-07  1492   0.492E-04    0.282E-03
RMM:  19    -0.820849765091E+03   -0.22675E-05   -0.15348E-07  1496   0.508E-04    0.920E-04
RMM:  20    -0.820849766605E+03   -0.15141E-05   -0.83730E-08  1173   0.350E-04    0.174E-03
RMM:  21    -0.820849768079E+03   -0.14737E-05   -0.79807E-08  1137   0.330E-04    0.529E-04
RMM:  22    -0.820849768956E+03   -0.87719E-06   -0.32203E-08   637   0.253E-04
  11 F= -.82084977E+03 E0= -.82077916E+03  d E =-.282422E+00  mag=   202.2415
       N       E                     dE             d eps       ncg     rms          rms(c)
DAV:   1    -0.820841135385E+03    0.86327E-02   -0.25052E-01  2976   0.230E-01    0.250E-01
RMM:   2    -0.820841006269E+03    0.12912E-03   -0.72363E-03  2909   0.629E-02    0.241E-01
RMM:   3    -0.820844073363E+03   -0.30671E-02   -0.26230E-03  2900   0.846E-02    0.848E-01
RMM:   4    -0.820841987606E+03    0.20858E-02   -0.11740E-03  2900   0.651E-02    0.508E-01
RMM:   5    -0.820840805216E+03    0.11824E-02   -0.56159E-04  2897   0.441E-02    0.112E-01
RMM:   6    -0.820841376873E+03   -0.57166E-03   -0.56703E-04  2896   0.416E-02    0.369E-01
RMM:   7    -0.820840857509E+03    0.51936E-03   -0.30823E-04  2898   0.349E-02    0.113E-01
RMM:   8    -0.820840870887E+03   -0.13378E-04   -0.97130E-05  2893   0.179E-02    0.116E-01
RMM:   9    -0.820840849553E+03    0.21334E-04   -0.35730E-05  2882   0.116E-02    0.760E-02
RMM:  10    -0.820840829665E+03    0.19888E-04   -0.16429E-05  2875   0.803E-03    0.164E-02
RMM:  11    -0.820840837669E+03   -0.80040E-05   -0.78776E-06  2759   0.489E-03    0.351E-02
RMM:  12    -0.820840834920E+03    0.27488E-05   -0.38098E-06  2207   0.402E-03    0.802E-03
RMM:  13    -0.820840838106E+03   -0.31864E-05   -0.13282E-06  1562   0.214E-03    0.152E-02
RMM:  14    -0.820840840542E+03   -0.24358E-05   -0.95862E-07  1573   0.213E-03    0.747E-03
RMM:  15    -0.820840841449E+03   -0.90705E-06   -0.29683E-07  1514   0.107E-03
  12 F= -.82084084E+03 E0= -.82077026E+03  d E =-.282329E+00  mag=   202.2422
       N       E                     dE             d eps       ncg     rms          rms(c)
DAV:   1    -0.820841659566E+03   -0.81902E-03   -0.54621E-01  3056   0.352E-01    0.444E-01
RMM:   2    -0.820840674497E+03    0.98507E-03   -0.24605E-02  2911   0.115E-01    0.496E-01
RMM:   3    -0.820848641067E+03   -0.79666E-02   -0.83715E-03  2902   0.150E-01    0.141E+00
RMM:   4    -0.820844946180E+03    0.36949E-02   -0.37184E-03  2906   0.113E-01    0.106E+00
RMM:   5    -0.820839626686E+03    0.53195E-02   -0.20565E-03  2899   0.863E-02    0.219E-01
RMM:   6    -0.820841305068E+03   -0.16784E-02   -0.17964E-03  2897   0.742E-02    0.644E-01
RMM:   7    -0.820839874156E+03    0.14309E-02   -0.94943E-04  2899   0.603E-02    0.253E-01
RMM:   8    -0.820839859276E+03    0.14880E-04   -0.37394E-04  2898   0.358E-02    0.231E-01
RMM:   9    -0.820839796022E+03    0.63254E-04   -0.16020E-04  2890   0.243E-02    0.173E-01
RMM:  10    -0.820839691556E+03    0.10447E-03   -0.80768E-05  2886   0.180E-02    0.358E-02
RMM:  11    -0.820839714839E+03   -0.23283E-04   -0.29213E-05  2886   0.938E-03    0.630E-02
RMM:  12    -0.820839708211E+03    0.66281E-05   -0.12075E-05  2833   0.691E-03    0.161E-02
RMM:  13    -0.820839713527E+03   -0.53159E-05   -0.24293E-06  1737   0.289E-03    0.201E-02
RMM:  14    -0.820839723992E+03   -0.10465E-04   -0.20787E-06  1659   0.268E-03    0.162E-02
RMM:  15    -0.820839727526E+03   -0.35340E-05   -0.11076E-06  1572   0.222E-03    0.600E-03
RMM:  16    -0.820839739626E+03   -0.12099E-04   -0.11508E-06  1646   0.158E-03    0.109E-02
RMM:  17    -0.820839745003E+03   -0.53775E-05   -0.64165E-07  1574   0.158E-03    0.283E-03
RMM:  18    -0.820839751350E+03   -0.63472E-05   -0.39116E-07  1574   0.821E-04    0.491E-03
RMM:  19    -0.820839756495E+03   -0.51446E-05   -0.28636E-07  1567   0.851E-04    0.190E-03
RMM:  20    -0.820839761955E+03   -0.54602E-05   -0.26293E-07  1556   0.557E-04    0.329E-03
RMM:  21    -0.820839767865E+03   -0.59094E-05   -0.32594E-07  1566   0.633E-04    0.140E-03
RMM:  22    -0.820839772489E+03   -0.46246E-05   -0.27255E-07  1520   0.506E-04    0.253E-03
RMM:  23    -0.820839776343E+03   -0.38533E-05   -0.24134E-07  1506   0.527E-04    0.959E-04
RMM:  24    -0.820839778921E+03   -0.25786E-05   -0.14436E-07  1255   0.392E-04    0.168E-03
RMM:  25    -0.820839781131E+03   -0.22099E-05   -0.12609E-07  1261   0.390E-04    0.753E-04
RMM:  26    -0.820839782889E+03   -0.17577E-05   -0.93734E-08  1051   0.336E-04    0.117E-03
RMM:  27    -0.820839783906E+03   -0.10174E-05   -0.49639E-08   907   0.309E-04    0.470E-04
RMM:  28    -0.820839784829E+03   -0.92330E-06   -0.45534E-08   894   0.289E-04
  13 F= -.82083978E+03 E0= -.82076914E+03  d E =-.282564E+00  mag=   202.2410
