 Co   O   H
   1.0 
   9.95610046   0.00000000   0.00000000 
  -7.46705008  12.93330956   0.00000000 
   0.00000000   0.00000000  23.12910080 
 120 1 1 
Selective dynamics
Direct
  0.166669934988022  0.055559694766998  0.000000000000000   F   F   F 
  0.416670680046082  0.055559955537319  0.000000000000000   F   F   F 
  0.666669547557835  0.055559255182743  0.000000000000000   F   F   F 
  0.916670203208923  0.055559068918228  0.000000000000000   F   F   F 
  0.166671037673950  0.222220346331596  0.000000000000000   F   F   F 
  0.416670441627502  0.222220033407211  0.000000000000000   F   F   F 
  0.666670441627502  0.222219705581665  0.000000000000000   F   F   F 
  0.916670441627503  0.222219794988632  0.000000000000000   F   F   F 
  0.166669726371764  0.388889819383621  0.000000000000000   F   F   F 
  0.416670203208923  0.388889700174332  0.000000000000000   F   F   F 
  0.666669726371765  0.388889551162720  0.000000000000000   F   F   F 
  0.916669964790344  0.388889104127884  0.000000000000000   F   F   F 
  0.166669905185699  0.555560231208801  0.000000000000000   F   F   F 
  0.416669756174088  0.555560231208801  0.000000000000000   F   F   F 
  0.666670203208923  0.555560171604156  0.000000000000000   F   F   F 
  0.916669428348541  0.555559873580933  0.000000000000000   F   F   F 
  0.166669905185699  0.722219765186310  0.000000000000000   F   F   F 
  0.416669100522995  0.722219705581665  0.000000000000000   F   F   F 
  0.666669607162476  0.722219705581665  0.000000000000000   F   F   F 
  0.916669845581055  0.722219467163086  0.000000000000000   F   F   F 
  0.166669994592667  0.888890564441681  0.000000000000000   F   F   F 
  0.416670203208923  0.888890683650970  0.000000000000000   F   F   F 
  0.666670382022858  0.888890385627747  0.000000000000000   F   F   F 
  0.916670143604279  0.888890326023102  0.000000000000000   F   F   F 
  0.000000000000000  0.000000000000000  0.087870031595230   F   F   F 
  0.250000745058060  0.000000000000000  0.087869837880135   F   F   F 
  0.500000536441803  0.000000000000000  0.087869837880135   F   F   F 
  0.750000536441803  0.000000000000000  0.087869912385941   F   F   F 
  0.000000000000000  0.166669905185699  0.087869890034199   F   F   F 
  0.250000029802322  0.166669651865959  0.087869837880135   F   F   F 
  0.500000298023224  0.166669726371765  0.087869934737682   F   F   F 
  0.750000000000000  0.166669577360153  0.087869942188263   F   F   F 
 -0.000000000000000  0.333330094814300  0.087869964540005   F   F   F 
  0.249999940395355  0.333330094814300  0.087869867682457   F   F   F 
  0.500000536441803  0.333329945802689  0.087869800627232   F   F   F 
  0.749999880790710  0.333329826593399  0.087869934737682   F   F   F 
  0.000000000000000  0.500000119209290  0.087869770824909   F   F   F 
  0.249999642372131  0.499999731779099  0.087869882583618   F   F   F 
  0.499999225139618  0.499999672174454  0.087869837880135   F   F   F 
  0.749999880790710  0.499999523162842  0.087869755923748   F   F   F 
  0.000000000000000  0.666670322418213  0.087869808077812   F   F   F 
  0.250000625848768  0.666670143604279  0.087869934737682   F   F   F 
  0.499999672174454  0.666670322418213  0.087869718670845   F   F   F 
  0.750000417232513  0.666670203208923  0.087869815528393   F   F   F 
 -0.000000000000005  0.833330273628235  0.087869800627232   F   F   F 
  0.249999850988384  0.833330273628235  0.087869852781296   F   F   F 
  0.499999582767487  0.833330035209656  0.087869748473167   F   F   F 
  0.749999284744263  0.833329379558563  0.087869890034199   F   F   F 
  0.083330281078816  0.111109770834446  0.175730213522911   F   F   F 
  0.333329737186432  0.111109621822834  0.175730302929878   F   F   F 
  0.583330392837524  0.111109696328640  0.175730168819427   F   F   F 
  0.833329975605011  0.111109323799610  0.175730243325233   F   F   F 
  0.083329766988754  0.277779906988144  0.175730168819427   F   F   F 
  0.333329677581787  0.277779459953308  0.175730153918266   F   F   F 
  0.583329081535339  0.277779459953308  0.175730198621750   F   F   F 
  0.833329737186432  0.277779519557953  0.175730168819427   F   F   F 
  0.083330810070038  0.444440394639969  0.175730198621750   F   F   F 
  0.333329916000366  0.444440037012100  0.175730198621750   F   F   F 
  0.583330392837524  0.444439888000488  0.175730168819427   F   F   F 
  0.833330035209656  0.444439768791199  0.175730153918266   F   F   F 
  0.083329379558563  0.611109733581543  0.175730168819427   F   F   F 
  0.333330035209656  0.611109733581543  0.175730153918266   F   F   F 
  0.583329379558563  0.611109673976898  0.175730139017105   F   F   F 
  0.833329677581787  0.611109435558319  0.175730094313621   F   F   F 
  0.083329617977142  0.777780294418335  0.175730139017105   F   F   F 
  0.333329409360886  0.777780532836914  0.175730153918266   F   F   F 
  0.583330035209656  0.777780055999756  0.175730109214783   F   F   F 
  0.833329379558563  0.777779877185822  0.175730139017105   F   F   F 
  0.083329677581787  0.944440305233002  0.175730064511299   F   F   F 
  0.333329230546951  0.944440305233002  0.175730004906654   F   F   F 
  0.583330333232880  0.944440782070160  0.175730049610138   F   F   F 
  0.833329319953918  0.944440484046936  0.175730004906654   F   F   F 
  0.164974188898034  0.054351128280825  0.264312499681021   F   F   F 
  0.415357093693645  0.054599852151188  0.264247252908242   F   F   F 
  0.665513147925083  0.054754502653862  0.264367002455165   F   F   F 
  0.915093708390115  0.054472090602050  0.264478651650741   F   F   F 
  0.165455041295338  0.221182188558252  0.264225896778227   F   F   F 
  0.415887897847537  0.221826479044027  0.264546306603386   F   F   F 
  0.665176836798519  0.221430718226474  0.264170442245184   F   F   F 
  0.915589963432781  0.221475798616527  0.264561198737728   F   F   F 
  0.165573959358223  0.388157319933775  0.264192507413161   F   F   F 
  0.415809450583469  0.388201500986532  0.266116414522548   F   F   F 
  0.665058793678416  0.388384789174248  0.266029473484421   F   F   F 
  0.915488547884026  0.388396573577591  0.264293879213260   F   F   F 
  0.165569832111170  0.555121430321822  0.264350105682399   F   F   F 
  0.415328981882207  0.554665787748910  0.264461366069450   F   F   F 
  0.665164856509485  0.554687960198341  0.265905350580650   F   F   F 
  0.915644379746043  0.554862057779279  0.264410132545406   F   F   F 
  0.165860321628171  0.721757153046222  0.264372696558779   F   F   F 
  0.415425040172453  0.721516014053312  0.264478508915024   F   F   F 
  0.664906646151319  0.721183884501773  0.264146027053823   F   F   F 
  0.915831350533281  0.721271900926550  0.264197801339843   F   F   F 
  0.165782073867562  0.888044040545384  0.264442913635714   F   F   F 
  0.415462704857453  0.888033376294533  0.264402418123366   F   F   F 
  0.665547494197682  0.887995500049934  0.264189836595305   F   F   F 
  0.915244863344896  0.887817222504253  0.264415895440917   F   F   F 
  0.998500162667577  0.998946036409609  0.349593497320498   F   F   F 
  0.249443642865452  0.999678701482617  0.349401170652858   F   F   F 
  0.498917871787645  0.998818120733476  0.349562785872952   F   F   F 
  0.748018518948554  0.998677214762190  0.349447065452159   F   F   F 
  0.997896984810483  0.164849278665980  0.349584231615278   F   F   F 
  0.247995283799332  0.165092347787557  0.349415649002606   F   F   F 
  0.498766333018444  0.165077713454639  0.349470200539192   F   F   F 
  0.748714700246459  0.165041265510488  0.349498467461347   F   F   F 
  0.999053663810515  0.332676857234115  0.349500566761774   F   F   F 
  0.243602819947384  0.330389941217770  0.348923535821116   F   F   F 
  0.496150798920539  0.329279513438318  0.353235842072123   F   F   F 
  0.750902317025193  0.330509823737559  0.348807006561246   F   F   F 
  0.998883703726036  0.498767429084572  0.349541162496443   F   F   F 
  0.247961359299850  0.498666769833352  0.349443083949468   F   F   F 
  0.497216977274391  0.500854925417417  0.353008091266886   F   F   F 
  0.753824001780880  0.501300254790975  0.352920789531266   F   F   F 
  0.999689608514824  0.666799280425024  0.349448748774720   F   F   F 
  0.248250763527416  0.665311967885154  0.349418037185044   F   F   F 
  0.498869787117613  0.666439220480583  0.349409779609156   F   F   F 
  0.751825752085701  0.669887290637124  0.348834757921642   F   F   F 
  1.000127450363950  0.833492725085140  0.349485667949123   F   F   F 
  0.249116845976994  0.832846463529104  0.349613809663363   F   F   F 
  0.498952105705155  0.832664307342574  0.349547045033761   F   F   F 
  0.748791987164608  0.833321776488286  0.349422689525881   F   F   F 
  0.582702749698042  0.443303056716788  0.412016753521786   T   T   T 
  0.582851556009820  0.443140485509561  0.454071702480624   T   T   T 
