   Co     O     H  
  1.00000 
    9.9561004638671875       0.0000000000000000       0.0000000000000000    
    -7.4670500755310059       12.9333095550537109       0.0000000000000000    
    0.0000000000000000       0.0000000000000000       23.1291007995605469    
   Co     O     H   
   120     1     1   
Selective dynamics 
Direct 
    0.1666699349880219    0.0555596947669983    0.0000000000000000   F      F      F    
    0.4166706800460815    0.0555599555373192    0.0000000000000000   F      F      F    
    0.6666695475578308    0.0555592551827431    0.0000000000000000   F      F      F    
    0.9166702032089233    0.0555590689182281    0.0000000000000000   F      F      F    
    0.1666710376739502    0.2222203463315964    0.0000000000000000   F      F      F    
    0.4166704416275024    0.2222200334072113    0.0000000000000000   F      F      F    
    0.6666704416275024    0.2222197055816650    0.0000000000000000   F      F      F    
    0.9166704416275024    0.2222197949886322    0.0000000000000000   F      F      F    
    0.1666697263717651    0.3888898193836212    0.0000000000000000   F      F      F    
    0.4166702032089233    0.3888897001743317    0.0000000000000000   F      F      F    
    0.6666697263717651    0.3888895511627197    0.0000000000000000   F      F      F    
    0.9166699647903442    0.3888891041278839    0.0000000000000000   F      F      F    
    0.1666699051856995    0.5555602312088013    0.0000000000000000   F      F      F    
    0.4166697561740875    0.5555602312088013    0.0000000000000000   F      F      F    
    0.6666702032089233    0.5555601716041565    0.0000000000000000   F      F      F    
    0.9166694283485413    0.5555598735809326    0.0000000000000000   F      F      F    
    0.1666699051856995    0.7222197651863098    0.0000000000000000   F      F      F    
    0.4166691005229950    0.7222197055816650    0.0000000000000000   F      F      F    
    0.6666696071624756    0.7222197055816650    0.0000000000000000   F      F      F    
    0.9166698455810547    0.7222194671630859    0.0000000000000000   F      F      F    
    0.1666699945926666    0.8888905644416809    0.0000000000000000   F      F      F    
    0.4166702032089233    0.8888906836509705    0.0000000000000000   F      F      F    
    0.6666703820228577    0.8888903856277466    0.0000000000000000   F      F      F    
    0.9166701436042786    0.8888903260231018    0.0000000000000000   F      F      F    
    0.0000000000000000    0.0000000000000000    0.0878700315952301   F      F      F    
    0.2500007450580597    0.0000000000000000    0.0878698378801346   F      F      F    
    0.5000005364418030    0.0000000000000000    0.0878698378801346   F      F      F    
    0.7500005364418030    0.0000000000000000    0.0878699123859406   F      F      F    
    0.0000000000000000    0.1666699051856995    0.0878698900341988   F      F      F    
    0.2500000298023224    0.1666696518659592    0.0878698378801346   F      F      F    
    0.5000002980232239    0.1666697263717651    0.0878699347376823   F      F      F    
    0.7500000000000000    0.1666695773601532    0.0878699421882629   F      F      F    
    0.0000000000000000    0.3333300948143005    0.0878699645400047   F      F      F    
    0.2499999403953552    0.3333300948143005    0.0878698676824570   F      F      F    
    0.5000005364418030    0.3333299458026886    0.0878698006272316   F      F      F    
    0.7499998807907104    0.3333298265933990    0.0878699347376823   F      F      F    
    0.0000000000000000    0.5000001192092896    0.0878697708249092   F      F      F    
    0.2499996423721313    0.4999997317790985    0.0878698825836182   F      F      F    
    0.4999992251396179    0.4999996721744537    0.0878698378801346   F      F      F    
    0.7499998807907104    0.4999995231628418    0.0878697559237480   F      F      F    
    0.0000000000000000    0.6666703224182129    0.0878698080778122   F      F      F    
    0.2500006258487701    0.6666701436042786    0.0878699347376823   F      F      F    
    0.4999996721744537    0.6666703224182129    0.0878697186708450   F      F      F    
    0.7500004172325134    0.6666702032089233    0.0878698155283928   F      F      F    
    0.0000000000000000    0.8333302736282349    0.0878698006272316   F      F      F    
    0.2499998509883881    0.8333302736282349    0.0878698527812958   F      F      F    
    0.4999995827674866    0.8333300352096558    0.0878697484731674   F      F      F    
    0.7499992847442627    0.8333293795585632    0.0878698900341988   F      F      F    
    0.0833302810788155    0.1111097708344460    0.1757302135229111   F      F      F    
    0.3333297371864319    0.1111096218228340    0.1757303029298782   F      F      F    
    0.5833303928375244    0.1111096963286400    0.1757301688194275   F      F      F    
    0.8333299756050110    0.1111093237996101    0.1757302433252335   F      F      F    
    0.0833297669887543    0.2777799069881439    0.1757301688194275   F      F      F    
    0.3333296775817871    0.2777794599533081    0.1757301539182663   F      F      F    
    0.5833290815353394    0.2777794599533081    0.1757301986217499   F      F      F    
    0.8333297371864319    0.2777795195579529    0.1757301688194275   F      F      F    
    0.0833308100700378    0.4444403946399689    0.1757301986217499   F      F      F    
    0.3333299160003662    0.4444400370121002    0.1757301986217499   F      F      F    
    0.5833303928375244    0.4444398880004883    0.1757301688194275   F      F      F    
    0.8333300352096558    0.4444397687911987    0.1757301539182663   F      F      F    
    0.0833293795585632    0.6111097335815430    0.1757301688194275   F      F      F    
    0.3333300352096558    0.6111097335815430    0.1757301539182663   F      F      F    
    0.5833293795585632    0.6111096739768982    0.1757301390171051   F      F      F    
    0.8333296775817871    0.6111094355583191    0.1757300943136215   F      F      F    
    0.0833296179771423    0.7777802944183350    0.1757301390171051   F      F      F    
    0.3333294093608856    0.7777805328369141    0.1757301539182663   F      F      F    
    0.5833300352096558    0.7777800559997559    0.1757301092147827   F      F      F    
    0.8333293795585632    0.7777798771858215    0.1757301390171051   F      F      F    
    0.0833296775817871    0.9444403052330017    0.1757300645112991   F      F      F    
    0.3333292305469513    0.9444403052330017    0.1757300049066544   F      F      F    
    0.5833303332328796    0.9444407820701599    0.1757300496101379   F      F      F    
    0.8333293199539185    0.9444404840469360    0.1757300049066544   F      F      F    
    0.1658811271190643    0.0549817755818367    0.2645655572414398   T      T      T    
    0.4160273373126984    0.0549933910369873    0.2645339369773865   T      T      T    
    0.6659740209579468    0.0550189390778542    0.2645494043827057   T      T      T    
    0.9158158302307129    0.0549057163298130    0.2645590603351593   T      T      T    
    0.1657967269420624    0.2215965241193771    0.2644107639789581   T      T      T    
    0.4156497120857239    0.2211310565471649    0.2639183402061462   T      T      T    
    0.6660037636756897    0.2217434495687485    0.2643775343894958   T      T      T    
    0.9159672260284424    0.2216807305812836    0.2645885646343231   T      T      T    
    0.1660085171461105    0.3883621394634247    0.2644599378108978   T      T      T    
    0.4148649275302887    0.3879823088645935    0.2642002999782562   T      T      T    
    0.6664520502090454    0.3879791796207428    0.2640337049961090   T      T      T    
    0.9158140420913696    0.3884395658969879    0.2645831406116486   T      T      T    
    0.1660298705101013    0.5551746487617493    0.2645991146564484   T      T      T    
    0.4154346883296967    0.5554423928260803    0.2639657557010651   T      T      T    
    0.6665645837783813    0.5557448267936707    0.2640070617198944   T      T      T    
    0.9171904325485229    0.5554152131080627    0.2639680504798889   T      T      T    
    0.1660486757755280    0.7218245267868042    0.2645290791988373   T      T      T    
    0.4159579873085022    0.7216707468032837    0.2646213471889496   T      T      T    
    0.6658597588539124    0.7216227054595947    0.2643960714340210   T      T      T    
    0.9161000251770020    0.7215737700462341    0.2644637525081635   T      T      T    
    0.1660866737365723    0.8883512020111084    0.2644877731800079   T      T      T    
    0.4160251915454865    0.8884227275848389    0.2645922899246216   T      T      T    
    0.6658859848976135    0.8882550597190857    0.2644505798816681   T      T      T    
    0.9157801866531372    0.8882873058319092    0.2646377682685852   T      T      T    
    0.9992312192916870    0.9993336796760559    0.3496638834476471   T      T      T    
    0.2494369745254517    0.9996203184127808    0.3496065735816956   T      T      T    
    0.4996641874313354    0.9994393587112427    0.3495925962924957   T      T      T    
    0.7491723299026489    0.9994666576385498    0.3496117293834686   T      T      T    
    0.9991853833198547    0.1659298390150070    0.3496110141277313   T      T      T    
    0.2492339462041855    0.1659708321094513    0.3494424223899841   T      T      T    
    0.4990077018737793    0.1658660173416138    0.3494774997234344   T      T      T    
    0.7495235204696655    0.1661836504936218    0.3495813906192780   T      T      T    
    0.9996177554130554    0.3330975770950317    0.3495564758777618   T      T      T    
    0.2466563880443573    0.3320062756538391    0.3491763770580292   T      T      T    
    0.4968609213829041    0.3300713002681732    0.3503922224044800   T      T      T    
    0.7505859732627869    0.3319745659828186    0.3492063283920288   T      T      T    
    0.9995098114013672    0.4995043277740479    0.3494532108306885   T      T      T    
    0.2491204291582108    0.4994310140609741    0.3494405150413513   T      T      T    
    0.4972637891769409    0.5010072588920593    0.3501839637756348   T      T      T    
    0.7539948225021362    0.5013390779495239    0.3502385020256042   T      T      T    
    0.9998302459716797    0.6664260625839233    0.3494149744510651   T      T      T    
    0.2493332028388977    0.6661279201507568    0.3496426343917847   T      T      T    
    0.4992627203464508    0.6663412451744080    0.3494291901588440   T      T      T    
    0.7508567571640015    0.6681200265884399    0.3491770625114441   T      T      T    
    0.9997047185897827    0.8329695463180542    0.3495925962924957   T      T      T    
    0.2492946684360504    0.8330644369125366    0.3496350646018982   T      T      T    
    0.4996187090873718    0.8330619931221008    0.3495998382568359   T      T      T    
    0.7492235898971558    0.8330579400062561    0.3495745658874512   T      T      T    
    0.5828473567962646    0.4436448514461517    0.3987414836883545   T      T      T    
    0.5735758543014526    0.4436450600624084    0.4410029351711273   T      T      T    
