   Co     O     H                       
   1.00000000000000     
     9.9561004638671875    0.0000000000000000    0.0000000000000000
    -7.4670500755310059   12.9333095550537109    0.0000000000000000
     0.0000000000000000    0.0000000000000000   23.1291007995605469
   Co   O    H 
   120     1     1
Selective dynamics
Direct
  0.1666699349880219  0.0555596947669983  0.0000000000000000   F   F   F
  0.4166706800460817  0.0555599555373192  0.0000000000000000   F   F   F
  0.6666695475578351  0.0555592551827431  0.0000000000000000   F   F   F
  0.9166702032089233  0.0555590689182281  0.0000000000000000   F   F   F
  0.1666710376739502  0.2222203463315964  0.0000000000000000   F   F   F
  0.4166704416275024  0.2222200334072113  0.0000000000000000   F   F   F
  0.6666704416275024  0.2222197055816650  0.0000000000000000   F   F   F
  0.9166704416275027  0.2222197949886322  0.0000000000000000   F   F   F
  0.1666697263717637  0.3888898193836212  0.0000000000000000   F   F   F
  0.4166702032089233  0.3888897001743317  0.0000000000000000   F   F   F
  0.6666697263717651  0.3888895511627197  0.0000000000000000   F   F   F
  0.9166699647903442  0.3888891041278839  0.0000000000000000   F   F   F
  0.1666699051856994  0.5555602312088013  0.0000000000000000   F   F   F
  0.4166697561740875  0.5555602312088013  0.0000000000000000   F   F   F
  0.6666702032089233  0.5555601716041565  0.0000000000000000   F   F   F
  0.9166694283485413  0.5555598735809326  0.0000000000000000   F   F   F
  0.1666699051856995  0.7222197651863098  0.0000000000000000   F   F   F
  0.4166691005229948  0.7222197055816650  0.0000000000000000   F   F   F
  0.6666696071624756  0.7222197055816650  0.0000000000000000   F   F   F
  0.9166698455810549  0.7222194671630859  0.0000000000000000   F   F   F
  0.1666699945926666  0.8888905644416809  0.0000000000000000   F   F   F
  0.4166702032089231  0.8888906836509705  0.0000000000000000   F   F   F
  0.6666703820228577  0.8888903856277466  0.0000000000000000   F   F   F
  0.9166701436042786  0.8888903260231018  0.0000000000000000   F   F   F
  0.0000000000000000  0.0000000000000000  0.0878700315952301   F   F   F
  0.2500007450580597  0.0000000000000000  0.0878698378801346   F   F   F
  0.5000005364418030  0.0000000000000000  0.0878698378801346   F   F   F
  0.7500005364418032  0.0000000000000000  0.0878699123859406   F   F   F
  0.0000000000000000  0.1666699051856995  0.0878698900341988   F   F   F
  0.2500000298023224  0.1666696518659592  0.0878698378801346   F   F   F
  0.5000002980232239  0.1666697263717651  0.0878699347376823   F   F   F
  0.7500000000000000  0.1666695773601532  0.0878699421882629   F   F   F
 -0.0000000000000001  0.3333300948143005  0.0878699645400047   F   F   F
  0.2499999403953552  0.3333300948143005  0.0878698676824570   F   F   F
  0.5000005364418030  0.3333299458026886  0.0878698006272316   F   F   F
  0.7499998807907104  0.3333298265933990  0.0878699347376823   F   F   F
  0.0000000000000000  0.5000001192092896  0.0878697708249092   F   F   F
  0.2499996423721313  0.4999997317790985  0.0878698825836182   F   F   F
  0.4999992251396179  0.4999996721744537  0.0878698378801346   F   F   F
  0.7499998807907104  0.4999995231628418  0.0878697559237480   F   F   F
  0.0000000000000000  0.6666703224182129  0.0878698080778122   F   F   F
  0.2500006258487680  0.6666701436042786  0.0878699347376823   F   F   F
  0.4999996721744537  0.6666703224182129  0.0878697186708450   F   F   F
  0.7500004172325134  0.6666702032089233  0.0878698155283928   F   F   F
 -0.0000000000000046  0.8333302736282349  0.0878698006272316   F   F   F
  0.2499998509883838  0.8333302736282349  0.0878698527812958   F   F   F
  0.4999995827674866  0.8333300352096558  0.0878697484731674   F   F   F
  0.7499992847442627  0.8333293795585632  0.0878698900341988   F   F   F
  0.0833302810788155  0.1111097708344460  0.1757302135229111   F   F   F
  0.3333297371864319  0.1111096218228340  0.1757303029298782   F   F   F
  0.5833303928375244  0.1111096963286400  0.1757301688194275   F   F   F
  0.8333299756050110  0.1111093237996101  0.1757302433252335   F   F   F
  0.0833297669887542  0.2777799069881439  0.1757301688194275   F   F   F
  0.3333296775817871  0.2777794599533081  0.1757301539182663   F   F   F
  0.5833290815353394  0.2777794599533081  0.1757301986217499   F   F   F
  0.8333297371864319  0.2777795195579529  0.1757301688194275   F   F   F
  0.0833308100700378  0.4444403946399689  0.1757301986217499   F   F   F
  0.3333299160003662  0.4444400370121002  0.1757301986217499   F   F   F
  0.5833303928375244  0.4444398880004883  0.1757301688194275   F   F   F
  0.8333300352096558  0.4444397687911987  0.1757301539182663   F   F   F
  0.0833293795585631  0.6111097335815430  0.1757301688194275   F   F   F
  0.3333300352096558  0.6111097335815430  0.1757301539182663   F   F   F
  0.5833293795585632  0.6111096739768982  0.1757301390171051   F   F   F
  0.8333296775817871  0.6111094355583191  0.1757300943136215   F   F   F
  0.0833296179771423  0.7777802944183350  0.1757301390171051   F   F   F
  0.3333294093608856  0.7777805328369141  0.1757301539182663   F   F   F
  0.5833300352096558  0.7777800559997559  0.1757301092147827   F   F   F
  0.8333293795585632  0.7777798771858215  0.1757301390171051   F   F   F
  0.0833296775817871  0.9444403052330017  0.1757300645112991   F   F   F
  0.3333292305469513  0.9444403052330017  0.1757300049066544   F   F   F
  0.5833303332328795  0.9444407820701599  0.1757300496101379   F   F   F
  0.8333293199539185  0.9444404840469360  0.1757300049066544   F   F   F
  0.1649741888980339  0.0543511282808254  0.2643124996810206   T   T   T
  0.4153570936936453  0.0545998521511882  0.2642472529082424   T   T   T
  0.6655131479250831  0.0547545026538615  0.2643670024551651   T   T   T
  0.9150937083901152  0.0544720906020495  0.2644786516507405   T   T   T
  0.1654550412953381  0.2211821885582523  0.2642258967782268   T   T   T
  0.4158878978475374  0.2218264790440274  0.2645463066033863   T   T   T
  0.6651768367985190  0.2214307182264743  0.2641704422451844   T   T   T
  0.9155899634327811  0.2214757986165272  0.2645611987377283   T   T   T
  0.1655739593582226  0.3881573199337754  0.2641925074131609   T   T   T
  0.4158094505834690  0.3882015009865317  0.2661164145225480   T   T   T
  0.6650587936784165  0.3883847891742478  0.2660294734844211   T   T   T
  0.9154885478840258  0.3883965735775913  0.2642938792132597   T   T   T
  0.1655698321111698  0.5551214303218219  0.2643501056823989   T   T   T
  0.4153289818822072  0.5546657877489104  0.2644613660694505   T   T   T
  0.6651648565094846  0.5546879601983412  0.2659053505806504   T   T   T
  0.9156443797460428  0.5548620577792794  0.2644101325454063   T   T   T
  0.1658603216281713  0.7217571530462216  0.2643726965587793   T   T   T
  0.4154250401724531  0.7215160140533124  0.2644785089150241   T   T   T
  0.6649066461513193  0.7211838845017731  0.2641460270538230   T   T   T
  0.9158313505332807  0.7212719009265502  0.2641978013398427   T   T   T
  0.1657820738675621  0.8880440405453843  0.2644429136357145   T   T   T
  0.4154627048574527  0.8880333762945333  0.2644024181233660   T   T   T
  0.6655474941976816  0.8879955000499338  0.2641898365953055   T   T   T
  0.9152448633448960  0.8878172225042529  0.2644158954409168   T   T   T
  0.9985001626675767  0.9989460364096087  0.3495934973204981   T   T   T
  0.2494436428654516  0.9996787014826169  0.3494011706528579   T   T   T
  0.4989178717876451  0.9988181207334756  0.3495627858729525   T   T   T
  0.7480185189485544  0.9986772147621898  0.3494470654521593   T   T   T
  0.9978969848104833  0.1648492786659798  0.3495842316152775   T   T   T
  0.2479952837993317  0.1650923477875575  0.3494156490026055   T   T   T
  0.4987663330184441  0.1650777134546388  0.3494702005391924   T   T   T
  0.7487147002464590  0.1650412655104876  0.3494984674613468   T   T   T
  0.9990536638105154  0.3326768572341153  0.3495005667617743   T   T   T
  0.2436028199473843  0.3303899412177705  0.3489235358211160   T   T   T
  0.4961507989205389  0.3292795134383182  0.3532358420721230   T   T   T
  0.7509023170251932  0.3305098237375593  0.3488070065612461   T   T   T
  0.9988837037260356  0.4987674290845722  0.3495411624964433   T   T   T
  0.2479613592998504  0.4986667698333521  0.3494430839494682   T   T   T
  0.4972169772743912  0.5008549254174168  0.3530080912668865   T   T   T
  0.7538240017808799  0.5013002547909752  0.3529207895312665   T   T   T
  0.9996896085148237  0.6667992804250243  0.3494487487747200   T   T   T
  0.2482507635274163  0.6653119678851538  0.3494180371850442   T   T   T
  0.4988697871176132  0.6664392204805835  0.3494097796091558   T   T   T
  0.7518257520857011  0.6698872906371242  0.3488347579216419   T   T   T
  1.0001274503639499  0.8334927250851402  0.3494856679491229   T   T   T
  0.2491168459769945  0.8328464635291035  0.3496138096633632   T   T   T
  0.4989521057051548  0.8326643073425744  0.3495470450337609   T   T   T
  0.7487919871646080  0.8333217764882861  0.3494226895258811   T   T   T
  0.5827027496980416  0.4433030567167879  0.4120167535217860   T   T   T
  0.5828515560098204  0.4431404855095608  0.4540717024806236   T   T   T
 
