   O     H                              
   1.00000000000000     
    30.0000000000000000    0.0000000000000000    0.0000000000000000
     0.0000000000000000   30.0000000000000000    0.0000000000000000
     0.0000000000000000    0.0000000000000000   30.0000000000000000
   O    H 
     1     2
Direct
  0.5269358429168705  0.4818400415358681  0.4931644192123272
  0.5305246532780927  0.5135208040063972  0.4873485520995118
  0.5306239631098464  0.4789835868117081  0.5245720016260628
 
  0.00000000E+00  0.00000000E+00  0.00000000E+00
  0.00000000E+00  0.00000000E+00  0.00000000E+00
  0.00000000E+00  0.00000000E+00  0.00000000E+00
