       N       E                     dE             d eps       ncg     rms          rms(c)
DAV:   1    -0.142183706206E+02   -0.14218E+02   -0.17063E-07    32   0.246E-03    0.634E-04
RMM:   2    -0.142183706065E+02    0.14127E-07   -0.46491E-08    10   0.176E-03
   1 F= -.14219209E+02 E0= -.14219209E+02  d E =-.607721E-11
       N       E                     dE             d eps       ncg     rms          rms(c)
DAV:   1    -0.142153968254E+02    0.29738E-02   -0.23562E+00    16   0.156E+01    0.247E-01
RMM:   2    -0.142176678132E+02   -0.22710E-02   -0.32627E-02    16   0.172E+00    0.124E-01
RMM:   3    -0.142175886618E+02    0.79151E-04   -0.65695E-04    16   0.227E-01    0.715E-02
RMM:   4    -0.142178919564E+02   -0.30329E-03   -0.46165E-04    16   0.171E-01    0.149E-02
RMM:   5    -0.142179078668E+02   -0.15910E-04   -0.18697E-05    16   0.327E-02    0.565E-03
RMM:   6    -0.142179253274E+02   -0.17461E-04   -0.18538E-06    13   0.951E-03    0.275E-03
RMM:   7    -0.142179593156E+02   -0.33988E-04   -0.34030E-06    13   0.993E-03    0.153E-03
RMM:   8    -0.142180013040E+02   -0.41988E-04   -0.63116E-06    14   0.123E-02    0.198E-03
RMM:   9    -0.142180165676E+02   -0.15264E-04   -0.27483E-06    13   0.915E-03    0.880E-04
RMM:  10    -0.142180305905E+02   -0.14023E-04   -0.13829E-06    13   0.530E-03    0.882E-04
RMM:  11    -0.142180401764E+02   -0.95859E-05   -0.81584E-07    12   0.447E-03    0.281E-04
RMM:  12    -0.142180437688E+02   -0.35924E-05   -0.37615E-07    11   0.300E-03    0.238E-04
RMM:  13    -0.142180458433E+02   -0.20746E-05   -0.15951E-07    10   0.187E-03    0.117E-04
RMM:  14    -0.142180468802E+02   -0.10369E-05   -0.62512E-08     9   0.145E-03    0.452E-05
RMM:  15    -0.142180475809E+02   -0.70073E-06   -0.25746E-08     9   0.145E-03
   2 F= -.14218886E+02 E0= -.14218886E+02  d E =-.164898E-10
       N       E                     dE             d eps       ncg     rms          rms(c)
DAV:   1    -0.142072252718E+02    0.10822E-01   -0.94034E+00    16   0.311E+01    0.520E-01
RMM:   2    -0.142170192031E+02   -0.97939E-02   -0.13843E-01    16   0.356E+00    0.239E-01
RMM:   3    -0.142168725378E+02    0.14667E-03   -0.27803E-03    16   0.451E-01    0.145E-01
RMM:   4    -0.142176558696E+02   -0.78333E-03   -0.26260E-03    16   0.383E-01    0.426E-02
RMM:   5    -0.142176496445E+02    0.62251E-05   -0.41410E-05    16   0.435E-02    0.338E-02
RMM:   6    -0.142177245730E+02   -0.74928E-04   -0.35621E-04    16   0.137E-01    0.205E-02
RMM:   7    -0.142177530993E+02   -0.28526E-04   -0.40098E-05    16   0.490E-02    0.411E-03
RMM:   8    -0.142178025095E+02   -0.49410E-04   -0.47303E-06    14   0.128E-02    0.377E-03
RMM:   9    -0.142179190919E+02   -0.11658E-03   -0.18239E-05    15   0.228E-02    0.684E-03
RMM:  10    -0.142179647513E+02   -0.45659E-04   -0.20206E-05    16   0.283E-02    0.283E-03
RMM:  11    -0.142180046621E+02   -0.39911E-04   -0.50744E-06    14   0.975E-03    0.210E-03
RMM:  12    -0.142180199986E+02   -0.15337E-04   -0.19338E-06    13   0.853E-03    0.861E-04
RMM:  13    -0.142180254764E+02   -0.54777E-05   -0.32831E-07    12   0.410E-03    0.540E-04
RMM:  14    -0.142180321518E+02   -0.66754E-05   -0.21175E-07    11   0.265E-03    0.466E-04
RMM:  15    -0.142180347353E+02   -0.25836E-05   -0.10471E-07    10   0.203E-03    0.168E-04
RMM:  16    -0.142180358496E+02   -0.11143E-05   -0.45871E-08    10   0.183E-03    0.841E-05
RMM:  17    -0.142180364537E+02   -0.60402E-06   -0.15900E-08     9   0.169E-03
   3 F= -.14218875E+02 E0= -.14218875E+02  d E =-.105041E-10
       N       E                     dE             d eps       ncg     rms          rms(c)
DAV:   1    -0.142047444481E+02    0.13291E-01   -0.46191E+00    16   0.225E+01    0.428E-01
RMM:   2    -0.142071802436E+02   -0.24358E-02   -0.62538E-02    16   0.262E+00    0.227E-01
RMM:   3    -0.142070338017E+02    0.14644E-03   -0.32532E-03    16   0.466E-01    0.982E-02
RMM:   4    -0.142074670894E+02   -0.43329E-03   -0.49599E-04    16   0.179E-01    0.342E-02
RMM:   5    -0.142076265985E+02   -0.15951E-03   -0.13043E-04    16   0.843E-02    0.123E-02
RMM:   6    -0.142076747082E+02   -0.48110E-04   -0.66182E-05    16   0.615E-02    0.134E-02
RMM:   7    -0.142076884585E+02   -0.13750E-04   -0.25655E-05    16   0.396E-02    0.203E-03
RMM:   8    -0.142077153162E+02   -0.26858E-04   -0.24389E-06    14   0.103E-02    0.207E-03
RMM:   9    -0.142077637119E+02   -0.48396E-04   -0.64109E-06    15   0.132E-02    0.179E-03
RMM:  10    -0.142077802265E+02   -0.16515E-04   -0.18760E-06    13   0.813E-03    0.505E-04
RMM:  11    -0.142078007390E+02   -0.20513E-04   -0.19869E-06    13   0.618E-03    0.347E-04
RMM:  12    -0.142078041786E+02   -0.34396E-05   -0.34556E-07    11   0.298E-03    0.209E-04
RMM:  13    -0.142078100655E+02   -0.58869E-05   -0.28602E-07    11   0.295E-03    0.211E-04
RMM:  14    -0.142078122356E+02   -0.21701E-05   -0.17909E-07    10   0.211E-03    0.150E-04
RMM:  15    -0.142078135005E+02   -0.12649E-05   -0.71984E-08    10   0.185E-03    0.946E-05
RMM:  16    -0.142078137782E+02   -0.27780E-06   -0.21216E-08     9   0.132E-03
   4 F= -.14208651E+02 E0= -.14208651E+02  d E =-.358478E-18
       N       E                     dE             d eps       ncg     rms          rms(c)
DAV:   1    -0.142038002962E+02    0.40132E-02   -0.90491E+00    16   0.314E+01    0.709E-01
RMM:   2    -0.142086876099E+02   -0.48873E-02   -0.15542E-01    16   0.399E+00    0.347E-01
RMM:   3    -0.142076391334E+02    0.10485E-02   -0.51470E-03    16   0.592E-01    0.184E-01
RMM:   4    -0.142084818050E+02   -0.84267E-03   -0.34838E-03    16   0.411E-01    0.442E-02
RMM:   5    -0.142085483876E+02   -0.66583E-04   -0.13730E-04    16   0.849E-02    0.270E-02
RMM:   6    -0.142086937597E+02   -0.14537E-03   -0.46431E-04    16   0.153E-01    0.338E-02
RMM:   7    -0.142086654823E+02    0.28277E-04   -0.12437E-04    16   0.850E-02    0.302E-03
RMM:   8    -0.142086946802E+02   -0.29198E-04   -0.12974E-05    15   0.244E-02    0.321E-03
RMM:   9    -0.142087395801E+02   -0.44900E-04   -0.65447E-06    15   0.153E-02    0.171E-03
RMM:  10    -0.142087632449E+02   -0.23665E-04   -0.29458E-06    14   0.858E-03    0.730E-04
RMM:  11    -0.142087833985E+02   -0.20154E-04   -0.26752E-06    14   0.841E-03    0.121E-03
RMM:  12    -0.142087910552E+02   -0.76567E-05   -0.63193E-07    12   0.488E-03    0.228E-04
RMM:  13    -0.142087974880E+02   -0.64328E-05   -0.36789E-07    11   0.357E-03    0.318E-04
RMM:  14    -0.142087995812E+02   -0.20932E-05   -0.14235E-07    10   0.229E-03    0.299E-04
RMM:  15    -0.142088011204E+02   -0.15392E-05   -0.73444E-08    11   0.188E-03    0.627E-05
RMM:  16    -0.142088018727E+02   -0.75229E-06   -0.23978E-08     9   0.136E-03
   5 F= -.14209641E+02 E0= -.14209641E+02  d E =-.299346E-11
       N       E                     dE             d eps       ncg     rms          rms(c)
DAV:   1    -0.142061729439E+02    0.26282E-02   -0.45620E+00    16   0.221E+01    0.536E-01
RMM:   2    -0.142065601025E+02   -0.38716E-03   -0.69085E-02    16   0.260E+00    0.223E-01
RMM:   3    -0.142065457874E+02    0.14315E-04   -0.32503E-03    16   0.459E-01    0.110E-01
RMM:   4    -0.142071403990E+02   -0.59461E-03   -0.76471E-04    16   0.224E-01    0.288E-02
RMM:   5    -0.142071889258E+02   -0.48527E-04   -0.51186E-05    16   0.569E-02    0.118E-02
RMM:   6    -0.142072306232E+02   -0.41697E-04   -0.11145E-04    16   0.762E-02    0.180E-02
RMM:   7    -0.142072312527E+02   -0.62946E-06   -0.36388E-05    16   0.470E-02    0.187E-03
RMM:   8    -0.142072491626E+02   -0.17910E-04   -0.18846E-06    13   0.102E-02    0.989E-04
RMM:   9    -0.142072858704E+02   -0.36708E-04   -0.43563E-06    14   0.946E-03    0.962E-04
RMM:  10    -0.142072968929E+02   -0.11022E-04   -0.72856E-07    12   0.488E-03    0.899E-04
RMM:  11    -0.142073129653E+02   -0.16072E-04   -0.16074E-06    12   0.539E-03    0.346E-04
RMM:  12    -0.142073175413E+02   -0.45761E-05   -0.40248E-07    12   0.354E-03    0.279E-04
RMM:  13    -0.142073215927E+02   -0.40514E-05   -0.22936E-07    10   0.267E-03    0.242E-04
RMM:  14    -0.142073230424E+02   -0.14496E-05   -0.13247E-07    10   0.206E-03    0.206E-04
RMM:  15    -0.142073241494E+02   -0.11070E-05   -0.60683E-08    10   0.174E-03    0.613E-05
RMM:  16    -0.142073243852E+02   -0.23584E-06    0.00000E+00     8   0.139E-03
   6 F= -.14208162E+02 E0= -.14208162E+02  d E =-.255703E-18
       N       E                     dE             d eps       ncg     rms          rms(c)
DAV:   1    -0.142031949609E+02    0.41292E-02   -0.90556E+00    16   0.314E+01    0.686E-01
RMM:   2    -0.142084071552E+02   -0.52122E-02   -0.15021E-01    16   0.397E+00    0.354E-01
RMM:   3    -0.142072521362E+02    0.11550E-02   -0.53260E-03    16   0.596E-01    0.179E-01
RMM:   4    -0.142080553612E+02   -0.80322E-03   -0.31940E-03    16   0.394E-01    0.410E-02
RMM:   5    -0.142081573429E+02   -0.10198E-03   -0.14119E-04    16   0.835E-02    0.254E-02
RMM:   6    -0.142083099879E+02   -0.15264E-03   -0.34291E-04    16   0.133E-01    0.291E-02
RMM:   7    -0.142082900369E+02    0.19951E-04   -0.10041E-04    16   0.763E-02    0.229E-03
RMM:   8    -0.142083234227E+02   -0.33386E-04   -0.98702E-06    15   0.210E-02    0.344E-03
RMM:   9    -0.142083702729E+02   -0.46850E-04   -0.75470E-06    15   0.166E-02    0.197E-03
RMM:  10    -0.142083935444E+02   -0.23271E-04   -0.28103E-06    14   0.858E-03    0.860E-04
RMM:  11    -0.142084133433E+02   -0.19799E-04   -0.26659E-06    14   0.833E-03    0.988E-04
RMM:  12    -0.142084203751E+02   -0.70318E-05   -0.50521E-07    12   0.429E-03    0.243E-04
RMM:  13    -0.142084266426E+02   -0.62674E-05   -0.32523E-07    11   0.329E-03    0.271E-04
RMM:  14    -0.142084285644E+02   -0.19218E-05   -0.11813E-07    10   0.208E-03    0.222E-04
RMM:  15    -0.142084301030E+02   -0.15387E-05   -0.38188E-08     9   0.172E-03    0.709E-05
RMM:  16    -0.142084307600E+02   -0.65694E-06   -0.60818E-08    11   0.173E-03
   7 F= -.14209270E+02 E0= -.14209270E+02  d E =-.356874E-11
       N       E                     dE             d eps       ncg     rms          rms(c)
DAV:   1    -0.142162160094E+02   -0.77859E-02   -0.24055E+00    16   0.163E+01    0.334E-01
RMM:   2    -0.142177831216E+02   -0.15671E-02   -0.37249E-02    16   0.197E+00    0.192E-01
RMM:   3    -0.142177035356E+02    0.79586E-04   -0.17853E-03    16   0.338E-01    0.834E-02
RMM:   4    -0.142180306362E+02   -0.32710E-03   -0.43071E-04    16   0.154E-01    0.226E-02
RMM:   5    -0.142180781502E+02   -0.47514E-04   -0.42438E-05    16   0.440E-02    0.102E-02
RMM:   6    -0.142181179841E+02   -0.39834E-04   -0.19361E-05    16   0.321E-02    0.555E-03
RMM:   7    -0.142181325573E+02   -0.14573E-04   -0.72979E-06    16   0.202E-02    0.233E-03
RMM:   8    -0.142181632041E+02   -0.30647E-04   -0.19082E-06    13   0.730E-03    0.128E-03
RMM:   9    -0.142181854842E+02   -0.22280E-04   -0.29526E-06    14   0.942E-03    0.139E-03
RMM:  10    -0.142182060035E+02   -0.20519E-04   -0.22738E-06    13   0.810E-03    0.677E-04
RMM:  11    -0.142182124447E+02   -0.64412E-05   -0.54203E-07    11   0.395E-03    0.354E-04
RMM:  12    -0.142182164527E+02   -0.40080E-05   -0.34735E-07    12   0.335E-03    0.241E-04
RMM:  13    -0.142182200905E+02   -0.36378E-05   -0.23566E-07    10   0.224E-03    0.154E-04
RMM:  14    -0.142182207144E+02   -0.62388E-06   -0.84021E-08    10   0.172E-03
   8 F= -.14219059E+02 E0= -.14219059E+02  d E =-.149282E-10
       N       E                     dE             d eps       ncg     rms          rms(c)
DAV:   1    -0.142173295457E+02    0.89054E-03   -0.49081E-01    16   0.708E+00    0.225E-01
RMM:   2    -0.142176900006E+02   -0.36045E-03   -0.56477E-03    16   0.778E-01    0.130E-01
RMM:   3    -0.142179978502E+02   -0.30785E-03   -0.30835E-04    16   0.154E-01    0.361E-02
RMM:   4    -0.142180319260E+02   -0.34076E-04   -0.35422E-05    16   0.506E-02    0.810E-03
RMM:   5    -0.142180664499E+02   -0.34524E-04   -0.77064E-06    15   0.177E-02    0.512E-03
RMM:   6    -0.142181439654E+02   -0.77516E-04   -0.16474E-05    15   0.239E-02    0.412E-03
RMM:   7    -0.142181568754E+02   -0.12910E-04   -0.30680E-06    14   0.119E-02    0.140E-03
RMM:   8    -0.142182159176E+02   -0.59042E-04   -0.96068E-06    15   0.150E-02    0.205E-03
RMM:   9    -0.142182212629E+02   -0.53453E-05   -0.80577E-07    12   0.510E-03    0.130E-03
RMM:  10    -0.142182424047E+02   -0.21142E-04   -0.32875E-06    13   0.958E-03    0.102E-03
RMM:  11    -0.142182481919E+02   -0.57872E-05   -0.54991E-07    12   0.378E-03    0.579E-04
RMM:  12    -0.142182534239E+02   -0.52320E-05   -0.37054E-07    10   0.313E-03    0.269E-04
RMM:  13    -0.142182561143E+02   -0.26904E-05   -0.28508E-07    12   0.323E-03    0.284E-04
RMM:  14    -0.142182570673E+02   -0.95302E-06   -0.77084E-08     9   0.185E-03
   9 F= -.14219096E+02 E0= -.14219096E+02  d E =-.166647E-18
       N       E                     dE             d eps       ncg     rms          rms(c)
DAV:   1    -0.142099961719E+02    0.82599E-02   -0.28658E-01    16   0.516E+00    0.264E-01
RMM:   2    -0.142092868786E+02    0.70929E-03   -0.64531E-03    16   0.734E-01    0.135E-01
RMM:   3    -0.142093190611E+02   -0.32182E-04   -0.11089E-03    16   0.239E-01    0.582E-02
RMM:   4    -0.142093361482E+02   -0.17087E-04   -0.26954E-04    16   0.132E-01    0.217E-02
RMM:   5    -0.142093386155E+02   -0.24673E-05   -0.15919E-05    16   0.351E-02    0.794E-03
RMM:   6    -0.142093599317E+02   -0.21316E-04   -0.50521E-05    16   0.514E-02    0.114E-02
RMM:   7    -0.142093641707E+02   -0.42390E-05   -0.13809E-05    16   0.280E-02    0.155E-03
RMM:   8    -0.142093804477E+02   -0.16277E-04   -0.39637E-06    15   0.121E-02    0.212E-03
RMM:   9    -0.142093883971E+02   -0.79494E-05   -0.58282E-07    12   0.494E-03    0.112E-03
RMM:  10    -0.142094011037E+02   -0.12707E-04   -0.16613E-06    13   0.694E-03    0.473E-04
RMM:  11    -0.142094063262E+02   -0.52225E-05   -0.50031E-07    11   0.354E-03    0.533E-04
RMM:  12    -0.142094092384E+02   -0.29121E-05   -0.26797E-07    10   0.269E-03    0.247E-04
RMM:  13    -0.142094112132E+02   -0.19748E-05   -0.24323E-07    12   0.293E-03    0.237E-04
RMM:  14    -0.142094116121E+02   -0.39893E-06   -0.56747E-08     9   0.153E-03
  10 F= -.14210318E+02 E0= -.14210318E+02  d E =-.274815E-11
       N       E                     dE             d eps       ncg     rms          rms(c)
DAV:   1    -0.142109652072E+02   -0.15540E-02   -0.64978E-01    16   0.756E+00    0.442E-01
RMM:   2    -0.142085521340E+02    0.24131E-02   -0.18084E-02    16   0.119E+00    0.233E-01
RMM:   3    -0.142083766931E+02    0.17544E-03   -0.37173E-03    16   0.435E-01    0.986E-02
RMM:   4    -0.142083828077E+02   -0.61146E-05   -0.92926E-04    16   0.245E-01    0.441E-02
RMM:   5    -0.142083968272E+02   -0.14020E-04   -0.63353E-05    16   0.712E-02    0.140E-02
RMM:   6    -0.142084325557E+02   -0.35728E-04   -0.14156E-04    16   0.862E-02    0.172E-02
RMM:   7    -0.142084370872E+02   -0.45316E-05   -0.29652E-05    16   0.420E-02    0.267E-03
RMM:   8    -0.142084554812E+02   -0.18394E-04   -0.65709E-06    15   0.166E-02    0.163E-03
RMM:   9    -0.142084646436E+02   -0.91625E-05   -0.79065E-07    12   0.582E-03    0.130E-03
RMM:  10    -0.142084754819E+02   -0.10838E-04   -0.12713E-06    12   0.654E-03    0.238E-04
RMM:  11    -0.142084807704E+02   -0.52885E-05   -0.83108E-07    12   0.470E-03    0.650E-04
RMM:  12    -0.142084832769E+02   -0.25065E-05   -0.35754E-07    11   0.323E-03    0.217E-04
RMM:  13    -0.142084847319E+02   -0.14550E-05   -0.20318E-07    12   0.273E-03    0.183E-04
RMM:  14    -0.142084851966E+02   -0.46467E-06   -0.61039E-08    10   0.147E-03
  11 F= -.14209261E+02 E0= -.14209261E+02  d E =-.705217E-18
       N       E                     dE             d eps       ncg     rms          rms(c)
DAV:   1    -0.142174760116E+02   -0.89913E-02   -0.27828E-01    16   0.500E+00    0.232E-01
RMM:   2    -0.142169981246E+02    0.47789E-03   -0.42038E-03    16   0.604E-01    0.122E-01
RMM:   3    -0.142170754156E+02   -0.77291E-04   -0.10855E-03    16   0.237E-01    0.522E-02
RMM:   4    -0.142170793532E+02   -0.39376E-05   -0.30730E-04    16   0.140E-01    0.240E-02
RMM:   5    -0.142170844968E+02   -0.51436E-05   -0.18518E-05    16   0.388E-02    0.788E-03
RMM:   6    -0.142171073823E+02   -0.22885E-04   -0.52843E-05    16   0.530E-02    0.115E-02
RMM:   7    -0.142171141533E+02   -0.67710E-05   -0.16123E-05    16   0.302E-02    0.120E-03
RMM:   8    -0.142171305346E+02   -0.16381E-04   -0.33075E-06    15   0.111E-02    0.163E-03
RMM:   9    -0.142171379008E+02   -0.73662E-05   -0.47424E-07    12   0.420E-03    0.907E-04
RMM:  10    -0.142171487854E+02   -0.10885E-04   -0.10437E-06    12   0.567E-03    0.269E-04
RMM:  11    -0.142171531897E+02   -0.44043E-05   -0.52739E-07    11   0.345E-03    0.449E-04
RMM:  12    -0.142171556894E+02   -0.24996E-05   -0.25401E-07    11   0.257E-03    0.123E-04
RMM:  13    -0.142171574888E+02   -0.17994E-05   -0.14537E-07    10   0.217E-03    0.711E-05
RMM:  14    -0.142171579312E+02   -0.44236E-06   -0.49131E-08    10   0.159E-03
  12 F= -.14217929E+02 E0= -.14217929E+02  d E =-.170970E-10
       N       E                     dE             d eps       ncg     rms          rms(c)
DAV:   1    -0.142162798104E+02    0.87768E-03   -0.50188E-01    16   0.681E+00    0.202E-01
RMM:   2    -0.142165983214E+02   -0.31851E-03   -0.35532E-03    16   0.601E-01    0.127E-01
RMM:   3    -0.142167832741E+02   -0.18495E-03   -0.36255E-04    16   0.171E-01    0.190E-02
RMM:   4    -0.142168054225E+02   -0.22148E-04   -0.15195E-05    16   0.310E-02    0.896E-03
RMM:   5    -0.142168507099E+02   -0.45287E-04   -0.94692E-06    16   0.214E-02    0.375E-03
RMM:   6    -0.142168990343E+02   -0.48324E-04   -0.55304E-06    15   0.146E-02    0.249E-03
RMM:   7    -0.142169359646E+02   -0.36930E-04   -0.45021E-06    15   0.130E-02    0.214E-03
RMM:   8    -0.142169793004E+02   -0.43336E-04   -0.46721E-06    15   0.105E-02    0.836E-04
RMM:   9    -0.142169917761E+02   -0.12476E-04   -0.10059E-06    12   0.629E-03    0.753E-04
RMM:  10    -0.142170128467E+02   -0.21071E-04   -0.23390E-06    13   0.650E-03    0.386E-04
RMM:  11    -0.142170161292E+02   -0.32826E-05   -0.24754E-07    12   0.311E-03    0.141E-04
RMM:  12    -0.142170213186E+02   -0.51894E-05   -0.22666E-07    11   0.249E-03    0.164E-04
RMM:  13    -0.142170227239E+02   -0.14053E-05   -0.84956E-08    10   0.172E-03    0.109E-04
RMM:  14    -0.142170240614E+02   -0.13375E-05   -0.30444E-08     9   0.153E-03    0.368E-05
RMM:  15    -0.142170244117E+02   -0.35034E-06    0.00000E+00     8   0.137E-03
  13 F= -.14217936E+02 E0= -.14217936E+02  d E =-.666294E-11
       N       E                     dE             d eps       ncg     rms          rms(c)
DAV:   1    -0.142177376974E+02   -0.71364E-03   -0.24623E-01    16   0.492E+00    0.148E-01
RMM:   2    -0.142179172397E+02   -0.17954E-03   -0.24102E-03    16   0.537E-01    0.896E-02
RMM:   3    -0.142180544741E+02   -0.13723E-03   -0.13764E-04    16   0.110E-01    0.193E-02
RMM:   4    -0.142180704380E+02   -0.15964E-04   -0.10910E-05    16   0.291E-02    0.573E-03
RMM:   5    -0.142181042304E+02   -0.33792E-04   -0.54030E-06    15   0.142E-02    0.227E-03
RMM:   6    -0.142181318994E+02   -0.27669E-04   -0.24321E-06    13   0.894E-03    0.117E-03
RMM:   7    -0.142181655968E+02   -0.33697E-04   -0.44217E-06    15   0.943E-03    0.644E-04
RMM:   8    -0.142181808019E+02   -0.15205E-04   -0.13894E-06    12   0.551E-03    0.384E-04
RMM:   9    -0.142181975294E+02   -0.16727E-04   -0.18460E-06    13   0.580E-03    0.372E-04
RMM:  10    -0.142182010600E+02   -0.35307E-05   -0.32256E-07    11   0.300E-03    0.127E-04
RMM:  11    -0.142182051681E+02   -0.41081E-05   -0.20598E-07    10   0.254E-03    0.148E-04
RMM:  12    -0.142182063762E+02   -0.12081E-05   -0.93892E-08    10   0.192E-03    0.764E-05
RMM:  13    -0.142182071608E+02   -0.78464E-06   -0.30102E-08     9   0.149E-03
  14 F= -.14219046E+02 E0= -.14219046E+02  d E =-.106268E-10
       N       E                     dE             d eps       ncg     rms          rms(c)
DAV:   1    -0.142173351622E+02    0.87121E-03   -0.49092E-01    16   0.708E+00    0.225E-01
RMM:   2    -0.142176966250E+02   -0.36146E-03   -0.56600E-03    16   0.777E-01    0.130E-01
RMM:   3    -0.142179979320E+02   -0.30131E-03   -0.30292E-04    16   0.153E-01    0.364E-02
RMM:   4    -0.142180325417E+02   -0.34610E-04   -0.36487E-05    16   0.513E-02    0.793E-03
RMM:   5    -0.142180665998E+02   -0.34058E-04   -0.70720E-06    15   0.166E-02    0.510E-03
RMM:   6    -0.142181440060E+02   -0.77406E-04   -0.15670E-05    15   0.228E-02    0.372E-03
RMM:   7    -0.142181572336E+02   -0.13228E-04   -0.26463E-06    13   0.110E-02    0.138E-03
RMM:   8    -0.142182171200E+02   -0.59886E-04   -0.10317E-05    15   0.154E-02    0.226E-03
RMM:   9    -0.142182213877E+02   -0.42677E-05   -0.78590E-07    12   0.531E-03    0.137E-03
RMM:  10    -0.142182423161E+02   -0.20928E-04   -0.34051E-06    13   0.102E-02    0.122E-03
RMM:  11    -0.142182482846E+02   -0.59684E-05   -0.56389E-07    12   0.385E-03    0.671E-04
RMM:  12    -0.142182537867E+02   -0.55021E-05   -0.39519E-07    10   0.295E-03    0.439E-04
RMM:  13    -0.142182566595E+02   -0.28728E-05   -0.36179E-07    12   0.385E-03    0.411E-04
RMM:  14    -0.142182574866E+02   -0.82713E-06   -0.79375E-08     9   0.200E-03
  15 F= -.14219096E+02 E0= -.14219096E+02  d E =-.167081E-18
       N       E                     dE             d eps       ncg     rms          rms(c)
DAV:   1    -0.142169889772E+02    0.12677E-02   -0.24851E-01    16   0.490E+00    0.147E-01
RMM:   2    -0.142171610902E+02   -0.17211E-03   -0.21731E-03    16   0.492E-01    0.881E-02
RMM:   3    -0.142173026168E+02   -0.14153E-03   -0.14280E-04    16   0.109E-01    0.207E-02
RMM:   4    -0.142173188418E+02   -0.16225E-04   -0.12462E-05    16   0.304E-02    0.542E-03
RMM:   5    -0.142173416862E+02   -0.22844E-04   -0.47831E-06    15   0.141E-02    0.318E-03
RMM:   6    -0.142173785946E+02   -0.36908E-04   -0.57901E-06    15   0.152E-02    0.239E-03
RMM:   7    -0.142173941730E+02   -0.15578E-04   -0.33241E-06    15   0.116E-02    0.159E-03
RMM:   8    -0.142174209751E+02   -0.26802E-04   -0.34853E-06    14   0.912E-03    0.634E-04
RMM:   9    -0.142174260807E+02   -0.51056E-05   -0.66974E-07    12   0.515E-03    0.631E-04
RMM:  10    -0.142174363574E+02   -0.10277E-04   -0.11188E-06    12   0.458E-03    0.338E-04
RMM:  11    -0.142174390914E+02   -0.27340E-05   -0.23628E-07    11   0.287E-03    0.117E-04
RMM:  12    -0.142174419282E+02   -0.28368E-05   -0.17931E-07    11   0.253E-03    0.149E-04
RMM:  13    -0.142174427300E+02   -0.80182E-06   -0.60777E-08    10   0.157E-03
  16 F= -.14218220E+02 E0= -.14218220E+02  d E =-.180549E-10
       N       E                     dE             d eps       ncg     rms          rms(c)
DAV:   1    -0.142165108463E+02    0.93108E-03   -0.49926E-01    16   0.678E+00    0.197E-01
RMM:   2    -0.142168853718E+02   -0.37453E-03   -0.33927E-03    16   0.588E-01    0.123E-01
RMM:   3    -0.142170671893E+02   -0.18182E-03   -0.26670E-04    16   0.151E-01    0.171E-02
RMM:   4    -0.142170869739E+02   -0.19785E-04   -0.11449E-05    16   0.275E-02    0.762E-03
RMM:   5    -0.142171488208E+02   -0.61847E-04   -0.13609E-05    16   0.234E-02    0.281E-03
RMM:   6    -0.142171895613E+02   -0.40741E-04   -0.35896E-06    14   0.114E-02    0.206E-03
RMM:   7    -0.142172207176E+02   -0.31156E-04   -0.31630E-06    14   0.973E-03    0.138E-03
RMM:   8    -0.142172628366E+02   -0.42119E-04   -0.40407E-06    14   0.948E-03    0.787E-04
RMM:   9    -0.142172747748E+02   -0.11938E-04   -0.96599E-07    12   0.585E-03    0.715E-04
RMM:  10    -0.142172943124E+02   -0.19538E-04   -0.21784E-06    13   0.625E-03    0.405E-04
RMM:  11    -0.142172979243E+02   -0.36119E-05   -0.31180E-07    12   0.367E-03    0.290E-04
RMM:  12    -0.142173026121E+02   -0.46878E-05   -0.19510E-07    11   0.249E-03    0.304E-04
RMM:  13    -0.142173040835E+02   -0.14714E-05   -0.83457E-08    10   0.179E-03    0.101E-04
RMM:  14    -0.142173051584E+02   -0.10749E-05   -0.45558E-08    10   0.172E-03    0.106E-04
RMM:  15    -0.142173055376E+02   -0.37916E-06    0.00000E+00     8   0.127E-03
  17 F= -.14218211E+02 E0= -.14218211E+02  d E =-.847634E-11
       N       E                     dE             d eps       ncg     rms          rms(c)
DAV:   1    -0.142094747614E+02    0.78304E-02   -0.27565E-01    16   0.493E+00    0.233E-01
RMM:   2    -0.142089545164E+02    0.52024E-03   -0.44176E-03    16   0.607E-01    0.121E-01
RMM:   3    -0.142090149941E+02   -0.60478E-04   -0.10215E-03    16   0.228E-01    0.524E-02
RMM:   4    -0.142090265792E+02   -0.11585E-04   -0.30108E-04    16   0.138E-01    0.236E-02
RMM:   5    -0.142090292313E+02   -0.26521E-05   -0.20623E-05    16   0.401E-02    0.779E-03
RMM:   6    -0.142090514761E+02   -0.22245E-04   -0.54094E-05    16   0.531E-02    0.117E-02
RMM:   7    -0.142090569815E+02   -0.55054E-05   -0.14638E-05    16   0.288E-02    0.164E-03
RMM:   8    -0.142090721707E+02   -0.15189E-04   -0.39319E-06    15   0.124E-02    0.167E-03
RMM:   9    -0.142090792841E+02   -0.71134E-05   -0.46068E-07    12   0.435E-03    0.972E-04
RMM:  10    -0.142090897417E+02   -0.10458E-04   -0.10031E-06    12   0.566E-03    0.244E-04
RMM:  11    -0.142090944709E+02   -0.47292E-05   -0.54020E-07    11   0.346E-03    0.383E-04
RMM:  12    -0.142090968607E+02   -0.23897E-05   -0.23726E-07    10   0.248E-03    0.151E-04
RMM:  13    -0.142090984715E+02   -0.16109E-05   -0.14736E-07    11   0.221E-03    0.586E-05
RMM:  14    -0.142090990417E+02   -0.57016E-06   -0.53767E-08    10   0.155E-03
  18 F= -.14210012E+02 E0= -.14210012E+02  d E =-.211030E-11
       N       E                     dE             d eps       ncg     rms          rms(c)
DAV:   1    -0.142107634290E+02   -0.16650E-02   -0.65294E-01    16   0.759E+00    0.445E-01
RMM:   2    -0.142083459012E+02    0.24175E-02   -0.18579E-02    16   0.120E+00    0.235E-01
RMM:   3    -0.142081415842E+02    0.20432E-03   -0.36747E-03    16   0.434E-01    0.991E-02
RMM:   4    -0.142081550877E+02   -0.13503E-04   -0.90619E-04    16   0.242E-01    0.433E-02
RMM:   5    -0.142081739497E+02   -0.18862E-04   -0.61608E-05    16   0.703E-02    0.137E-02
RMM:   6    -0.142082098243E+02   -0.35875E-04   -0.13691E-04    16   0.848E-02    0.170E-02
RMM:   7    -0.142082145253E+02   -0.47010E-05   -0.28700E-05    16   0.413E-02    0.271E-03
RMM:   8    -0.142082331573E+02   -0.18632E-04   -0.67854E-06    15   0.169E-02    0.173E-03
RMM:   9    -0.142082422453E+02   -0.90880E-05   -0.77555E-07    12   0.586E-03    0.137E-03
RMM:  10    -0.142082532207E+02   -0.10975E-04   -0.13696E-06    12   0.696E-03    0.292E-04
RMM:  11    -0.142082584281E+02   -0.52073E-05   -0.81617E-07    12   0.468E-03    0.687E-04
RMM:  12    -0.142082609225E+02   -0.24945E-05   -0.34721E-07    11   0.316E-03    0.273E-04
RMM:  13    -0.142082624490E+02   -0.15264E-05   -0.21786E-07    12   0.288E-03    0.212E-04
RMM:  14    -0.142082629339E+02   -0.48495E-06   -0.61905E-08    10   0.149E-03
  19 F= -.14209033E+02 E0= -.14209033E+02  d E =-.749035E-18
