       N       E                     dE             d eps       ncg     rms          rms(c)
DAV:   1     0.762237593077E+02    0.76224E+02   -0.10536E+03    32   0.307E+02
DAV:   2     0.234788989200E+02   -0.52745E+02   -0.51496E+02    24   0.862E+01
DAV:   3    -0.104079459631E+02   -0.33887E+02   -0.33887E+02    16   0.799E+01
DAV:   4    -0.162246993778E+02   -0.58168E+01   -0.58168E+01    16   0.445E+01
DAV:   5    -0.162780086546E+02   -0.53309E-01   -0.53309E-01    32   0.461E+00    0.796E+00
RMM:   6    -0.143662801515E+02    0.19117E+01   -0.76207E+00    16   0.202E+01    0.316E+00
RMM:   7    -0.142724693026E+02    0.93811E-01   -0.43137E-01    17   0.345E+00    0.216E+00
RMM:   8    -0.142150491444E+02    0.57420E-01   -0.17516E-01    16   0.449E+00    0.629E-01
RMM:   9    -0.141983110089E+02    0.16738E-01   -0.71047E-02    16   0.171E+00    0.142E-01
RMM:  10    -0.142063696978E+02   -0.80587E-02   -0.25789E-02    16   0.908E-01    0.278E-01
RMM:  11    -0.142067055935E+02   -0.33590E-03   -0.53126E-03    16   0.629E-01    0.609E-02
RMM:  12    -0.142138510188E+02   -0.71454E-02   -0.55868E-03    16   0.557E-01    0.113E-01
RMM:  13    -0.142147174502E+02   -0.86643E-03   -0.70725E-04    16   0.184E-01    0.559E-02
RMM:  14    -0.142174694846E+02   -0.27520E-02   -0.38909E-03    16   0.400E-01    0.817E-02
RMM:  15    -0.142173880119E+02    0.81473E-04   -0.12929E-04    16   0.822E-02    0.655E-02
RMM:  16    -0.142179333198E+02   -0.54531E-03   -0.21959E-03    16   0.329E-01    0.514E-02
RMM:  17    -0.142181857877E+02   -0.25247E-03   -0.64310E-05    16   0.505E-02    0.573E-02
RMM:  18    -0.142181738351E+02    0.11953E-04   -0.14674E-04    16   0.865E-02    0.257E-02
RMM:  19    -0.142182595035E+02   -0.85668E-04   -0.25489E-04    16   0.106E-01    0.111E-02
RMM:  20    -0.142182962892E+02   -0.36786E-04   -0.78425E-06    16   0.170E-02    0.136E-02
RMM:  21    -0.142183222237E+02   -0.25934E-04   -0.19841E-05    16   0.298E-02    0.306E-03
RMM:  22    -0.142183333867E+02   -0.11163E-04   -0.34506E-06    15   0.114E-02    0.848E-04
RMM:  23    -0.142183423802E+02   -0.89935E-05   -0.12221E-07    12   0.299E-03    0.353E-04
RMM:  24    -0.142183467468E+02   -0.43666E-05   -0.85265E-08    12   0.210E-03    0.800E-04
RMM:  25    -0.142183495759E+02   -0.28290E-05   -0.28837E-08     9   0.149E-03    0.918E-04
RMM:  26    -0.142183502211E+02   -0.64522E-06   -0.89734E-08    11   0.238E-03
   1 F= -.14219188E+02 E0= -.14219188E+02  d E =-.142192E+02
       N       E                     dE             d eps       ncg     rms          rms(c)
DAV:   1    -0.142177140127E+02    0.63556E-03   -0.86115E-02    24   0.303E+00    0.108E-01
RMM:   2    -0.142175658160E+02    0.14820E-03   -0.19547E-03    16   0.385E-01    0.352E-02
RMM:   3    -0.142175644719E+02    0.13441E-05   -0.96424E-05    16   0.754E-02    0.187E-02
RMM:   4    -0.142175738012E+02   -0.93293E-05   -0.27818E-05    16   0.397E-02    0.431E-03
RMM:   5    -0.142175745116E+02   -0.71036E-06   -0.12724E-06    12   0.101E-02
   2 F= -.14218430E+02 E0= -.14218430E+02  d E =0.757912E-03
       N       E                     dE             d eps       ncg     rms          rms(c)
DAV:   1    -0.142181904008E+02   -0.61660E-03   -0.15227E-02    16   0.127E+00    0.481E-02
RMM:   2    -0.142181649493E+02    0.25452E-04   -0.40137E-04    16   0.184E-01    0.156E-02
RMM:   3    -0.142181654722E+02   -0.52288E-06   -0.24426E-05    16   0.376E-02    0.823E-03
RMM:   4    -0.142181678749E+02   -0.24028E-05   -0.49165E-06    15   0.171E-02    0.236E-03
RMM:   5    -0.142181683759E+02   -0.50098E-06   -0.32475E-07    12   0.519E-03
   3 F= -.14219015E+02 E0= -.14219015E+02  d E =-.585362E-03
       N       E                     dE             d eps       ncg     rms          rms(c)
DAV:   1    -0.142183874681E+02   -0.21959E-03   -0.16163E-02    16   0.131E+00    0.456E-02
RMM:   2    -0.142183689048E+02    0.18563E-04   -0.39290E-04    16   0.182E-01    0.161E-02
RMM:   3    -0.142183678657E+02    0.10390E-05   -0.21650E-05    16   0.359E-02    0.844E-03
RMM:   4    -0.142183690875E+02   -0.12217E-05   -0.47863E-06    15   0.168E-02    0.224E-03
RMM:   5    -0.142183691458E+02   -0.58306E-07   -0.29611E-07    12   0.499E-03
   4 F= -.14219207E+02 E0= -.14219207E+02  d E =-.192179E-03
