!pbe ma-def2-SVP Freq 
%maxcore 3000
%pal
nprocs 4
end
# MECP_BC

*xyz 0 1
  N   0.87771288582166      0.14845932158258     -0.44893047291298
  C   2.36515568626444     -0.19096144963319     -0.66863178490212
  C   0.45275996257644     -0.29615711145378      0.95229678257128
  C   0.05058010720219     -0.65654365278094     -1.46170680941272
  C   3.31004769277432     -0.10038910837637      0.52979778175372
  H   2.70046398964124      0.47674864617123     -1.48791604466544
  H   2.38610835094699     -1.23189727137314     -1.05637489441952
  H   3.27706590372170      0.89505248728599      1.01978215183057
  C   4.75164225936517     -0.38019563791263      0.07187052568602
  H   3.03228942912055     -0.85833414759792      1.29306655954641
  H   5.06393124910966      0.37644870048982     -0.68319759411314
  H   4.77809560197210     -1.35974394657649     -0.45366946889034
  C   5.74506687545297     -0.39440291793347      1.23492301666808
  H   5.76367690115116      0.58039273958720      1.76690819037178
  H   6.77680754954038     -0.60289772996582      0.88679247165208
  H   5.47476548067628     -1.17270497004786      1.97832800987059
  H   1.09129814709587      0.25610283159710      1.66393319563465
  H   0.73896339853065     -1.36366879345967      1.01024264815507
  C   -1.02033585638435     -0.12920279299298      1.30970055199921
  H   -1.36277363823019      0.92175039969163      1.17717088865190
  C   -1.24993356230455     -0.54384078471317      2.77295893282575
  H   -1.64549113226335     -0.78548779575790      0.66959616962242
  H   -0.62507996198496      0.08685225195529      3.44322263660437
  H   -0.88287076334907     -1.58329559060578      2.90762810391842
  C   -2.71848497976214     -0.45261420623784      3.18717721088472
  H   -3.11151636580150      0.58196895434356      3.08841824324117
  H   -2.86155241746547     -0.76172968458168      4.24217531656663
  H   -3.35183069677212     -1.11046144273311      2.55657739212635
  C   0.44905108193842     -0.54657312981377     -2.92922584425676
  H   -0.99726233104816     -0.33208890077212     -1.32135744006896
  H   0.11713853326824     -1.70994375140718     -1.13181281335391
  H   0.42932354988663      0.50622672426980     -3.28860866590808
  C   -0.50764338890552     -1.38774991521017     -3.78939050899391
  H   1.47707297031848     -0.93429294739135     -3.07528373726471
  H   -1.55007024176086     -1.02381315676900     -3.65152918684220
  H   -0.49730903613981     -2.43069474259897     -3.40732122254887
  C   -0.14211144800434     -1.37121369575231     -5.27356969066875
  H   -0.15762450449016     -0.34194664309669     -5.69053587255653
  H   -0.84691894446542     -1.98337151145825     -5.87052673865761
  H   0.87648609521280     -1.77969517525680     -5.43966361133975
  C   0.59745602685703      1.62203755010186     -0.68168422806724
  C   1.29241835359574      2.62842953808339      0.23259970002600
  H   -0.50174549614326      1.72993863583723     -0.61232693609632
  H   0.87813240569205      1.81988740548103     -1.73395816641692
  H   1.10537354393767      2.38662787453457      1.30039007099051
  C   0.81806654084434      4.06903847728782     -0.03955244984213
  H   2.39031527511987      2.57629963530608      0.08414627008420
  C   -0.62063430602529      4.36710530124028      0.39551462662750
  H   0.94168475204471      4.30150353360399     -1.12084620336030
  H   1.50668303804039      4.75828845969660      0.49167255736864
  H   -1.36884951175298      3.76152026566865     -0.15563908594889
  H   -0.87809390540132      5.43059274578182      0.21797445756762
  H   -0.76298940006317      4.16725361504621      1.47855424826495
  F   0.95761647129018     -3.50457344532634      0.49954342494161
  C   -2.42445876260995     -4.29846135550840      0.39631770135090
  C   -2.00633852078087     -5.49243375757339     -0.48346109521928
  O   -1.60368861459227     -3.16413385839214      0.10253873623087
  C   -2.29647763812852     -4.66576785301170      1.88743373825811
  C   -3.86483483696217     -3.87817419133173      0.07265060408457
  H   -0.63938537966481     -3.38812567030776      0.28984822271644
  C   1.48125346965284     -4.42525394119325      4.07444218021124
  H   1.72950445942074     -3.07140596448042      1.83482952062357
  C   2.65387828328751     -3.57150341122748      3.55534067043785
  O   2.17553865362210     -2.60936307828092      2.61280901825421
  C   3.71317625999995     -4.47645305537106      2.89720625454268
  C   3.27897985636251     -2.76699968833613      4.70289469446169
  H   1.69412918010534     -3.45458732074234     -0.87546708363955
  O   2.10562444279013     -3.24165666041951     -1.77898283819602
  C   4.10861155086130     -4.56060137157889     -1.36894602585289
  C   2.86269169002936     -4.35971943661191     -2.25314633247093
  C   1.98711932234254     -5.62623114379521     -2.23534875283217
  C   3.28143813698879     -4.01738060583676     -3.69002727650721
  H   3.26734295552427     -5.04439178118880      2.05487085293656
  H   4.13585971785453     -5.20789216434097      3.61728809779170
  H   4.54484525569125     -3.86472792412113      2.49300259029455
  H   1.01617247698620     -4.98778607378987      3.23952149186842
  H   0.70278672584241     -3.77618113985664      4.52413067875995
  H   1.81237354939190     -5.15639595678207      4.84115112286894
  H   4.10458401177725     -2.13081238293388      4.32322121662115
  H   3.68590880744175     -3.43378490317483      5.48923776063944
  H   2.52079362571320     -2.10228794248524      5.16420901505301
  H   4.72933285985226     -5.41194909018540     -1.71883764397483
  H   3.81159157350656     -4.75809749373006     -0.31919209704303
  H   4.73635091122452     -3.64610081009442     -1.37752459284747
  H   3.88976542750621     -4.82889165503668     -4.13838362343346
  H   3.88290951272354     -3.08507377757618     -3.70366642498252
  H   2.38574189258533     -3.86117216985476     -4.32486495471319
  H   2.53670145678394     -6.50713028140337     -2.62666656835555
  H   1.08015563470138     -5.47703578529572     -2.85483774173604
  H   1.66120096174641     -5.85445393967361     -1.20069394155532
  H   -3.95164810654461     -3.59494024081749     -0.99565249732605
  H   -4.15692463500269     -3.00062630567573      0.68512115530080
  H   -4.58051159095239     -4.69960711252408      0.27811122194977
  H   -1.24560876537365     -4.92091289188294      2.13370665294737
  H   -2.93268637646035     -5.53540291336445      2.15326780414063
  H   -2.59645780863451     -3.80728322292915      2.52255872063461
  H   -2.07915193529022     -5.22174479727199     -1.55641009110532
  H   -2.64842049427600     -6.37918404100491     -0.30091367220268
  H   -0.95566741753539     -5.77913088406369     -0.27422913352956
*
