   Si     O     C     P     F     H  
  1.00000 
    9.6428956985473633       -0.0698399990797043       0.0095514878630638    
    -4.9205579757690430       10.4690599441528320       0.0383653603494167    
    -1.0509933233261108       0.0436068475246429       9.7063121795654297    
   Si     O     C     P     F     H   
   16     33     10     1     1     26   
Direct 
    0.1125495210289955    0.7471845149993896    0.8214763998985291 
    0.1293904781341553    0.7667909860610962    0.1293029189109802 
    0.4757603704929352    0.4689261913299561    0.1563149988651276 
    0.4552391171455383    0.4482953548431396    0.8404089808464050 
    0.2661946117877960    0.2422896474599838    0.6146764159202576 
    0.4662292003631592    0.2616744637489319    0.3736002445220947 
    0.3168172538280487    0.9727897047996521    0.3603810071945190 
    0.1212659552693367    0.9537698626518250    0.6015213131904602 
    0.2973802387714386    0.6212678551673889    0.7175270915031433 
    0.8246260285377502    0.6486399173736572    0.2750523686408997 
    0.2731173932552338    0.5902659296989441    0.2543311417102814 
    0.7653843760490417    0.5603416562080383    0.7033411860466003 
    0.1362307071685791    0.4161976277828217    0.4947916269302368 
    0.8196116685867310    0.4233195781707764    0.4675802886486053 
    0.4661070108413696    0.8028452992439270    0.4854294657707214 
    0.7758388519287109    0.7864901423454285    0.5099576115608215 
    0.2215788364410400    0.6725310087203979    0.8290857672691345 
    0.9541369080543518    0.7218265533447266    0.1684710383415222 
    0.3816730976104736    0.5551297068595886    0.1637986153364182 
    0.6333413124084473    0.4915347993373871    0.8085435628890991 
    0.1365388929843903    0.8154076933860779    0.9695826172828674 
    0.4448507428169250    0.4102322459220886    0.0030318857170641 
    0.1684977710247040    0.8583577275276184    0.7035685181617737 
    0.2497832030057907    0.8884011507034302    0.2213394492864609 
    0.4142088294029236    0.3497136533260345    0.2643428146839142 
    0.3394959568977356    0.3191891014575958    0.7584780454635620 
    0.9306069612503052    0.6511694192886353    0.7924644947052002 
    0.1766313910484314    0.6478892564773560    0.1459601968526840 
    0.6599283814430237    0.5568066239356995    0.1872893571853638 
    0.4057848751544952    0.5650461912155151    0.8092727065086365 
    0.1290986239910126    0.2731068134307861    0.5353347063064575 
    0.6523526906967163    0.3156731724739075    0.3901997208595276 
    0.4402076005935669    0.9324064254760742    0.4526622593402863 
    0.9350965023040771    0.9019458889961243    0.5857712626457214 
    0.1979514956474304    0.0948410332202911    0.6683600544929504 
    0.3952935338020325    0.1178678199648857    0.3083856701850891 
    0.4040910601615906    0.2570366561412811    0.5216085314750671 
    0.1743958741426468    0.9520869255065918    0.4492814540863037 
    0.4073700010776520    0.7476126551628113    0.6328100562095642 
    0.8058929443359375    0.7602562308311462    0.3561194837093353 
    0.1507119983434677    0.4666503667831421    0.3298079371452332 
    0.7857848405838013    0.4569060504436493    0.6189867258071899 
    0.1540574282407761    0.5197229981422424    0.6208697557449341 
    0.8795609474182129    0.5602320432662964    0.3810116350650787 
    0.3822383582592010    0.7055978775024414    0.3588956296443939 
    0.7156993746757507    0.6544861793518066    0.6000588536262512 
    0.9370074868202209    0.3591283559799194    0.4758236706256866 
    0.6506620049476624    0.8452820777893066    0.4948445260524750 
    0.5914492011070251    0.5240394473075867    0.4787559807300568 
    0.9061114192008972    0.2851346433162689    0.0396165065467358 
    0.6116250753402710    0.0725401341915131    0.9025133252143860 
    0.8941821455955505    0.0327667333185673    0.9748470783233643 
    0.7177112102508545    0.0534718334674835    0.1945532262325287 
    0.8205851316452026    0.3659239709377289    0.0649455040693283 
    0.0100503489375114    0.3400674164295197    0.9216993451118469 
    0.6453339457511902    0.1231194660067558    0.7543405890464783 
    0.4790461957454681    0.1042766645550728    0.9477505683898926 
    0.0320646464824677    0.0539366938173771    0.0814092829823494 
    0.7903977036476135    0.8899390697479248    0.9488707184791565 
    0.7719964385032654    0.1075705885887146    0.0226886216551065 
    0.3453333377838135    0.4805472195148468    0.5181658267974854 
    0.0948379859328270    0.1521099060773849    0.1002329736948013 
    0.9935908317565918    0.0031570941209793    0.1783963441848755 
    0.1049977838993073    0.0154398810118437    0.0406378582119942 
    0.9384334683418274    0.0785427987575531    0.8768393993377686 
    0.9790845513343811    0.2862370014190674    0.1353147923946381 
    0.9445652961730957    0.3425850868225098    0.8234754204750061 
    0.0786061286926270    0.2876345515251160    0.9066033363342285 
    0.0911206528544426    0.4393992424011230    0.9471564888954163 
    0.7402228116989136    0.3201367855072021    0.1483559906482697 
    0.7503619790077209    0.3703070878982544    0.9722799658775330 
    0.9071065783500671    0.4616880118846893    0.0966834649443626 
    0.6394376754760742    0.9509193301200867    0.1905944794416428 
    0.6472826004028320    0.1028613075613976    0.2257475554943085 
    0.8209639191627502    0.0755165740847588    0.2679916918277740 
    0.5629011988639832    0.9669167399406433    0.8985630869865417 
    0.3879230618476868    0.0731989294290543    0.8755981326103210 
    0.4503556787967682    0.0632770359516144    0.0509869754314423 
    0.5194694399833679    0.2080175131559372    0.9564062356948853 
    0.7354482412338257    0.1013642624020576    0.7182613611221313 
    0.5526248216629028    0.0837694928050041    0.6847054958343506 
    0.6841393709182739    0.2273453176021576    0.7500158548355103 
    0.7000117897987366    0.8672858476638794    0.8619596958160400 
    0.7277915477752686    0.8347478508949280    0.0407999642193317 
    0.8623691201210022    0.8426024317741394    0.9263289570808411 
    0.5148013830184937    0.5527653098106384    0.4472326040267944 
    0.5526680946350098    0.4636909067630768    0.5510790348052979 
