       N       E                     dE             d eps       ncg     rms          rms(c)
DAV:   1    -0.819773669796E+03   -0.81977E+03   -0.10356E-03  4296   0.261E-01    0.527E-01
RMM:   2    -0.819884962874E+03   -0.11129E+00   -0.65949E-02  2884   0.471E-01    0.493E+00
RMM:   3    -0.819778713819E+03    0.10625E+00   -0.38040E-02  2894   0.393E-01    0.118E+00
RMM:   4    -0.819772223763E+03    0.64901E-02   -0.40731E-03  2896   0.103E-01    0.175E-01
RMM:   5    -0.819772530677E+03   -0.30691E-03   -0.66433E-04  2895   0.406E-02    0.243E-01
RMM:   6    -0.819772397629E+03    0.13305E-03   -0.16559E-04  2895   0.233E-02    0.154E-01
RMM:   7    -0.819772316225E+03    0.81404E-04   -0.58363E-05  2884   0.146E-02    0.267E-02
RMM:   8    -0.819772322879E+03   -0.66538E-05   -0.10803E-05  2857   0.548E-03    0.353E-02
RMM:   9    -0.819772321299E+03    0.15792E-05   -0.28678E-06  1860   0.346E-03    0.271E-02
RMM:  10    -0.819772321119E+03    0.18037E-06   -0.14878E-06  1571   0.250E-03
   1 F= -.81977232E+03 E0= -.81970174E+03  d E =-.282312E+00  mag=   202.2060
       N       E                     dE             d eps       ncg     rms          rms(c)
DAV:   1    -0.819768142951E+03    0.41783E-02   -0.21721E+00  2880   0.132E+00    0.244E-01
RMM:   2    -0.819772307192E+03   -0.41642E-02   -0.41073E-02  2896   0.223E-01    0.342E-01
RMM:   3    -0.819772703848E+03   -0.39666E-03   -0.35920E-03  2893   0.858E-02    0.438E-01
RMM:   4    -0.819772448110E+03    0.25574E-03   -0.94681E-04  2914   0.524E-02    0.309E-01
RMM:   5    -0.819772304110E+03    0.14400E-03   -0.39933E-04  2909   0.365E-02    0.244E-01
RMM:   6    -0.819772864813E+03   -0.56070E-03   -0.65183E-04  2894   0.452E-02    0.442E-01
RMM:   7    -0.819772121508E+03    0.74330E-03   -0.48205E-04  2905   0.418E-02    0.195E-01
RMM:   8    -0.819772072157E+03    0.49350E-04   -0.24930E-04  2894   0.292E-02    0.152E-01
RMM:   9    -0.819772062178E+03    0.99791E-05   -0.10999E-04  2896   0.198E-02    0.127E-01
RMM:  10    -0.819771999644E+03    0.62535E-04   -0.44590E-05  2884   0.135E-02    0.250E-02
RMM:  11    -0.819772008174E+03   -0.85303E-05   -0.10520E-05  2849   0.568E-03    0.369E-02
RMM:  12    -0.819772007022E+03    0.11517E-05   -0.39335E-06  2205   0.404E-03    0.103E-02
RMM:  13    -0.819772012058E+03   -0.50363E-05   -0.26189E-06  1745   0.311E-03    0.199E-02
RMM:  14    -0.819772020163E+03   -0.81044E-05   -0.21863E-06  1637   0.298E-03    0.101E-02
RMM:  15    -0.819772022332E+03   -0.21693E-05   -0.91531E-07  1521   0.198E-03    0.837E-03
RMM:  16    -0.819772026460E+03   -0.41277E-05   -0.39161E-07  1523   0.130E-03    0.478E-03
RMM:  17    -0.819772027310E+03   -0.85012E-06   -0.12819E-07  1487   0.737E-04
   2 F= -.81977203E+03 E0= -.81970168E+03  d E =-.281389E+00  mag=   202.2120
       N       E                     dE             d eps       ncg     rms          rms(c)
DAV:   1    -0.819754143059E+03    0.17883E-01   -0.86320E+00  2880   0.264E+00    0.489E-01
RMM:   2    -0.819772900116E+03   -0.18757E-01   -0.18527E-01  2894   0.446E-01    0.647E-01
RMM:   3    -0.819775180884E+03   -0.22808E-02   -0.16561E-02  2894   0.174E-01    0.933E-01
RMM:   4    -0.819772993604E+03    0.21873E-02   -0.44841E-03  2926   0.112E-01    0.522E-01
RMM:   5    -0.819772997062E+03   -0.34576E-05   -0.19676E-03  2924   0.819E-02    0.521E-01
RMM:   6    -0.819774718641E+03   -0.17216E-02   -0.24842E-03  2899   0.888E-02    0.810E-01
RMM:   7    -0.819772513843E+03    0.22048E-02   -0.18415E-03  2900   0.832E-02    0.320E-01
RMM:   8    -0.819772691116E+03   -0.17727E-03   -0.69618E-04  2900   0.454E-02    0.384E-01
RMM:   9    -0.819772242541E+03    0.44858E-03   -0.42859E-04  2900   0.388E-02    0.241E-01
RMM:  10    -0.819771992604E+03    0.24994E-03   -0.16871E-04  2895   0.258E-02    0.478E-02
RMM:  11    -0.819772021749E+03   -0.29145E-04   -0.42091E-05  2899   0.113E-02    0.749E-02
RMM:  12    -0.819772006494E+03    0.15255E-04   -0.17557E-05  2876   0.830E-03    0.185E-02
RMM:  13    -0.819772027461E+03   -0.20966E-04   -0.14573E-05  2877   0.673E-03    0.485E-02
RMM:  14    -0.819772040302E+03   -0.12842E-04   -0.10677E-05  2834   0.596E-03    0.208E-02
RMM:  15    -0.819772045677E+03   -0.53747E-05   -0.30091E-06  1834   0.330E-03    0.215E-02
RMM:  16    -0.819772055808E+03   -0.10131E-04   -0.17437E-06  1588   0.274E-03    0.152E-02
RMM:  17    -0.819772058036E+03   -0.22274E-05   -0.75504E-07  1509   0.194E-03    0.387E-03
RMM:  18    -0.819772064408E+03   -0.63723E-05   -0.28942E-07  1513   0.950E-04    0.635E-03
RMM:  19    -0.819772069999E+03   -0.55913E-05   -0.20409E-07  1510   0.953E-04    0.255E-03
RMM:  20    -0.819772077533E+03   -0.75339E-05   -0.15749E-07  1522   0.597E-04    0.419E-03
RMM:  21    -0.819772090050E+03   -0.12517E-04   -0.26997E-07  1549   0.719E-04    0.214E-03
RMM:  22    -0.819772098047E+03   -0.79968E-05   -0.18770E-07  1520   0.556E-04    0.341E-03
RMM:  23    -0.819772105623E+03   -0.75755E-05   -0.17889E-07  1525   0.586E-04    0.150E-03
RMM:  24    -0.819772109876E+03   -0.42531E-05   -0.10059E-07  1383   0.411E-04    0.228E-03
RMM:  25    -0.819772115412E+03   -0.55358E-05   -0.14104E-07  1433   0.445E-04    0.950E-04
RMM:  26    -0.819772118433E+03   -0.30217E-05   -0.89605E-08  1281   0.359E-04    0.179E-03
RMM:  27    -0.819772120533E+03   -0.20995E-05   -0.73904E-08  1204   0.366E-04    0.732E-04
RMM:  28    -0.819772121580E+03   -0.10475E-05   -0.44892E-08   799   0.290E-04    0.111E-03
RMM:  29    -0.819772121965E+03   -0.38433E-06   -0.20383E-08   587   0.262E-04
   3 F= -.81977212E+03 E0= -.81970128E+03  d E =-.283360E+00  mag=   202.1966
       N       E                     dE             d eps       ncg     rms          rms(c)
DAV:   1    -0.819763994024E+03    0.81276E-02   -0.43376E+00  2880   0.188E+00    0.366E-01
RMM:   2    -0.819772194696E+03   -0.82007E-02   -0.80179E-02  2893   0.299E-01    0.492E-01
RMM:   3    -0.819773406262E+03   -0.12116E-02   -0.77696E-03  2894   0.125E-01    0.676E-01
RMM:   4    -0.819774695860E+03   -0.12896E-02   -0.24956E-03  2915   0.853E-02    0.749E-01
RMM:   5    -0.819771845873E+03    0.28500E-02   -0.11530E-03  2913   0.628E-02    0.265E-01
RMM:   6    -0.819773227043E+03   -0.13812E-02   -0.15080E-03  2898   0.689E-02    0.652E-01
RMM:   7    -0.819771704491E+03    0.15226E-02   -0.10260E-03  2901   0.625E-02    0.243E-01
RMM:   8    -0.819771722687E+03   -0.18196E-04   -0.53420E-04  2896   0.425E-02    0.231E-01
RMM:   9    -0.819771611495E+03    0.11119E-03   -0.21035E-04  2898   0.278E-02    0.148E-01
RMM:  10    -0.819771532008E+03    0.79486E-04   -0.82264E-05  2888   0.181E-02    0.432E-02
RMM:  11    -0.819771549190E+03   -0.17182E-04   -0.22461E-05  2882   0.845E-03    0.629E-02
RMM:  12    -0.819771538268E+03    0.10922E-04   -0.11099E-05  2828   0.675E-03    0.129E-02
RMM:  13    -0.819771548611E+03   -0.10343E-04   -0.63315E-06  2638   0.447E-03    0.324E-02
RMM:  14    -0.819771556530E+03   -0.79195E-05   -0.37978E-06  2065   0.388E-03    0.152E-02
RMM:  15    -0.819771559517E+03   -0.29867E-05   -0.13663E-06  1566   0.233E-03    0.133E-02
RMM:  16    -0.819771568049E+03   -0.85326E-05   -0.93608E-07  1566   0.193E-03    0.104E-02
RMM:  17    -0.819771570265E+03   -0.22156E-05   -0.42658E-07  1504   0.146E-03    0.303E-03
RMM:  18    -0.819771576910E+03   -0.66452E-05   -0.19834E-07  1526   0.743E-04    0.496E-03
RMM:  19    -0.819771581558E+03   -0.46473E-05   -0.14020E-07  1508   0.766E-04    0.195E-03
RMM:  20    -0.819771588627E+03   -0.70693E-05   -0.11585E-07  1472   0.448E-04    0.304E-03
RMM:  21    -0.819771596528E+03   -0.79015E-05   -0.13592E-07  1489   0.527E-04    0.150E-03
RMM:  22    -0.819771604836E+03   -0.83073E-05   -0.16651E-07  1482   0.432E-04    0.253E-03
RMM:  23    -0.819771611407E+03   -0.65709E-05   -0.14607E-07  1446   0.470E-04    0.110E-03
RMM:  24    -0.819771615767E+03   -0.43606E-05   -0.99990E-08  1149   0.351E-04    0.169E-03
RMM:  25    -0.819771620234E+03   -0.44663E-05   -0.12451E-07  1170   0.357E-04    0.787E-04
RMM:  26    -0.819771623202E+03   -0.29685E-05   -0.97464E-08  1070   0.333E-04    0.126E-03
RMM:  27    -0.819771625227E+03   -0.20251E-05   -0.83288E-08   960   0.323E-04    0.560E-04
RMM:  28    -0.819771626385E+03   -0.11580E-05   -0.71623E-08   926   0.305E-04    0.848E-04
RMM:  29    -0.819771626876E+03   -0.49105E-06   -0.32599E-08   644   0.271E-04
   4 F= -.81977163E+03 E0= -.81970102E+03  d E =-.282427E+00  mag=   202.1998
       N       E                     dE             d eps       ncg     rms          rms(c)
DAV:   1    -0.819755005342E+03    0.16621E-01   -0.87806E+00  2880   0.264E+00    0.451E-01
RMM:   2    -0.819772931913E+03   -0.17927E-01   -0.17245E-01  2892   0.436E-01    0.690E-01
RMM:   3    -0.819773690550E+03   -0.75864E-03   -0.12964E-02  2892   0.153E-01    0.692E-01
RMM:   4    -0.819778898414E+03   -0.52079E-02   -0.39876E-03  2928   0.999E-02    0.112E+00
RMM:   5    -0.819771841200E+03    0.70572E-02   -0.23603E-03  2921   0.910E-02    0.303E-01
RMM:   6    -0.819774680007E+03   -0.28388E-02   -0.29461E-03  2894   0.967E-02    0.902E-01
RMM:   7    -0.819771973008E+03    0.27070E-02   -0.19333E-03  2901   0.859E-02    0.363E-01
RMM:   8    -0.819771841982E+03    0.13103E-03   -0.95474E-04  2896   0.568E-02    0.284E-01
RMM:   9    -0.819771767495E+03    0.74487E-04   -0.32411E-04  2897   0.347E-02    0.213E-01
RMM:  10    -0.819771599352E+03    0.16814E-03   -0.13239E-04  2893   0.232E-02    0.373E-02
RMM:  11    -0.819771617151E+03   -0.17799E-04   -0.31375E-05  2893   0.977E-03    0.648E-02
RMM:  12    -0.819771610441E+03    0.67097E-05   -0.13659E-05  2870   0.720E-03    0.214E-02
RMM:  13    -0.819771620610E+03   -0.10169E-04   -0.10945E-05  2858   0.586E-03    0.423E-02
RMM:  14    -0.819771628310E+03   -0.76999E-05   -0.89553E-06  2739   0.517E-03    0.200E-02
RMM:  15    -0.819771631259E+03   -0.29489E-05   -0.26833E-06  1712   0.315E-03    0.176E-02
RMM:  16    -0.819771637717E+03   -0.64576E-05   -0.15842E-06  1581   0.255E-03    0.162E-02
RMM:  17    -0.819771639487E+03   -0.17703E-05   -0.80221E-07  1514   0.204E-03    0.390E-03
RMM:  18    -0.819771643736E+03   -0.42486E-05   -0.25549E-07  1511   0.883E-04    0.578E-03
RMM:  19    -0.819771648110E+03   -0.43741E-05   -0.18832E-07  1511   0.873E-04    0.246E-03
RMM:  20    -0.819771653257E+03   -0.51474E-05   -0.13185E-07  1504   0.513E-04    0.363E-03
RMM:  21    -0.819771661571E+03   -0.83137E-05   -0.21264E-07  1525   0.594E-04    0.224E-03
RMM:  22    -0.819771667566E+03   -0.59951E-05   -0.16190E-07  1474   0.468E-04    0.294E-03
RMM:  23    -0.819771675353E+03   -0.77869E-05   -0.23296E-07  1489   0.497E-04    0.146E-03
RMM:  24    -0.819771680137E+03   -0.47841E-05   -0.14356E-07  1302   0.386E-04    0.199E-03
RMM:  25    -0.819771685388E+03   -0.52516E-05   -0.18064E-07  1286   0.420E-04    0.101E-03
RMM:  26    -0.819771689420E+03   -0.40320E-05   -0.16839E-07  1303   0.370E-04    0.167E-03
RMM:  27    -0.819771692226E+03   -0.28059E-05   -0.13661E-07  1242   0.382E-04    0.794E-04
RMM:  28    -0.819771694140E+03   -0.19134E-05   -0.11624E-07  1005   0.323E-04    0.120E-03
RMM:  29    -0.819771695070E+03   -0.93054E-06   -0.67079E-08   849   0.305E-04
   5 F= -.81977170E+03 E0= -.81970112E+03  d E =-.282316E+00  mag=   202.2119
       N       E                     dE             d eps       ncg     rms          rms(c)
DAV:   1    -0.819761137917E+03    0.10556E-01   -0.43972E+00  2880   0.188E+00    0.389E-01
RMM:   2    -0.819770488540E+03   -0.93506E-02   -0.96766E-02  2899   0.315E-01    0.362E-01
RMM:   3    -0.819773753829E+03   -0.32653E-02   -0.10264E-02  2900   0.150E-01    0.933E-01
RMM:   4    -0.819770987841E+03    0.27660E-02   -0.37803E-03  2928   0.112E-01    0.388E-01
RMM:   5    -0.819771073850E+03   -0.86009E-04   -0.87683E-04  2928   0.514E-02    0.381E-01
RMM:   6    -0.819772204722E+03   -0.11309E-02   -0.10991E-03  2900   0.585E-02    0.631E-01
RMM:   7    -0.819770529357E+03    0.16754E-02   -0.79689E-04  2902   0.543E-02    0.225E-01
RMM:   8    -0.819770597452E+03   -0.68094E-04   -0.58007E-04  2896   0.437E-02    0.244E-01
RMM:   9    -0.819770438979E+03    0.15847E-03   -0.21056E-04  2896   0.288E-02    0.115E-01
RMM:  10    -0.819770397086E+03    0.41893E-04   -0.51356E-05  2892   0.141E-02    0.328E-02
RMM:  11    -0.819770406276E+03   -0.91900E-05   -0.14599E-05  2882   0.674E-03    0.483E-02
RMM:  12    -0.819770401692E+03    0.45837E-05   -0.81660E-06  2749   0.560E-03    0.136E-02
RMM:  13    -0.819770410667E+03   -0.89750E-05   -0.53080E-06  2483   0.407E-03    0.309E-02
RMM:  14    -0.819770414094E+03   -0.34264E-05   -0.36236E-06  1938   0.378E-03    0.129E-02
RMM:  15    -0.819770417068E+03   -0.29744E-05   -0.14786E-06  1569   0.232E-03    0.153E-02
RMM:  16    -0.819770422589E+03   -0.55214E-05   -0.11330E-06  1574   0.209E-03    0.953E-03
RMM:  17    -0.819770423841E+03   -0.12521E-05   -0.40264E-07  1507   0.136E-03    0.328E-03
RMM:  18    -0.819770427941E+03   -0.40992E-05   -0.21636E-07  1525   0.736E-04    0.441E-03
RMM:  19    -0.819770430179E+03   -0.22382E-05   -0.13045E-07  1501   0.718E-04    0.171E-03
RMM:  20    -0.819770436387E+03   -0.62085E-05   -0.23743E-07  1528   0.517E-04    0.325E-03
RMM:  21    -0.819770440608E+03   -0.42209E-05   -0.18779E-07  1522   0.595E-04    0.165E-03
RMM:  22    -0.819770446446E+03   -0.58382E-05   -0.28567E-07  1509   0.484E-04    0.270E-03
RMM:  23    -0.819770449435E+03   -0.29884E-05   -0.15326E-07  1461   0.503E-04    0.116E-03
RMM:  24    -0.819770452390E+03   -0.29558E-05   -0.12622E-07  1198   0.351E-04    0.164E-03
RMM:  25    -0.819770454091E+03   -0.17004E-05   -0.69831E-08  1099   0.334E-04    0.730E-04
RMM:  26    -0.819770456239E+03   -0.21484E-05   -0.96636E-08   997   0.314E-04    0.121E-03
RMM:  27    -0.819770457313E+03   -0.10735E-05   -0.45474E-08   814   0.291E-04    0.556E-04
RMM:  28    -0.819770458411E+03   -0.10985E-05   -0.62091E-08   817   0.282E-04    0.835E-04
RMM:  29    -0.819770458832E+03   -0.42039E-06   -0.18059E-08   460   0.244E-04
   6 F= -.81977046E+03 E0= -.81969978E+03  d E =-.282723E+00  mag=   202.2250
       N       E                     dE             d eps       ncg     rms          rms(c)
DAV:   1    -0.819753985665E+03    0.16473E-01   -0.88515E+00  2880   0.269E+00    0.548E-01
RMM:   2    -0.819770949513E+03   -0.16964E-01   -0.17634E-01  2906   0.421E-01    0.525E-01
RMM:   3    -0.819780893381E+03   -0.99439E-02   -0.15187E-02  2910   0.186E-01    0.142E+00
RMM:   4    -0.819776991156E+03    0.39022E-02   -0.57855E-03  2917   0.133E-01    0.118E+00
RMM:   5    -0.819770387964E+03    0.66032E-02   -0.43132E-03  2899   0.122E-01    0.395E-01
RMM:   6    -0.819773639306E+03   -0.32513E-02   -0.31560E-03  2898   0.101E-01    0.983E-01
RMM:   7    -0.819770112452E+03    0.35269E-02   -0.20304E-03  2901   0.893E-02    0.281E-01
RMM:   8    -0.819770248807E+03   -0.13635E-03   -0.94772E-04  2898   0.563E-02    0.297E-01
RMM:   9    -0.819770039924E+03    0.20888E-03   -0.33512E-04  2896   0.341E-02    0.177E-01
RMM:  10    -0.819769923815E+03    0.11611E-03   -0.11608E-04  2897   0.210E-02    0.518E-02
RMM:  11    -0.819769948378E+03   -0.24563E-04   -0.40868E-05  2891   0.115E-02    0.829E-02
RMM:  12    -0.819769924360E+03    0.24018E-04   -0.20941E-05  2872   0.904E-03    0.202E-02
RMM:  13    -0.819769941517E+03   -0.17157E-04   -0.11234E-05  2857   0.583E-03    0.439E-02
RMM:  14    -0.819769944156E+03   -0.26392E-05   -0.68662E-06  2684   0.504E-03    0.123E-02
RMM:  15    -0.819769965444E+03   -0.21288E-04   -0.42209E-06  2223   0.361E-03    0.262E-02
RMM:  16    -0.819769985726E+03   -0.20282E-04   -0.26125E-06  1715   0.324E-03    0.996E-03
RMM:  17    -0.819769994660E+03   -0.89332E-05   -0.72444E-07  1560   0.156E-03    0.910E-03
RMM:  18    -0.819770026519E+03   -0.31859E-04   -0.95098E-07  1616   0.143E-03    0.987E-03
RMM:  19    -0.819770043687E+03   -0.17169E-04   -0.62680E-07  1573   0.143E-03    0.507E-03
RMM:  20    -0.819770090015E+03   -0.46328E-04   -0.16626E-06  1718   0.129E-03    0.927E-03
RMM:  21    -0.819770120508E+03   -0.30493E-04   -0.13909E-06  1657   0.153E-03    0.432E-03
RMM:  22    -0.819770149814E+03   -0.29306E-04   -0.15289E-06  1695   0.117E-03    0.654E-03
RMM:  23    -0.819770165774E+03   -0.15960E-04   -0.90124E-07  1621   0.119E-03    0.234E-03
RMM:  24    -0.819770179030E+03   -0.13256E-04   -0.70673E-07  1611   0.783E-04    0.401E-03
RMM:  25    -0.819770186110E+03   -0.70793E-05   -0.37782E-07  1576   0.815E-04    0.175E-03
RMM:  26    -0.819770194020E+03   -0.79099E-05   -0.43003E-07  1547   0.550E-04    0.254E-03
RMM:  27    -0.819770197122E+03   -0.31025E-05   -0.18204E-07  1499   0.576E-04    0.122E-03
RMM:  28    -0.819770200924E+03   -0.38015E-05   -0.24157E-07  1345   0.408E-04    0.170E-03
RMM:  29    -0.819770201924E+03   -0.10003E-05   -0.71403E-08  1198   0.384E-04    0.738E-04
RMM:  30    -0.819770203294E+03   -0.13703E-05   -0.83234E-08   881   0.298E-04    0.108E-03
RMM:  31    -0.819770203739E+03   -0.44474E-06   -0.28579E-08   684   0.270E-04
   7 F= -.81977020E+03 E0= -.81969970E+03  d E =-.281996E+00  mag=   202.1843
       N       E                     dE             d eps       ncg     rms          rms(c)
DAV:   1    -0.819767826883E+03    0.23764E-02   -0.23134E+00  2880   0.134E+00    0.316E-01
RMM:   2    -0.819774024528E+03   -0.61976E-02   -0.59955E-02  2903   0.261E-01    0.504E-01
RMM:   3    -0.819775591312E+03   -0.15668E-02   -0.53197E-03  2906   0.113E-01    0.731E-01
RMM:   4    -0.819775628735E+03   -0.37423E-04   -0.22206E-03  2912   0.797E-02    0.786E-01
RMM:   5    -0.819772723355E+03    0.29054E-02   -0.16840E-03  2901   0.749E-02    0.159E-01
RMM:   6    -0.819773629022E+03   -0.90567E-03   -0.11501E-03  2894   0.601E-02    0.514E-01
RMM:   7    -0.819772654500E+03    0.97452E-03   -0.71426E-04  2898   0.525E-02    0.165E-01
RMM:   8    -0.819772796852E+03   -0.14235E-03   -0.35624E-04  2900   0.343E-02    0.244E-01
RMM:   9    -0.819772616273E+03    0.18058E-03   -0.16793E-04  2893   0.245E-02    0.127E-01
RMM:  10    -0.819772565179E+03    0.51093E-04   -0.50533E-05  2891   0.137E-02    0.240E-02
RMM:  11    -0.819772590126E+03   -0.24947E-04   -0.19614E-05  2881   0.768E-03    0.537E-02
RMM:  12    -0.819772594611E+03   -0.44847E-05   -0.10064E-05  2824   0.622E-03    0.138E-02
RMM:  13    -0.819772618824E+03   -0.24214E-04   -0.53667E-06  2449   0.399E-03    0.292E-02
RMM:  14    -0.819772638359E+03   -0.19535E-04   -0.37956E-06  1934   0.369E-03    0.909E-03
RMM:  15    -0.819772655518E+03   -0.17159E-04   -0.18809E-06  1606   0.236E-03    0.176E-02
RMM:  16    -0.819772680588E+03   -0.25070E-04   -0.19635E-06  1640   0.229E-03    0.104E-02
RMM:  17    -0.819772687003E+03   -0.64155E-05   -0.54435E-07  1540   0.133E-03    0.498E-03
RMM:  18    -0.819772706379E+03   -0.19375E-04   -0.70361E-07  1578   0.106E-03    0.695E-03
RMM:  19    -0.819772720314E+03   -0.13936E-04   -0.55273E-07  1562   0.114E-03    0.351E-03
RMM:  20    -0.819772746313E+03   -0.25998E-04   -0.12424E-06  1624   0.968E-04    0.597E-03
RMM:  21    -0.819772761293E+03   -0.14980E-04   -0.81052E-07  1590   0.110E-03    0.318E-03
RMM:  22    -0.819772777742E+03   -0.16449E-04   -0.10087E-06  1612   0.855E-04    0.421E-03
RMM:  23    -0.819772785159E+03   -0.74174E-05   -0.45390E-07  1574   0.828E-04    0.168E-03
RMM:  24    -0.819772793000E+03   -0.78409E-05   -0.44062E-07  1550   0.583E-04    0.278E-03
RMM:  25    -0.819772796783E+03   -0.37825E-05   -0.20703E-07  1507   0.584E-04    0.124E-03
RMM:  26    -0.819772801348E+03   -0.45656E-05   -0.24258E-07  1342   0.411E-04    0.171E-03
RMM:  27    -0.819772802818E+03   -0.14695E-05   -0.75472E-08  1229   0.387E-04    0.830E-04
RMM:  28    -0.819772805070E+03   -0.22526E-05   -0.10487E-07   945   0.308E-04    0.104E-03
RMM:  29    -0.819772805693E+03   -0.62253E-06   -0.27537E-08   695   0.273E-04
   8 F= -.81977281E+03 E0= -.81970224E+03  d E =-.282248E+00  mag=   202.2123
       N       E                     dE             d eps       ncg     rms          rms(c)
DAV:   1    -0.819772813682E+03   -0.86114E-05   -0.42122E-01  2880   0.421E-01    0.284E-01
RMM:   2    -0.819776630284E+03   -0.38166E-02   -0.16474E-02  2892   0.185E-01    0.951E-01
RMM:   3    -0.819774323282E+03    0.23070E-02   -0.55873E-03  2892   0.136E-01    0.544E-01
RMM:   4    -0.819775160148E+03   -0.83687E-03   -0.13897E-03  2899   0.643E-02    0.657E-01
RMM:   5    -0.819772859106E+03    0.23010E-02   -0.10943E-03  2896   0.559E-02    0.144E-01
RMM:   6    -0.819773344053E+03   -0.48495E-03   -0.79460E-04  2898   0.498E-02    0.385E-01
RMM:   7    -0.819772803745E+03    0.54031E-03   -0.36939E-04  2896   0.385E-02    0.127E-01
RMM:   8    -0.819772798824E+03    0.49213E-05   -0.10256E-04  2892   0.183E-02    0.110E-01
RMM:   9    -0.819772811088E+03   -0.12264E-04   -0.64595E-05  2886   0.147E-02    0.112E-01
RMM:  10    -0.819772768756E+03    0.42331E-04   -0.41842E-05  2882   0.128E-02    0.300E-02
RMM:  11    -0.819772788925E+03   -0.20169E-04   -0.20655E-05  2878   0.807E-03    0.606E-02
RMM:  12    -0.819772778558E+03    0.10367E-04   -0.97785E-06  2823   0.634E-03    0.114E-02
RMM:  13    -0.819772784480E+03   -0.59216E-05   -0.41001E-06  2286   0.369E-03    0.248E-02
RMM:  14    -0.819772788882E+03   -0.44024E-05   -0.21123E-06  1621   0.312E-03    0.973E-03
RMM:  15    -0.819772789985E+03   -0.11030E-05   -0.63203E-07  1517   0.161E-03    0.673E-03
RMM:  16    -0.819772793275E+03   -0.32893E-05   -0.41520E-07  1539   0.119E-03    0.882E-03
RMM:  17    -0.819772794795E+03   -0.15207E-05   -0.27442E-07  1508   0.111E-03    0.329E-03
RMM:  18    -0.819772796997E+03   -0.22015E-05   -0.17480E-07  1513   0.710E-04    0.503E-03
RMM:  19    -0.819772799637E+03   -0.26398E-05   -0.16894E-07  1534   0.743E-04    0.179E-03
RMM:  20    -0.819772801192E+03   -0.15551E-05   -0.85896E-08  1433   0.447E-04    0.278E-03
RMM:  21    -0.819772803475E+03   -0.22837E-05   -0.10670E-07  1451   0.476E-04    0.135E-03
RMM:  22    -0.819772804956E+03   -0.14808E-05   -0.70523E-08  1304   0.367E-04    0.213E-03
RMM:  23    -0.819772807001E+03   -0.20451E-05   -0.11190E-07  1345   0.389E-04    0.939E-04
RMM:  24    -0.819772807891E+03   -0.88984E-06   -0.46726E-08   988   0.310E-04
   9 F= -.81977281E+03 E0= -.81970220E+03  d E =-.282418E+00  mag=   202.2012
       N       E                     dE             d eps       ncg     rms          rms(c)
DAV:   1    -0.819772268504E+03    0.53850E-03   -0.20821E-01  2880   0.293E-01    0.214E-01
RMM:   2    -0.819774634976E+03   -0.23665E-02   -0.97672E-03  2891   0.145E-01    0.755E-01
RMM:   3    -0.819773019958E+03    0.16150E-02   -0.33263E-03  2893   0.106E-01    0.393E-01
RMM:   4    -0.819773547359E+03   -0.52740E-03   -0.78784E-04  2904   0.485E-02    0.487E-01
RMM:   5    -0.819772290295E+03    0.12571E-02   -0.59603E-04  2896   0.412E-02    0.129E-01
RMM:   6    -0.819772516671E+03   -0.22638E-03   -0.42299E-04  2896   0.367E-02    0.278E-01
RMM:   7    -0.819772276599E+03    0.24007E-03   -0.18617E-04  2892   0.271E-02    0.139E-01
RMM:   8    -0.819772221222E+03    0.55377E-04   -0.65162E-05  2887   0.152E-02    0.552E-02
RMM:   9    -0.819772249722E+03   -0.28500E-04   -0.47411E-05  2888   0.122E-02    0.953E-02
RMM:  10    -0.819772219164E+03    0.30558E-04   -0.29411E-05  2876   0.108E-02    0.199E-02
RMM:  11    -0.819772229555E+03   -0.10391E-04   -0.11290E-05  2854   0.596E-03    0.440E-02
RMM:  12    -0.819772225509E+03    0.40462E-05   -0.51480E-06  2496   0.462E-03    0.937E-03
RMM:  13    -0.819772228096E+03   -0.25868E-05   -0.20524E-06  1593   0.272E-03    0.173E-02
RMM:  14    -0.819772231323E+03   -0.32272E-05   -0.13167E-06  1578   0.251E-03    0.822E-03
RMM:  15    -0.819772231908E+03   -0.58526E-06   -0.33781E-07  1504   0.121E-03
  10 F= -.81977223E+03 E0= -.81970162E+03  d E =-.282444E+00  mag=   202.2041
       N       E                     dE             d eps       ncg     rms          rms(c)
DAV:   1    -0.819772057120E+03    0.17420E-03   -0.43040E-01  2880   0.415E-01    0.252E-01
RMM:   2    -0.819775971088E+03   -0.39140E-02   -0.11825E-02  2894   0.168E-01    0.960E-01
RMM:   3    -0.819772913080E+03    0.30580E-02   -0.50390E-03  2897   0.131E-01    0.376E-01
RMM:   4    -0.819774064320E+03   -0.11512E-02   -0.87021E-04  2902   0.514E-02    0.561E-01
RMM:   5    -0.819772522096E+03    0.15422E-02   -0.68649E-04  2894   0.447E-02    0.226E-01
RMM:   6    -0.819772482962E+03    0.39134E-04   -0.43343E-04  2894   0.377E-02    0.216E-01
RMM:   7    -0.819772490608E+03   -0.76458E-05   -0.21769E-04  2893   0.269E-02    0.227E-01
RMM:   8    -0.819772315567E+03    0.17504E-03   -0.12444E-04  2891   0.218E-02    0.768E-02
RMM:   9    -0.819772354610E+03   -0.39043E-04   -0.78494E-05  2890   0.158E-02    0.119E-01
RMM:  10    -0.819772306678E+03    0.47933E-04   -0.42987E-05  2882   0.130E-02    0.232E-02
RMM:  11    -0.819772314713E+03   -0.80350E-05   -0.11833E-05  2857   0.601E-03    0.390E-02
RMM:  12    -0.819772313044E+03    0.16691E-05   -0.48888E-06  2400   0.434E-03    0.971E-03
RMM:  13    -0.819772315864E+03   -0.28205E-05   -0.17992E-06  1587   0.257E-03    0.169E-02
RMM:  14    -0.819772318790E+03   -0.29263E-05   -0.11698E-06  1592   0.231E-03    0.122E-02
RMM:  15    -0.819772319077E+03   -0.28656E-06   -0.42585E-07  1507   0.139E-03
  11 F= -.81977232E+03 E0= -.81970176E+03  d E =-.282242E+00  mag=   202.2053
       N       E                     dE             d eps       ncg     rms          rms(c)
DAV:   1    -0.819771702085E+03    0.61671E-03   -0.21609E-01  2880   0.285E-01    0.164E-01
RMM:   2    -0.819774018255E+03   -0.23162E-02   -0.49190E-03  2893   0.113E-01    0.732E-01
RMM:   3    -0.819772028885E+03    0.19894E-02   -0.22968E-03  2897   0.880E-02    0.212E-01
RMM:   4    -0.819772414212E+03   -0.38533E-03   -0.31694E-04  2910   0.300E-02    0.316E-01
RMM:   5    -0.819772086120E+03    0.32809E-03   -0.24187E-04  2896   0.286E-02    0.223E-01
RMM:   6    -0.819771887449E+03    0.19867E-03   -0.17118E-04  2887   0.246E-02    0.767E-02
RMM:   7    -0.819771953547E+03   -0.66098E-04   -0.84524E-05  2892   0.161E-02    0.146E-01
RMM:   8    -0.819771883214E+03    0.70333E-04   -0.42299E-05  2881   0.131E-02    0.574E-02
RMM:   9    -0.819771877999E+03    0.52153E-05   -0.12540E-05  2851   0.656E-03    0.357E-02
RMM:  10    -0.819771878674E+03   -0.67499E-06   -0.67987E-06  2651   0.463E-03
  12 F= -.81977188E+03 E0= -.81970117E+03  d E =-.282816E+00  mag=   202.2084
       N       E                     dE             d eps       ncg     rms          rms(c)
DAV:   1    -0.819771650983E+03    0.22702E-03   -0.43275E-01  2880   0.407E-01    0.208E-01
RMM:   2    -0.819775887581E+03   -0.42366E-02   -0.93840E-03  2894   0.147E-01    0.975E-01
RMM:   3    -0.819772408674E+03    0.34789E-02   -0.33300E-03  2897   0.106E-01    0.351E-01
RMM:   4    -0.819772573583E+03   -0.16491E-03   -0.66754E-04  2911   0.431E-02    0.375E-01
RMM:   5    -0.819772118250E+03    0.45533E-03   -0.57104E-04  2899   0.380E-02    0.251E-01
RMM:   6    -0.819771950998E+03    0.16725E-03   -0.33028E-04  2901   0.336E-02    0.160E-01
RMM:   7    -0.819772016438E+03   -0.65440E-04   -0.19240E-04  2895   0.246E-02    0.208E-01
RMM:   8    -0.819771865561E+03    0.15088E-03   -0.10155E-04  2890   0.199E-02    0.546E-02
RMM:   9    -0.819771887032E+03   -0.21471E-04   -0.41854E-05  2886   0.114E-02    0.881E-02
RMM:  10    -0.819771862336E+03    0.24697E-04   -0.23197E-05  2873   0.904E-03    0.259E-02
RMM:  11    -0.819771865378E+03   -0.30423E-05   -0.10092E-05  2839   0.577E-03    0.303E-02
RMM:  12    -0.819771866833E+03   -0.14546E-05   -0.32409E-06  1957   0.363E-03    0.127E-02
RMM:  13    -0.819771868393E+03   -0.15603E-05   -0.14792E-06  1549   0.248E-03    0.125E-02
RMM:  14    -0.819771872259E+03   -0.38659E-05   -0.84051E-07  1561   0.191E-03    0.631E-03
RMM:  15    -0.819771873168E+03   -0.90941E-06   -0.28352E-07  1492   0.109E-03
  13 F= -.81977187E+03 E0= -.81970138E+03  d E =-.281986E+00  mag=   202.2035
