   Co     O     H                       
   1.00000000000000     
     9.9561004638671875    0.0000000000000000    0.0000000000000000
    -7.4670500755310059   12.9333095550537109    0.0000000000000000
     0.0000000000000000    0.0000000000000000   23.1291007995605469
   Co   O    H 
   120     1     1
Selective dynamics
Direct
  0.1666692644357682  0.0555597692728043  0.0000000000000000   F   F   F
  0.4166697859764099  0.0555595122277737  0.0000000000000000   F   F   F
  0.6666692495346069  0.0555596239864826  0.0000000000000000   F   F   F
  0.9166695475578313  0.0555594004690647  0.0000000000000000   F   F   F
  0.1666703373193741  0.2222198843955994  0.0000000000000000   F   F   F
  0.4166699349880219  0.2222200036048889  0.0000000000000000   F   F   F
  0.6666703820228577  0.2222199738025665  0.0000000000000000   F   F   F
  0.9166701436042786  0.2222201228141785  0.0000000000000000   F   F   F
  0.1666694730520248  0.3888896405696869  0.0000000000000000   F   F   F
  0.4166699647903442  0.3888895511627197  0.0000000000000000   F   F   F
  0.6666695475578308  0.3888897001743317  0.0000000000000000   F   F   F
  0.9166699051856997  0.3888897001743317  0.0000000000000000   F   F   F
  0.1666701287031173  0.5555602312088013  0.0000000000000000   F   F   F
  0.4166696071624756  0.5555601716041565  0.0000000000000000   F   F   F
  0.6666702628135681  0.5555601716041565  0.0000000000000000   F   F   F
  0.9166696071624756  0.5555601119995117  0.0000000000000000   F   F   F
  0.1666699647903442  0.7222197651863098  0.0000000000000000   F   F   F
  0.4166692495346067  0.7222197055816650  0.0000000000000000   F   F   F
  0.6666697859764099  0.7222196459770203  0.0000000000000000   F   F   F
  0.9166703820228577  0.7222197055816650  0.0000000000000000   F   F   F
  0.1666703224182089  0.8888901472091675  0.0000000000000000   F   F   F
  0.4166697561740875  0.8888900279998779  0.0000000000000000   F   F   F
  0.6666705012321472  0.8888900876045227  0.0000000000000000   F   F   F
  0.9166699647903442  0.8888903856277466  0.0000000000000000   F   F   F
  0.0000000000000000  0.0000000000000000  0.0878698304295540   F   F   F
  0.2500005662441254  0.0000000000000000  0.0878697857260704   F   F   F
  0.4999999701976778  0.0000000000000000  0.0878697559237480   F   F   F
  0.7500004172325136  0.0000000000000000  0.0878697857260704   F   F   F
  0.0000000000000000  0.1666695773601532  0.0878697857260704   F   F   F
  0.2499994933605195  0.1666696816682816  0.0878698527812958   F   F   F
  0.4999999403953552  0.1666696518659592  0.0878698080778122   F   F   F
  0.7499993443489077  0.1666696071624756  0.0878697708249092   F   F   F
 -0.0000000000000020  0.3333300054073334  0.0878698155283928   F   F   F
  0.2499996274709701  0.3333300054073334  0.0878698006272316   F   F   F
  0.5000001192092896  0.3333299458026886  0.0878698080778122   F   F   F
  0.7499997615814209  0.3333299458026886  0.0878698006272316   F   F   F
 -0.0000000000000001  0.4999995827674866  0.0878698155283928   F   F   F
  0.2499997019767761  0.4999995827674866  0.0878698304295540   F   F   F
  0.4999991655349731  0.4999995529651642  0.0878697782754898   F   F   F
  0.7499998807907104  0.4999996125698090  0.0878697857260704   F   F   F
  0.0000000000000000  0.6666700243949890  0.0878698378801346   F   F   F
  0.2500005662441221  0.6666702032089233  0.0878698304295540   F   F   F
  0.4999997913837432  0.6666701436042786  0.0878698155283928   F   F   F
  0.7500004768371582  0.6666702032089233  0.0878698006272316   F   F   F
 -0.0000000000000049  0.8333293795585632  0.0878698378801346   F   F   F
  0.2500001788139343  0.8333300352096558  0.0878698006272316   F   F   F
  0.4999994337558744  0.8333296775817871  0.0878698527812958   F   F   F
  0.7499999403953552  0.8333297371864319  0.0878698602318764   F   F   F
  0.0833298787474632  0.1111098080873489  0.1757301092147827   F   F   F
  0.3333295583724976  0.1111098080873489  0.1757301390171051   F   F   F
  0.5833302140235901  0.1111098453402519  0.1757301390171051   F   F   F
  0.8333296179771423  0.1111099869012833  0.1757301092147827   F   F   F
  0.0833289325237274  0.2777795195579529  0.1757301092147827   F   F   F
  0.3333296179771423  0.2777795195579529  0.1757301390171051   F   F   F
  0.5833292007446289  0.2777795791625977  0.1757301539182663   F   F   F
  0.8333297967910769  0.2777796387672424  0.1757301539182663   F   F   F
  0.0833303928375244  0.4444399476051331  0.1757301539182663   F   F   F
  0.3333297967910767  0.4444399178028107  0.1757301539182663   F   F   F
  0.5833303928375244  0.4444398880004883  0.1757301539182663   F   F   F
  0.8333300948143005  0.4444400072097778  0.1757301390171051   F   F   F
  0.0833296477794646  0.6111096143722534  0.1757301539182663   F   F   F
  0.3333299458026886  0.6111095547676086  0.1757301688194275   F   F   F
  0.5833294391632080  0.6111096143722534  0.1757301539182663   F   F   F
  0.8333300948143005  0.6111096739768982  0.1757301688194275   F   F   F
  0.0833303332328795  0.7777801156044006  0.1757301986217499   F   F   F
  0.3333296477794647  0.7777802944183350  0.1757301688194275   F   F   F
  0.5833301544189453  0.7777801156044006  0.1757301986217499   F   F   F
  0.8333296775817871  0.7777800559997559  0.1757301539182663   F   F   F
  0.0833302736282348  0.9444403648376465  0.1757301986217499   F   F   F
  0.3333295285701752  0.9444403052330017  0.1757302135229111   F   F   F
  0.5833303332328796  0.9444404840469360  0.1757301688194275   F   F   F
  0.8333296775817871  0.9444404840469360  0.1757302731275558   F   F   F
  0.1653927039546054  0.0548255059884654  0.2643254917482465   T   T   T
  0.4153224559654571  0.0547794794015922  0.2642659651604663   T   T   T
  0.6653575610255869  0.0549485075065825  0.2644828437081045   T   T   T
  0.9152629987931018  0.0548478556131234  0.2644125852562663   T   T   T
  0.1655661605519589  0.2214530812698004  0.2641779122090165   T   T   T
  0.4153555253799659  0.2213500562231158  0.2642587182281199   T   T   T
  0.6659465416090938  0.2217801433903498  0.2644360598502491   T   T   T
  0.9156984907375656  0.2216183697300128  0.2644733573440076   T   T   T
  0.1665197679126438  0.3891811381004727  0.2650930088501219   T   T   T
  0.4154689994906855  0.3885501096070471  0.2644600295361085   T   T   T
  0.6660858716379171  0.3884035780646949  0.2643293429713588   T   T   T
  0.9158592717814011  0.3884145088633075  0.2645576576489683   T   T   T
  0.1664856827654171  0.5548492216217565  0.2651721222279034   T   T   T
  0.4154156989179661  0.5548451187215205  0.2653857575313308   T   T   T
  0.6652361016346893  0.5551022484225731  0.2651271626263512   T   T   T
  0.9157866929078625  0.5548217027949419  0.2643068423558221   T   T   T
  0.1652083304109979  0.7217544680460599  0.2645195603435738   T   T   T
  0.4157493074855793  0.7215586006230057  0.2642726416064283   T   T   T
  0.6649662850447533  0.7215413283239961  0.2649081659388322   T   T   T
  0.9154310531874017  0.7216730721570599  0.2643974380061996   T   T   T
  0.1654629877919270  0.8880814595903909  0.2644502904467038   T   T   T
  0.4148014037525682  0.8882128555744999  0.2643235575738056   T   T   T
  0.6657228725612451  0.8882302280169665  0.2639867536211315   T   T   T
  0.9156864497426118  0.8884135917411256  0.2643366151045928   T   T   T
  0.9998239130479185  1.0001050993772573  0.3495410200020343   T   T   T
  0.2494624759209680  0.9998143364986400  0.3495262520070579   T   T   T
  0.4985516070538090  0.9999133593739858  0.3496419051876921   T   T   T
  0.7487962679041348  0.9997867972949691  0.3496236479218517   T   T   T
  0.9977356267461710  0.1653780235111252  0.3494484062080692   T   T   T
  0.2496912588494790  0.1654409314125195  0.3494375454957229   T   T   T
  0.4989911795535805  0.1655330699531954  0.3496423858498318   T   T   T
  0.7488891951229726  0.1659591682175968  0.3496323861747029   T   T   T
  0.9990127088052820  0.3325557319886130  0.3495668921165402   T   T   T
  0.2455037759378174  0.3279388875436803  0.3491843407612749   T   T   T
  0.4996225828112304  0.3313937453584898  0.3491571337850681   T   T   T
  0.7497085855687721  0.3328166976564526  0.3497957841052716   T   T   T
  1.0001873568551263  0.4992905891412363  0.3493621288035372   T   T   T
  0.2459859593332993  0.4977406830402981  0.3538415679639166   T   T   T
  0.5020425833370071  0.4943745059141494  0.3518582835065699   T   T   T
  0.7502347973060354  0.4991467519509142  0.3493475294674727   T   T   T
  0.9969352340865226  0.6654130211797069  0.3494878197883814   T   T   T
  0.2458917363373018  0.6684154512512692  0.3491075622999422   T   T   T
  0.5022619319449912  0.6730999245701561  0.3514998566383907   T   T   T
  0.7507556423089179  0.6671327125306560  0.3510310657599871   T   T   T
  0.9984901805629693  0.8329347950784667  0.3495418121355149   T   T   T
  0.2482950741926798  0.8334453834067372  0.3496824853891889   T   T   T
  0.4996102512305157  0.8348885467270057  0.3491021356018749   T   T   T
  0.7507315482210269  0.8349240655627261  0.3492166781779916   T   T   T
  0.4196568792873577  0.5576266603046547  0.4071351949156541   T   T   T
  0.5728991721894150  0.6057872731830305  0.3994494770703875   T   T   T
 
