 Co   O   H
   1.0 
   9.95610046   0.00000000   0.00000000 
  -7.46705008  12.93330956   0.00000000 
   0.00000000   0.00000000  23.12910080 
 120 1 1 
Selective dynamics
Direct
  0.166669264435768  0.055559769272804  0.000000000000000   F   F   F 
  0.416669785976410  0.055559512227774  0.000000000000000   F   F   F 
  0.666669249534607  0.055559623986483  0.000000000000000   F   F   F 
  0.916669547557831  0.055559400469065  0.000000000000000   F   F   F 
  0.166670337319374  0.222219884395599  0.000000000000000   F   F   F 
  0.416669934988022  0.222220003604889  0.000000000000000   F   F   F 
  0.666670382022858  0.222219973802567  0.000000000000000   F   F   F 
  0.916670143604279  0.222220122814178  0.000000000000000   F   F   F 
  0.166669473052025  0.388889640569687  0.000000000000000   F   F   F 
  0.416669964790344  0.388889551162720  0.000000000000000   F   F   F 
  0.666669547557831  0.388889700174332  0.000000000000000   F   F   F 
  0.916669905185700  0.388889700174332  0.000000000000000   F   F   F 
  0.166670128703117  0.555560231208801  0.000000000000000   F   F   F 
  0.416669607162476  0.555560171604156  0.000000000000000   F   F   F 
  0.666670262813568  0.555560171604156  0.000000000000000   F   F   F 
  0.916669607162476  0.555560111999512  0.000000000000000   F   F   F 
  0.166669964790344  0.722219765186310  0.000000000000000   F   F   F 
  0.416669249534607  0.722219705581665  0.000000000000000   F   F   F 
  0.666669785976410  0.722219645977020  0.000000000000000   F   F   F 
  0.916670382022858  0.722219705581665  0.000000000000000   F   F   F 
  0.166670322418209  0.888890147209167  0.000000000000000   F   F   F 
  0.416669756174088  0.888890027999878  0.000000000000000   F   F   F 
  0.666670501232147  0.888890087604523  0.000000000000000   F   F   F 
  0.916669964790344  0.888890385627747  0.000000000000000   F   F   F 
  0.000000000000000  0.000000000000000  0.087869830429554   F   F   F 
  0.250000566244125  0.000000000000000  0.087869785726070   F   F   F 
  0.499999970197678  0.000000000000000  0.087869755923748   F   F   F 
  0.750000417232514  0.000000000000000  0.087869785726070   F   F   F 
  0.000000000000000  0.166669577360153  0.087869785726070   F   F   F 
  0.249999493360519  0.166669681668282  0.087869852781296   F   F   F 
  0.499999940395355  0.166669651865959  0.087869808077812   F   F   F 
  0.749999344348908  0.166669607162476  0.087869770824909   F   F   F 
 -0.000000000000002  0.333330005407333  0.087869815528393   F   F   F 
  0.249999627470970  0.333330005407333  0.087869800627232   F   F   F 
  0.500000119209290  0.333329945802689  0.087869808077812   F   F   F 
  0.749999761581421  0.333329945802689  0.087869800627232   F   F   F 
 -0.000000000000000  0.499999582767487  0.087869815528393   F   F   F 
  0.249999701976776  0.499999582767487  0.087869830429554   F   F   F 
  0.499999165534973  0.499999552965164  0.087869778275490   F   F   F 
  0.749999880790710  0.499999612569809  0.087869785726070   F   F   F 
  0.000000000000000  0.666670024394989  0.087869837880135   F   F   F 
  0.250000566244122  0.666670203208923  0.087869830429554   F   F   F 
  0.499999791383743  0.666670143604279  0.087869815528393   F   F   F 
  0.750000476837158  0.666670203208923  0.087869800627232   F   F   F 
 -0.000000000000005  0.833329379558563  0.087869837880135   F   F   F 
  0.250000178813934  0.833330035209656  0.087869800627232   F   F   F 
  0.499999433755874  0.833329677581787  0.087869852781296   F   F   F 
  0.749999940395355  0.833329737186432  0.087869860231876   F   F   F 
  0.083329878747463  0.111109808087349  0.175730109214783   F   F   F 
  0.333329558372498  0.111109808087349  0.175730139017105   F   F   F 
  0.583330214023590  0.111109845340252  0.175730139017105   F   F   F 
  0.833329617977142  0.111109986901283  0.175730109214783   F   F   F 
  0.083328932523727  0.277779519557953  0.175730109214783   F   F   F 
  0.333329617977142  0.277779519557953  0.175730139017105   F   F   F 
  0.583329200744629  0.277779579162598  0.175730153918266   F   F   F 
  0.833329796791077  0.277779638767242  0.175730153918266   F   F   F 
  0.083330392837524  0.444439947605133  0.175730153918266   F   F   F 
  0.333329796791077  0.444439917802811  0.175730153918266   F   F   F 
  0.583330392837524  0.444439888000488  0.175730153918266   F   F   F 
  0.833330094814301  0.444440007209778  0.175730139017105   F   F   F 
  0.083329647779465  0.611109614372253  0.175730153918266   F   F   F 
  0.333329945802689  0.611109554767609  0.175730168819427   F   F   F 
  0.583329439163208  0.611109614372253  0.175730153918266   F   F   F 
  0.833330094814301  0.611109673976898  0.175730168819427   F   F   F 
  0.083330333232879  0.777780115604401  0.175730198621750   F   F   F 
  0.333329647779465  0.777780294418335  0.175730168819427   F   F   F 
  0.583330154418945  0.777780115604401  0.175730198621750   F   F   F 
  0.833329677581787  0.777780055999756  0.175730153918266   F   F   F 
  0.083330273628235  0.944440364837646  0.175730198621750   F   F   F 
  0.333329528570175  0.944440305233002  0.175730213522911   F   F   F 
  0.583330333232880  0.944440484046936  0.175730168819427   F   F   F 
  0.833329677581787  0.944440484046936  0.175730273127556   F   F   F 
  0.165392703954605  0.054825505988465  0.264325491748246   F   F   F 
  0.415322455965457  0.054779479401592  0.264265965160466   F   F   F 
  0.665357561025587  0.054948507506582  0.264482843708104   F   F   F 
  0.915262998793102  0.054847855613123  0.264412585256266   F   F   F 
  0.165566160551959  0.221453081269800  0.264177912209016   F   F   F 
  0.415355525379966  0.221350056223116  0.264258718228120   F   F   F 
  0.665946541609094  0.221780143390350  0.264436059850249   F   F   F 
  0.915698490737566  0.221618369730013  0.264473357344008   F   F   F 
  0.166519767912644  0.389181138100473  0.265093008850122   F   F   F 
  0.415468999490685  0.388550109607047  0.264460029536108   F   F   F 
  0.666085871637917  0.388403578064695  0.264329342971359   F   F   F 
  0.915859271781401  0.388414508863307  0.264557657648968   F   F   F 
  0.166485682765417  0.554849221621757  0.265172122227903   F   F   F 
  0.415415698917966  0.554845118721521  0.265385757531331   F   F   F 
  0.665236101634689  0.555102248422573  0.265127162626351   F   F   F 
  0.915786692907863  0.554821702794942  0.264306842355822   F   F   F 
  0.165208330410998  0.721754468046060  0.264519560343574   F   F   F 
  0.415749307485579  0.721558600623006  0.264272641606428   F   F   F 
  0.664966285044753  0.721541328323996  0.264908165938832   F   F   F 
  0.915431053187402  0.721673072157060  0.264397438006200   F   F   F 
  0.165462987791927  0.888081459590391  0.264450290446704   F   F   F 
  0.414801403752568  0.888212855574500  0.264323557573806   F   F   F 
  0.665722872561245  0.888230228016966  0.263986753621131   F   F   F 
  0.915686449742612  0.888413591741126  0.264336615104593   F   F   F 
  0.999823913047919  1.000105099377257  0.349541020002034   F   F   F 
  0.249462475920968  0.999814336498640  0.349526252007058   F   F   F 
  0.498551607053809  0.999913359373986  0.349641905187692   F   F   F 
  0.748796267904135  0.999786797294969  0.349623647921852   F   F   F 
  0.997735626746171  0.165378023511125  0.349448406208069   F   F   F 
  0.249691258849479  0.165440931412520  0.349437545495723   F   F   F 
  0.498991179553581  0.165533069953195  0.349642385849832   F   F   F 
  0.748889195122973  0.165959168217597  0.349632386174703   F   F   F 
  0.999012708805282  0.332555731988613  0.349566892116540   F   F   F 
  0.245503775937817  0.327938887543680  0.349184340761275   F   F   F 
  0.499622582811230  0.331393745358490  0.349157133785068   F   F   F 
  0.749708585568772  0.332816697656453  0.349795784105272   F   F   F 
  1.000187356855126  0.499290589141236  0.349362128803537   F   F   F 
  0.245985959333299  0.497740683040298  0.353841567963917   F   F   F 
  0.502042583337007  0.494374505914149  0.351858283506570   F   F   F 
  0.750234797306035  0.499146751950914  0.349347529467473   F   F   F 
  0.996935234086523  0.665413021179707  0.349487819788381   F   F   F 
  0.245891736337302  0.668415451251269  0.349107562299942   F   F   F 
  0.502261931944991  0.673099924570156  0.351499856638391   F   F   F 
  0.750755642308918  0.667132712530656  0.351031065759987   F   F   F 
  0.998490180562969  0.832934795078467  0.349541812135515   F   F   F 
  0.248295074192680  0.833445383406737  0.349682485389189   F   F   F 
  0.499610251230516  0.834888546727006  0.349102135601875   F   F   F 
  0.750731548221027  0.834924065562726  0.349216678177992   F   F   F 
  0.419656879287358  0.557626660304655  0.407135194915654   T   T   T 
  0.572899172189415  0.605787273183030  0.399449477070388   T   T   T 
