   Co     O     H  
  1.00000 
    9.9561004638671875       0.0000000000000000       0.0000000000000000    
    -7.4670500755310059       12.9333095550537109       0.0000000000000000    
    0.0000000000000000       0.0000000000000000       23.1291007995605469    
   Co     O     H   
   120     1     1   
Selective dynamics 
Direct 
    0.1666692644357681    0.0555597692728043    0.0000000000000000   F      F      F    
    0.4166697859764099    0.0555595122277737    0.0000000000000000   F      F      F    
    0.6666692495346069    0.0555596239864826    0.0000000000000000   F      F      F    
    0.9166695475578308    0.0555594004690647    0.0000000000000000   F      F      F    
    0.1666703373193741    0.2222198843955994    0.0000000000000000   F      F      F    
    0.4166699349880219    0.2222200036048889    0.0000000000000000   F      F      F    
    0.6666703820228577    0.2222199738025665    0.0000000000000000   F      F      F    
    0.9166701436042786    0.2222201228141785    0.0000000000000000   F      F      F    
    0.1666694730520248    0.3888896405696869    0.0000000000000000   F      F      F    
    0.4166699647903442    0.3888895511627197    0.0000000000000000   F      F      F    
    0.6666695475578308    0.3888897001743317    0.0000000000000000   F      F      F    
    0.9166699051856995    0.3888897001743317    0.0000000000000000   F      F      F    
    0.1666701287031174    0.5555602312088013    0.0000000000000000   F      F      F    
    0.4166696071624756    0.5555601716041565    0.0000000000000000   F      F      F    
    0.6666702628135681    0.5555601716041565    0.0000000000000000   F      F      F    
    0.9166696071624756    0.5555601119995117    0.0000000000000000   F      F      F    
    0.1666699647903442    0.7222197651863098    0.0000000000000000   F      F      F    
    0.4166692495346069    0.7222197055816650    0.0000000000000000   F      F      F    
    0.6666697859764099    0.7222196459770203    0.0000000000000000   F      F      F    
    0.9166703820228577    0.7222197055816650    0.0000000000000000   F      F      F    
    0.1666703224182129    0.8888901472091675    0.0000000000000000   F      F      F    
    0.4166697561740875    0.8888900279998779    0.0000000000000000   F      F      F    
    0.6666705012321472    0.8888900876045227    0.0000000000000000   F      F      F    
    0.9166699647903442    0.8888903856277466    0.0000000000000000   F      F      F    
    0.0000000000000000    0.0000000000000000    0.0878698304295540   F      F      F    
    0.2500005662441254    0.0000000000000000    0.0878697857260704   F      F      F    
    0.4999999701976776    0.0000000000000000    0.0878697559237480   F      F      F    
    0.7500004172325134    0.0000000000000000    0.0878697857260704   F      F      F    
    0.0000000000000000    0.1666695773601532    0.0878697857260704   F      F      F    
    0.2499994933605194    0.1666696816682816    0.0878698527812958   F      F      F    
    0.4999999403953552    0.1666696518659592    0.0878698080778122   F      F      F    
    0.7499993443489075    0.1666696071624756    0.0878697708249092   F      F      F    
    0.0000000000000000    0.3333300054073334    0.0878698155283928   F      F      F    
    0.2499996274709702    0.3333300054073334    0.0878698006272316   F      F      F    
    0.5000001192092896    0.3333299458026886    0.0878698080778122   F      F      F    
    0.7499997615814209    0.3333299458026886    0.0878698006272316   F      F      F    
    0.0000000000000000    0.4999995827674866    0.0878698155283928   F      F      F    
    0.2499997019767761    0.4999995827674866    0.0878698304295540   F      F      F    
    0.4999991655349731    0.4999995529651642    0.0878697782754898   F      F      F    
    0.7499998807907104    0.4999996125698090    0.0878697857260704   F      F      F    
    0.0000000000000000    0.6666700243949890    0.0878698378801346   F      F      F    
    0.2500005662441254    0.6666702032089233    0.0878698304295540   F      F      F    
    0.4999997913837433    0.6666701436042786    0.0878698155283928   F      F      F    
    0.7500004768371582    0.6666702032089233    0.0878698006272316   F      F      F    
    0.0000000000000000    0.8333293795585632    0.0878698378801346   F      F      F    
    0.2500001788139343    0.8333300352096558    0.0878698006272316   F      F      F    
    0.4999994337558746    0.8333296775817871    0.0878698527812958   F      F      F    
    0.7499999403953552    0.8333297371864319    0.0878698602318764   F      F      F    
    0.0833298787474632    0.1111098080873489    0.1757301092147827   F      F      F    
    0.3333295583724976    0.1111098080873489    0.1757301390171051   F      F      F    
    0.5833302140235901    0.1111098453402519    0.1757301390171051   F      F      F    
    0.8333296179771423    0.1111099869012833    0.1757301092147827   F      F      F    
    0.0833289325237274    0.2777795195579529    0.1757301092147827   F      F      F    
    0.3333296179771423    0.2777795195579529    0.1757301390171051   F      F      F    
    0.5833292007446289    0.2777795791625977    0.1757301539182663   F      F      F    
    0.8333297967910767    0.2777796387672424    0.1757301539182663   F      F      F    
    0.0833303928375244    0.4444399476051331    0.1757301539182663   F      F      F    
    0.3333297967910767    0.4444399178028107    0.1757301539182663   F      F      F    
    0.5833303928375244    0.4444398880004883    0.1757301539182663   F      F      F    
    0.8333300948143005    0.4444400072097778    0.1757301390171051   F      F      F    
    0.0833296477794647    0.6111096143722534    0.1757301539182663   F      F      F    
    0.3333299458026886    0.6111095547676086    0.1757301688194275   F      F      F    
    0.5833294391632080    0.6111096143722534    0.1757301539182663   F      F      F    
    0.8333300948143005    0.6111096739768982    0.1757301688194275   F      F      F    
    0.0833303332328796    0.7777801156044006    0.1757301986217499   F      F      F    
    0.3333296477794647    0.7777802944183350    0.1757301688194275   F      F      F    
    0.5833301544189453    0.7777801156044006    0.1757301986217499   F      F      F    
    0.8333296775817871    0.7777800559997559    0.1757301539182663   F      F      F    
    0.0833302736282349    0.9444403648376465    0.1757301986217499   F      F      F    
    0.3333295285701752    0.9444403052330017    0.1757302135229111   F      F      F    
    0.5833303332328796    0.9444404840469360    0.1757301688194275   F      F      F    
    0.8333296775817871    0.9444404840469360    0.1757302731275558   F      F      F    
    0.1660347282886505    0.0550780780613422    0.2645471692085266   T      T      T    
    0.4159920513629913    0.0550061464309692    0.2645576596260071   T      T      T    
    0.6660337448120117    0.0550781153142452    0.2645469009876251   T      T      T    
    0.9159891605377197    0.0550086908042431    0.2645587027072906   T      T      T    
    0.1659769415855408    0.2217466980218887    0.2644936442375183   T      T      T    
    0.4160625636577606    0.2216985374689102    0.2645601630210876   T      T      T    
    0.6659771800041199    0.2217476218938828    0.2644945681095123   T      T      T    
    0.9160625934600830    0.2217002958059311    0.2645599246025085   T      T      T    
    0.1659857481718063    0.3883185982704163    0.2644348740577698   T      T      T    
    0.4158753156661987    0.3883771300315857    0.2645603418350220   T      T      T    
    0.6659861803054810    0.3883183598518372    0.2644349932670593   T      T      T    
    0.9158748388290405    0.3883773088455200    0.2645599842071533   T      T      T    
    0.1660338938236237    0.5550754666328430    0.2645477354526520   T      T      T    
    0.4159898161888123    0.5550072193145752    0.2645582854747772   T      T      T    
    0.6660339236259460    0.5550780892372131    0.2645473182201385   T      T      T    
    0.9159872531890869    0.5550061464309692    0.2645542621612549   T      T      T    
    0.1659787893295288    0.7217476367950439    0.2644951343536377   T      T      T    
    0.4160615205764771    0.7216975688934326    0.2645599544048309   T      T      T    
    0.6659876704216003    0.7217496037483215    0.2644963860511780   T      T      T    
    0.9160629510879517    0.7216985821723938    0.2645612061023712   T      T      T    
    0.1659846901893616    0.8883178830146790    0.2644372582435608   T      T      T    
    0.4158758223056793    0.8883759975433350    0.2645584642887115   T      T      T    
    0.6659840345382690    0.8883181810379028    0.2644357979297638   T      T      T    
    0.9158782362937927    0.8883774280548096    0.2645579278469086   T      T      T    
    0.9994128346443176    0.9994819760322571    0.3496400117874146   T      T      T    
    0.2493802309036255    0.9995568990707397    0.3496459424495697   T      T      T    
    0.4994144737720490    0.9994820952415466    0.3496412336826324   T      T      T    
    0.7493791580200195    0.9995552897453308    0.3496445417404175   T      T      T    
    0.9994335174560547    0.1661621481180191    0.3496560156345367   T      T      T    
    0.2494792938232422    0.1663327068090439    0.3496320545673370   T      T      T    
    0.4994335770606995    0.1661621183156967    0.3496573269367218   T      T      T    
    0.7494814395904541    0.1663330346345901    0.3496322631835938   T      T      T    
    0.9994130134582520    0.3329003453254700    0.3496358096599579   T      T      T    
    0.2493447363376617    0.3329682052135468    0.3496346771717072   T      T      T    
    0.4994065165519714    0.3328947424888611    0.3496380448341370   T      T      T    
    0.7493366003036499    0.3329594135284424    0.3496332764625549   T      T      T    
    0.9994176626205444    0.4994807541370392    0.3496395945549011   T      T      T    
    0.2493854463100433    0.4995536506175995    0.3496448695659637   T      T      T    
    0.4994238018989563    0.4994817972183228    0.3496431410312653   T      T      T    
    0.7493802905082703    0.4995545148849487    0.3496441245079041   T      T      T    
    0.9994336962699890    0.6661593317985535    0.3496570289134979   T      T      T    
    0.2494800090789795    0.6663283705711365    0.3496314287185669   T      T      T    
    0.4994365572929382    0.6661606431007385    0.3496555089950562   T      T      T    
    0.7494823336601257    0.6663321852684021    0.3496331572532654   T      T      T    
    0.9994089007377625    0.8328963518142700    0.3496395945549011   T      T      T    
    0.2493358552455902    0.8329586982727051    0.3496342897415161   T      T      T    
    0.4994063973426819    0.8328931331634521    0.3496385216712952   T      T      T    
    0.7493404746055603    0.8329645395278931    0.3496348261833191   T      T      T    
    0.4295415282249451    0.5768186450004578    0.3903544843196869   T      T      T    
    0.5798680782318115    0.6200636625289917    0.3828137516975403   T      T      T    
