8
Coordinates from ORCA-job job E -178.730671633506
  C          -3.22886642722411     -0.17831838363700     -1.34403656269921
  H          -3.23323898791581      0.92863991524823     -1.25941273451811
  H          -2.31057147835154     -0.55381704835671     -0.84825340638555
  C          -4.47355974987178     -0.72508390493955     -0.69049281335029
  H          -4.52074130432152     -0.48378405381351      0.39199853363442
  F          -4.49732217449079     -2.15053341786385     -0.78620175870448
  H          -5.40017703312181     -0.36356491073466     -1.18354669021179
  H          -3.18992109470262     -0.43636718590294     -2.42200442776498
