
                                 *****************
                                 * O   R   C   A *
                                 *****************

                                            #,                                       
                                            ###                                      
                                            ####                                     
                                            #####                                    
                                            ######                                   
                                           ########,                                 
                                     ,,################,,,,,                         
                               ,,#################################,,                 
                          ,,##########################################,,             
                       ,#########################################, ''#####,          
                    ,#############################################,,   '####,        
                  ,##################################################,,,,####,       
                ,###########''''           ''''###############################       
              ,#####''   ,,,,##########,,,,          '''####'''          '####       
            ,##' ,,,,###########################,,,                        '##       
           ' ,,###''''                  '''############,,,                           
         ,,##''                                '''############,,,,        ,,,,,,###''
      ,#''                                            '''#######################'''  
     '                                                          ''''####''''         
             ,#######,   #######,   ,#######,      ##                                
            ,#'     '#,  ##    ##  ,#'     '#,    #''#        ,####,   ,####,        
            ##       ##  ##   ,#'  ##            #'  '#       #'       #'  '#        
            ##       ##  #######   ##           ,######,      #####,   #    #        
            '#,     ,#'  ##    ##  '#,     ,#' ,#      #,     #,   #   #,  ,#        
             '#######'   ##     ##  '#######'  #'      '#     '####' # '####'        



                #########################################################
                #                        -***-                          #
                #          Department of theory and spectroscopy        #
                #                                                       #
                #                      Frank Neese                      #
                #                                                       #
                #     Directorship, Architecture, Infrastructure        #
                #                    SHARK, DRIVERS                     #
                #        Core code/Algorithms in most modules           #
                #                                                       #
                #        Max Planck Institute fuer Kohlenforschung      #
                #                Kaiser Wilhelm Platz 1                 #
                #                 D-45470 Muelheim/Ruhr                 #
                #                      Germany                          #
                #                                                       #
                #                  All rights reserved                  #
                #                        -***-                          #
                #########################################################


                         Program Version 6.0.0  -   RELEASE  -


 With contributions from (in alphabetic order):
   Daniel Aravena         : Magnetic Suceptibility
   Michael Atanasov       : Ab Initio Ligand Field Theory (pilot matlab implementation)
   Alexander A. Auer      : GIAO ZORA, VPT2 properties, NMR spectrum
   Ute Becker             : All parallelization in ORCA, NUMFREQ, NUMCALC

   Giovanni Bistoni       : ED, misc. LED, open-shell LED, HFLD
   Martin Brehm           : Molecular dynamics
   Dmytro Bykov           : pre 5.0 version of the SCF Hessian
   Marcos Casanova-Páez   : Triplet and SCS-CIS(D). UHF-(DLPNO)-IP/EA/STEOM-CCSD. UHF-CVS-IP/STEOM-CCSD
   Vijay G. Chilkuri      : MRCI spin determinant printing, contributions to CSF-ICE
   Pauline Colinet        : FMM embedding
   Dipayan Datta          : RHF DLPNO-CCSD density
   Achintya Kumar Dutta   : EOM-CC, STEOM-CC
   Nicolas Foglia         : Exact transition moments, OPA infrastructure, MCD improvements
   Dmitry Ganyushin       : Spin-Orbit,Spin-Spin,Magnetic field MRCI
   Miquel Garcia          : C-PCM and meta-GGA Hessian, CCSD/C-PCM, Gaussian charge scheme
   Tiago L. C. Gouveia    : GS-ROHF, GS-ROCIS
   Yang Guo               : DLPNO-NEVPT2, F12-NEVPT2, CIM, IAO-localization
   Andreas Hansen         : Spin unrestricted coupled pair/coupled cluster methods
   Ingolf Harden          : AUTO-CI MPn and infrastructure 
   Benjamin Helmich-Paris : MC-RPA, TRAH-(SCF,CASSCF), AVAS, COSX integrals, SCF dyn. polar.
   Lee Huntington         : MR-EOM, pCC
   Robert Izsak           : Overlap fitted RIJCOSX, COSX-SCS-MP3, EOM
   Riya Kayal             : Wick's Theorem for AUTO-CI, AUTO-CI UHF-CCSDT
   Emily Kempfer          : AUTO-CI, RHF CISDT and CCSDT
   Christian Kollmar      : KDIIS, OOCD, Brueckner-CCSD(T), CCSD density, CASPT2, CASPT2-K, improved NEVPT2
   Axel Koslowski         : Symmetry handling
   Simone Kossmann        : Meta GGA functionals, TD-DFT gradient, OOMP2, (MP2 Hessian; deprecated post 5.0)
   Lucas Lang             : DCDCAS
   Marvin Lechner         : AUTO-CI (C++ implementation), FIC-MRCC
   Spencer Leger          : CASSCF response
   Dagmar Lenk            : GEPOL surface, SMD, ORCA-2-JSON
   Dimitrios Liakos       : Extrapolation schemes; Compound Job, initial MDCI parallelization
   Dimitrios Manganas     : Further ROCIS development; embedding schemes. LFT, Crystal Embedding
   Dimitrios Pantazis     : SARC Basis sets
   Anastasios Papadopoulos: AUTO-CI, single reference methods and gradients
   Taras Petrenko         : pre 6.0 DFT Hessian and TD-DFT gradient, (ASA, deprecated), ECA, 1-Electron XAS/XES, NRVS
   Peter Pinski           : DLPNO-MP2, DLPNO-MP2 Gradient
   Christoph Reimann      : Effective Core Potentials
   Marius Retegan         : Local ZFS, SOC
   Christoph Riplinger    : Optimizer, TS searches, QM/MM, DLPNO-CCSD(T), (RO)-DLPNO pert. Triples
   Michael Roemelt        : Original ROCIS implementation
   Masaaki Saitow         : Open-shell DLPNO-CCSD energy and density
   Barbara Sandhoefer     : DKH picture change effects
   Kantharuban Sivalingam : CASSCF convergence/infrastructure, NEVPT2 and variants, FIC-MRCI
   Bernardo de Souza      : ESD, SOC TD-DFT
   Georgi Stoychev        : AutoAux, RI-MP2 NMR, DLPNO-MP2 response, X2C
   Van Anh Tran           : RI-MP2 g-tensors
   Willem Van den Heuvel  : Paramagnetic NMR
   Zikuan Wang            : NOTCH, Electric field optimization 
   Frank Wennmohs         : Technical directorship and infrastructure
   Hang Xu                : AUTO-CI-Response properties 


 We gratefully acknowledge several colleagues who have allowed us to
 interface, adapt or use parts of their codes:
   Stefan Grimme, W. Hujo, H. Kruse, P. Pracht,  : VdW corrections, initial TS optimization,
                  C. Bannwarth, S. Ehlert,         DFT functionals, gCP, sTDA/sTD-DF
                  L. Wittmann, M. Mueller
   Ed Valeev, F. Pavosevic, A. Kumar             : LibInt (2-el integral package), F12 methods
   Garnet Chan, S. Sharma, J. Yang, R. Olivares  : DMRG
   Ulf Ekstrom                                   : XCFun DFT Library
   Mihaly Kallay                                 : mrcc  (arbitrary order and MRCC methods)
   Frank Weinhold                                : gennbo (NPA and NBO analysis)
   Simon Mueller                                 : openCOSMO-RS
   Christopher J. Cramer and Donald G. Truhlar   : smd solvation model
   Lars Goerigk                                  : TD-DFT with DH, B97 family of functionals
   V. Asgeirsson, H. Jonsson                     : NEB implementation
   FAccTs GmbH                                   : IRC, NEB, NEB-TS, DLPNO-Multilevel, CI-OPT
                                                   MM, QMMM, 2- and 3-layer-ONIOM, Crystal-QMMM,
                                                   LR-CPCM, SF, NACMEs, symmetry and pop. for TD-DFT,
                                                   nearIR, NL-DFT gradient (VV10), updates on ESD,
                                                   ML-optimized integration grids, MBIS, APM,
                                                   GOAT, DOCKER, SOLVATOR, interface openCOSMO-RS
   S Lehtola, MJT Oliveira, MAL Marques          : LibXC Library
   Liviu Ungur et al                             : ANISO software


 Your calculation uses the libint2 library for the computation of 2-el integrals
 For citations please refer to: http://libint.valeyev.net

 Your ORCA version has been built with support for libXC version: 6.2.2
 For citations please refer to: https://libxc.gitlab.io

 This ORCA versions uses:
   CBLAS   interface :  Fast vector & matrix operations
   LAPACKE interface :  Fast linear algebra routines
   SCALAPACK package :  Parallel linear algebra routines
   Shared memory     :  Shared parallel matrices
   BLAS/LAPACK       :  OpenBLAS 0.3.27  USE64BITINT DYNAMIC_ARCH NO_AFFINITY Zen SINGLE_THREADED
        Core in use  :  Zen
   Copyright (c) 2011-2014, The OpenBLAS Project


                                 *****************
                                 * O   R   C   A *
                                 *****************

                                            #,                                       
                                            ###                                      
                                            ####                                     
                                            #####                                    
                                            ######                                   
                                           ########,                                 
                                     ,,################,,,,,                         
                               ,,#################################,,                 
                          ,,##########################################,,             
                       ,#########################################, ''#####,          
                    ,#############################################,,   '####,        
                  ,##################################################,,,,####,       
                ,###########''''           ''''###############################       
              ,#####''   ,,,,##########,,,,          '''####'''          '####       
            ,##' ,,,,###########################,,,                        '##       
           ' ,,###''''                  '''############,,,                           
         ,,##''                                '''############,,,,        ,,,,,,###''
      ,#''                                            '''#######################'''  
     '                                                          ''''####''''         
             ,#######,   #######,   ,#######,      ##                                
            ,#'     '#,  ##    ##  ,#'     '#,    #''#        ,####,   ,####,        
            ##       ##  ##   ,#'  ##            #'  '#       #'       #'  '#        
            ##       ##  #######   ##           ,######,      #####,   #    #        
            '#,     ,#'  ##    ##  '#,     ,#' ,#      #,     #,   #   #,  ,#        
             '#######'   ##     ##  '#######'  #'      '#     '####' # '####'        



                #########################################################
                #                        -***-                          #
                #          Department of theory and spectroscopy        #
                #                                                       #
                #                      Frank Neese                      #
                #                                                       #
                #     Directorship, Architecture, Infrastructure        #
                #                    SHARK, DRIVERS                     #
                #        Core code/Algorithms in most modules           #
                #                                                       #
                #        Max Planck Institute fuer Kohlenforschung      #
                #                Kaiser Wilhelm Platz 1                 #
                #                 D-45470 Muelheim/Ruhr                 #
                #                      Germany                          #
                #                                                       #
                #                  All rights reserved                  #
                #                        -***-                          #
                #########################################################


                         Program Version 6.0.0  -   RELEASE  -


 With contributions from (in alphabetic order):
   Daniel Aravena         : Magnetic Suceptibility
   Michael Atanasov       : Ab Initio Ligand Field Theory (pilot matlab implementation)
   Alexander A. Auer      : GIAO ZORA, VPT2 properties, NMR spectrum
   Ute Becker             : All parallelization in ORCA, NUMFREQ, NUMCALC
   Giovanni Bistoni       : ED, misc. LED, open-shell LED, HFLD
   Martin Brehm           : Molecular dynamics
   Dmytro Bykov           : pre 5.0 version of the SCF Hessian
   Marcos Casanova-Páez   : Triplet and SCS-CIS(D). UHF-(DLPNO)-IP/EA/STEOM-CCSD. UHF-CVS-IP/STEOM-CCSD
   Vijay G. Chilkuri      : MRCI spin determinant printing, contributions to CSF-ICE
   Pauline Colinet        : FMM embedding
   Dipayan Datta          : RHF DLPNO-CCSD density
   Achintya Kumar Dutta   : EOM-CC, STEOM-CC
   Nicolas Foglia         : Exact transition moments, OPA infrastructure, MCD improvements
   Dmitry Ganyushin       : Spin-Orbit,Spin-Spin,Magnetic field MRCI
   Miquel Garcia          : C-PCM and meta-GGA Hessian, CCSD/C-PCM, Gaussian charge scheme
   Tiago L. C. Gouveia    : GS-ROHF, GS-ROCIS
   Yang Guo               : DLPNO-NEVPT2, F12-NEVPT2, CIM, IAO-localization
   Andreas Hansen         : Spin unrestricted coupled pair/coupled cluster methods
   Ingolf Harden          : AUTO-CI MPn and infrastructure 
   Benjamin Helmich-Paris : MC-RPA, TRAH-(SCF,CASSCF), AVAS, COSX integrals, SCF dyn. polar.
   Lee Huntington         : MR-EOM, pCC

                                 *****************
                                 * O   R   C   A *
                                 *****************

                                            #,                                       
                                            ###                                      
                                            ####                                     
                                            #####                                    
                                            ######                                   
                                           ########,                                 
                                     ,,################,,,,,                         
                               ,,#################################,,                 
                          ,,##########################################,,             
                       ,#########################################, ''#####,          
                    ,#############################################,,   '####,        
                  ,##################################################,,,,####,       
                ,###########''''           ''''###############################       
              ,#####''   ,,,,##########,,,,          '''####'''          '####       
            ,##' ,,,,###########################,,,                        '##       
           ' ,,###''''                  '''############,,,                           
         ,,##''                                '''############,,,,        ,,,,,,###''
      ,#''                                            '''#######################'''  
     '                                                          ''''####''''         
             ,#######,   #######,   ,#######,      ##                                
            ,#'     '#,  ##    ##  ,#'     '#,    #''#        ,####,   ,####,        
            ##       ##  ##   ,#'  ##            #'  '#       #'       #'  '#        
            ##       ##  #######   ##           ,######,      #####,   #    #        
            '#,     ,#'  ##    ##  '#,     ,#' ,#      #,     #,   #   #,  ,#        
             '#######'   ##     ##  '#######'  #'      '#     '####' # '####'        



                #########################################################
                #                        -***-                          #
                #          Department of theory and spectroscopy        #
                #                                                       #
                #                      Frank Neese                      #
                #                                                       #
                #     Directorship, Architecture, Infrastructure        #
                #                    SHARK, DRIVERS                     #
                #        Core code/Algorithms in most modules           #
                #                                                       #
                #        Max Planck Institute fuer Kohlenforschung      #
                #                Kaiser Wilhelm Platz 1                 #
                #                 D-45470 Muelheim/Ruhr                 #
                #                      Germany                          #
                #                                                       #
                #                  All rights reserved                  #
                #                        -***-                          #
                #########################################################


                         Program Version 6.0.0  -   RELEASE  -


 With contributions from (in alphabetic order):
   Daniel Aravena         : Magnetic Suceptibility
   Michael Atanasov       : Ab Initio Ligand Field Theory (pilot matlab implementation)
   Alexander A. Auer      : GIAO ZORA, VPT2 properties, NMR spectrum
   Ute Becker             : All parallelization in ORCA, NUMFREQ, NUMCALC
   Giovanni Bistoni       : ED, misc. LED, open-shell LED, HFLD
   Martin Brehm           : Molecular dynamics
   Dmytro Bykov           : pre 5.0 version of the SCF Hessian
   Marcos Casanova-Páez   : Triplet and SCS-CIS(D). UHF-(DLPNO)-IP/EA/STEOM-CCSD. UHF-CVS-IP/STEOM-CCSD
   Vijay G. Chilkuri      : MRCI spin determinant printing, contributions to CSF-ICE
   Pauline Colinet        : FMM embedding
   Dipayan Datta          : RHF DLPNO-CCSD density
   Achintya Kumar Dutta   : EOM-CC, STEOM-CC
   Nicolas Foglia         : Exact transition moments, OPA infrastructure, MCD improvements
   Dmitry Ganyushin       : Spin-Orbit,Spin-Spin,Magnetic field MRCI
   Miquel Garcia          : C-PCM and meta-GGA Hessian, CCSD/C-PCM, Gaussian charge scheme
   Tiago L. C. Gouveia    : GS-ROHF, GS-ROCIS
   Yang Guo               : DLPNO-NEVPT2, F12-NEVPT2, CIM, IAO-localization
   Andreas Hansen         : Spin unrestricted coupled pair/coupled cluster methods
   Ingolf Harden          : AUTO-CI MPn and infrastructure 
   Benjamin Helmich-Paris : MC-RPA, TRAH-(SCF,CASSCF), AVAS, COSX integrals, SCF dyn. polar.
   Lee Huntington         : MR-EOM, pCC
   Robert Izsak           : Overlap fitted RIJCOSX, COSX-SCS-MP3, EOM
   Riya Kayal             : Wick's Theorem for AUTO-CI, AUTO-CI UHF-CCSDT
   Emily Kempfer          : AUTO-CI, RHF CISDT and CCSDT
   Christian Kollmar      : KDIIS, OOCD, Brueckner-CCSD(T), CCSD density, CASPT2, CASPT2-K, improved NEVPT2
   Axel Koslowski         : Symmetry handling
   Simone Kossmann        : Meta GGA functionals, TD-DFT gradient, OOMP2, (MP2 Hessian; deprecated post 5.0)
   Lucas Lang             : DCDCAS
   Marvin Lechner         : AUTO-CI (C++ implementation), FIC-MRCC
   Spencer Leger          : CASSCF response
   Dagmar Lenk            : GEPOL surface, SMD, ORCA-2-JSON
   Dimitrios Liakos       : Extrapolation schemes; Compound Job, initial MDCI parallelization
   Dimitrios Manganas     : Further ROCIS development; embedding schemes. LFT, Crystal Embedding
   Dimitrios Pantazis     : SARC Basis sets
   Anastasios Papadopoulos: AUTO-CI, single reference methods and gradients
   Taras Petrenko         : pre 6.0 DFT Hessian and TD-DFT gradient, (ASA, deprecated), ECA, 1-Electron XAS/XES, NRVS
   Peter Pinski           : DLPNO-MP2, DLPNO-MP2 Gradient
   Christoph Reimann      : Effective Core Potentials
   Marius Retegan         : Local ZFS, SOC
   Christoph Riplinger    : Optimizer, TS searches, QM/MM, DLPNO-CCSD(T), (RO)-DLPNO pert. Triples
   Michael Roemelt        : Original ROCIS implementation
   Masaaki Saitow         : Open-shell DLPNO-CCSD energy and density
   Barbara Sandhoefer     : DKH picture change effects
   Kantharuban Sivalingam : CASSCF convergence/infrastructure, NEVPT2 and variants, FIC-MRCI
   Bernardo de Souza      : ESD, SOC TD-DFT
   Georgi Stoychev        : AutoAux, RI-MP2 NMR, DLPNO-MP2 response, X2C
   Van Anh Tran           : RI-MP2 g-tensors
   Willem Van den Heuvel  : Paramagnetic NMR
   Zikuan Wang            : NOTCH, Electric field optimization 
   Frank Wennmohs         : Technical directorship and infrastructure
   Hang Xu                : AUTO-CI-Response properties 


 We gratefully acknowledge several colleagues who have allowed us to
 interface, adapt or use parts of their codes:
   Stefan Grimme, W. Hujo, H. Kruse, P. Pracht,  : VdW corrections, initial TS optimization,
                  C. Bannwarth, S. Ehlert,         DFT functionals, gCP, sTDA/sTD-DF
                  L. Wittmann, M. Mueller
   Ed Valeev, F. Pavosevic, A. Kumar             : LibInt (2-el integral package), F12 methods
   Garnet Chan, S. Sharma, J. Yang, R. Olivares  : DMRG
   Ulf Ekstrom                                   : XCFun DFT Library
   Mihaly Kallay                                 : mrcc  (arbitrary order and MRCC methods)
   Frank Weinhold                                : gennbo (NPA and NBO analysis)
   Simon Mueller                                 : openCOSMO-RS
   Christopher J. Cramer and Donald G. Truhlar   : smd solvation model
   Lars Goerigk                                  : TD-DFT with DH, B97 family of functionals
   V. Asgeirsson, H. Jonsson                     : NEB implementation
   FAccTs GmbH                                   : IRC, NEB, NEB-TS, DLPNO-Multilevel, CI-OPT
                                                   MM, QMMM, 2- and 3-layer-ONIOM, Crystal-QMMM,
                                                   LR-CPCM, SF, NACMEs, symmetry and pop. for TD-DFT,
                                                   nearIR, NL-DFT gradient (VV10), updates on ESD,
                                                   ML-optimized integration grids, MBIS, APM,
                                                   GOAT, DOCKER, SOLVATOR, interface openCOSMO-RS
   S Lehtola, MJT Oliveira, MAL Marques          : LibXC Library
   Liviu Ungur et al                             : ANISO software


 Your calculation uses the libint2 library for the computation of 2-el integrals
 For citations please refer to: http://libint.valeyev.net

 Your ORCA version has been built with support for libXC version: 6.2.2
 For citations please refer to: https://libxc.gitlab.io

 This ORCA versions uses:
   CBLAS   interface :  Fast vector & matrix operations
   LAPACKE interface :  Fast linear algebra routines
   SCALAPACK package :  Parallel linear algebra routines
   Shared memory     :  Shared parallel matrices
   BLAS/LAPACK       :  OpenBLAS 0.3.27  USE64BITINT DYNAMIC_ARCH NO_AFFINITY Zen SINGLE_THREADED
        Core in use  :  Zen
   Copyright (c) 2011-2014, The OpenBLAS Project



                                 *****************
                                 * O   R   C   A *
                                 *****************

                                            #,                                       
                                            ###                                      
                                            ####                                     
                                            #####                                    
                                            ######                                   
                                           ########,                                 
                                     ,,################,,,,,                         
                               ,,#################################,,                 
                          ,,##########################################,,             
                       ,#########################################, ''#####,          
                    ,#############################################,,   '####,        
                  ,##################################################,,,,####,       
                ,###########''''           ''''###############################       
              ,#####''   ,,,,##########,,,,          '''####'''          '####       
            ,##' ,,,,###########################,,,                        '##       
           ' ,,###''''                  '''############,,,                           
         ,,##''                                '''############,,,,        ,,,,,,###''
      ,#''                                            '''#######################'''  
     '                                                          ''''####''''         
             ,#######,   #######,   ,#######,      ##                                
            ,#'     '#,  ##    ##  ,#'     '#,    #''#        ,####,   ,####,        
            ##       ##  ##   ,#'  ##            #'  '#       #'       #'  '#        
            ##       ##  #######   ##           ,######,      #####,   #    #        
            '#,     ,#'  ##    ##  '#,     ,#' ,#      #,     #,   #   #,  ,#        
             '#######'   ##     ##  '#######'  #'      '#     '####' # '####'        



                #########################################################
                #                        -***-                          #
                #          Department of theory and spectroscopy        #
                #                                                       #
                #                      Frank Neese                      #
                #                                                       #
                #     Directorship, Architecture, Infrastructure        #
                #                    SHARK, DRIVERS                     #
                #        Core code/Algorithms in most modules           #
                #                                                       #
                #        Max Planck Institute fuer Kohlenforschung      #
                #                Kaiser Wilhelm Platz 1                 #
                #                 D-45470 Muelheim/Ruhr                 #
                #                      Germany                          #
                #                                                       #
                #                  All rights reserved                  #
                #                        -***-                          #
                #########################################################


                         Program Version 6.0.0  -   RELEASE  -


 With contributions from (in alphabetic order):
   Daniel Aravena         : Magnetic Suceptibility
   Michael Atanasov       : Ab Initio Ligand Field Theory (pilot matlab implementation)
   Alexander A. Auer      : GIAO ZORA, VPT2 properties, NMR spectrum
   Ute Becker             : All parallelization in ORCA, NUMFREQ, NUMCALC
   Giovanni Bistoni       : ED, misc. LED, open-shell LED, HFLD
   Martin Brehm           : Molecular dynamics
   Dmytro Bykov           : pre 5.0 version of the SCF Hessian
   Marcos Casanova-Páez   : Triplet and SCS-CIS(D). UHF-(DLPNO)-IP/EA/STEOM-CCSD. UHF-CVS-IP/STEOM-CCSD
   Vijay G. Chilkuri      : MRCI spin determinant printing, contributions to CSF-ICE
   Pauline Colinet        : FMM embedding
   Dipayan Datta          : RHF DLPNO-CCSD density
   Achintya Kumar Dutta   : EOM-CC, STEOM-CC
   Nicolas Foglia         : Exact transition moments, OPA infrastructure, MCD improvements
   Dmitry Ganyushin       : Spin-Orbit,Spin-Spin,Magnetic field MRCI
   Miquel Garcia          : C-PCM and meta-GGA Hessian, CCSD/C-PCM, Gaussian charge scheme
   Tiago L. C. Gouveia    : GS-ROHF, GS-ROCIS
   Yang Guo               : DLPNO-NEVPT2, F12-NEVPT2, CIM, IAO-localization
   Andreas Hansen         : Spin unrestricted coupled pair/coupled cluster methods
   Ingolf Harden          : AUTO-CI MPn and infrastructure 
   Benjamin Helmich-Paris : MC-RPA, TRAH-(SCF,CASSCF), AVAS, COSX integrals, SCF dyn. polar.
   Lee Huntington         : MR-EOM, pCC
   Robert Izsak           : Overlap fitted RIJCOSX, COSX-SCS-MP3, EOM
   Riya Kayal             : Wick's Theorem for AUTO-CI, AUTO-CI UHF-CCSDT
   Emily Kempfer          : AUTO-CI, RHF CISDT and CCSDT
   Christian Kollmar      : KDIIS, OOCD, Brueckner-CCSD(T), CCSD density, CASPT2, CASPT2-K, improved NEVPT2
   Axel Koslowski         : Symmetry handling
   Simone Kossmann        : Meta GGA functionals, TD-DFT gradient, OOMP2, (MP2 Hessian; deprecated post 5.0)
   Lucas Lang             : DCDCAS
   Marvin Lechner         : AUTO-CI (C++ implementation), FIC-MRCC
   Spencer Leger          : CASSCF response
   Dagmar Lenk            : GEPOL surface, SMD, ORCA-2-JSON
   Dimitrios Liakos       : Extrapolation schemes; Compound Job, initial MDCI parallelization
   Dimitrios Manganas     : Further ROCIS development; embedding schemes. LFT, Crystal Embedding
   Dimitrios Pantazis     : SARC Basis sets
   Anastasios Papadopoulos: AUTO-CI, single reference methods and gradients
   Taras Petrenko         : pre 6.0 DFT Hessian and TD-DFT gradient, (ASA, deprecated), ECA, 1-Electron XAS/XES, NRVS
   Peter Pinski           : DLPNO-MP2, DLPNO-MP2 Gradient
   Christoph Reimann      : Effective Core Potentials
   Marius Retegan         : Local ZFS, SOC
   Christoph Riplinger    : Optimizer, TS searches, QM/MM, DLPNO-CCSD(T), (RO)-DLPNO pert. Triples
   Michael Roemelt        : Original ROCIS implementation
   Masaaki Saitow         : Open-shell DLPNO-CCSD energy and density
   Barbara Sandhoefer     : DKH picture change effects
   Kantharuban Sivalingam : CASSCF convergence/infrastructure, NEVPT2 and variants, FIC-MRCI
   Bernardo de Souza      : ESD, SOC TD-DFT
   Georgi Stoychev        : AutoAux, RI-MP2 NMR, DLPNO-MP2 response, X2C
   Van Anh Tran           : RI-MP2 g-tensors
   Willem Van den Heuvel  : Paramagnetic NMR
   Zikuan Wang            : NOTCH, Electric field optimization 
   Frank Wennmohs         : Technical directorship and infrastructure
   Hang Xu                : AUTO-CI-Response properties 


 We gratefully acknowledge several colleagues who have allowed us to
 interface, adapt or use parts of their codes:
   Stefan Grimme, W. Hujo, H. Kruse, P. Pracht,  : VdW corrections, initial TS optimization,
                  C. Bannwarth, S. Ehlert,         DFT functionals, gCP, sTDA/sTD-DF
                  L. Wittmann, M. Mueller
   Ed Valeev, F. Pavosevic, A. Kumar             : LibInt (2-el integral package), F12 methods
   Garnet Chan, S. Sharma, J. Yang, R. Olivares  : DMRG
   Ulf Ekstrom                                   : XCFun DFT Library
   Mihaly Kallay                                 : mrcc  (arbitrary order and MRCC methods)
   Frank Weinhold                                : gennbo (NPA and NBO analysis)
   Simon Mueller                                 : openCOSMO-RS
   Christopher J. Cramer and Donald G. Truhlar   : smd solvation model
   Lars Goerigk                                  : TD-DFT with DH, B97 family of functionals
   V. Asgeirsson, H. Jonsson                     : NEB implementation
   FAccTs GmbH                                   : IRC, NEB, NEB-TS, DLPNO-Multilevel, CI-OPT
                                                   MM, QMMM, 2- and 3-layer-ONIOM, Crystal-QMMM,
                                                   LR-CPCM, SF, NACMEs, symmetry and pop. for TD-DFT,
                                                   nearIR, NL-DFT gradient (VV10), updates on ESD,
                                                   ML-optimized integration grids, MBIS, APM,
                                                   GOAT, DOCKER, SOLVATOR, interface openCOSMO-RS
   S Lehtola, MJT Oliveira, MAL Marques          : LibXC Library
   Liviu Ungur et al                             : ANISO software


 Your calculation uses the libint2 library for the computation of 2-el integrals
 For citations please refer to: http://libint.valeyev.net

 Your ORCA version has been built with support for libXC version: 6.2.2
 For citations please refer to: https://libxc.gitlab.io

 This ORCA versions uses:
   CBLAS   interface :  Fast vector & matrix operations
   LAPACKE interface :  Fast linear algebra routines
   SCALAPACK package :  Parallel linear algebra routines
   Shared memory     :  Shared parallel matrices
   BLAS/LAPACK       :  OpenBLAS 0.3.27  USE64BITINT DYNAMIC_ARCH NO_AFFINITY Zen SINGLE_THREADED
        Core in use  :  Zen
   Copyright (c) 2011-2014, The OpenBLAS Project



                                 *****************
                                 * O   R   C   A *
                                 *****************

                                            #,                                       
                                            ###                                      
                                            ####                                     
                                            #####                                    
                                            ######                                   
                                           ########,                                 
                                     ,,################,,,,,                         
                               ,,#################################,,                 
                          ,,##########################################,,             
                       ,#########################################, ''#####,          
                    ,#############################################,,   '####,        
                  ,##################################################,,,,####,       
                ,###########''''           ''''###############################       
              ,#####''   ,,,,##########,,,,          '''####'''          '####       
            ,##' ,,,,###########################,,,                        '##       
           ' ,,###''''                  '''############,,,                           
         ,,##''                                '''############,,,,        ,,,,,,###''
      ,#''                                            '''#######################'''  
     '                                                          ''''####''''         
             ,#######,   #######,   ,#######,      ##                                
            ,#'     '#,  ##    ##  ,#'     '#,    #''#        ,####,   ,####,        
            ##       ##  ##   ,#'  ##            #'  '#       #'       #'  '#        
            ##       ##  #######   ##           ,######,      #####,   #    #        
            '#,     ,#'  ##    ##  '#,     ,#' ,#      #,     #,   #   #,  ,#        
             '#######'   ##     ##  '#######'  #'      '#     '####' # '####'        



                #########################################################
                #                        -***-                          #
                #          Department of theory and spectroscopy        #
                #                                                       #
                #                      Frank Neese                      #
                #                                                       #
                #     Directorship, Architecture, Infrastructure        #
                #                    SHARK, DRIVERS                     #
                #        Core code/Algorithms in most modules           #
                #                                                       #
                #        Max Planck Institute fuer Kohlenforschung      #
                #                Kaiser Wilhelm Platz 1                 #
                #                 D-45470 Muelheim/Ruhr                 #
                #                      Germany                          #
                #                                                       #
                #                  All rights reserved                  #
                #                        -***-                          #
                #########################################################


                         Program Version 6.0.0  -   RELEASE  -


 With contributions from (in alphabetic order):
   Daniel Aravena         : Magnetic Suceptibility
   Michael Atanasov       : Ab Initio Ligand Field Theory (pilot matlab implementation)
   Alexander A. Auer      : GIAO ZORA, VPT2 properties, NMR spectrum
   Ute Becker             : All parallelization in ORCA, NUMFREQ, NUMCALC
   Giovanni Bistoni       : ED, misc. LED, open-shell LED, HFLD
   Martin Brehm           : Molecular dynamics
   Dmytro Bykov           : pre 5.0 version of the SCF Hessian
   Marcos Casanova-Páez   : Triplet and SCS-CIS(D). UHF-(DLPNO)-IP/EA/STEOM-CCSD. UHF-CVS-IP/STEOM-CCSD
   Vijay G. Chilkuri      : MRCI spin determinant printing, contributions to CSF-ICE
   Pauline Colinet        : FMM embedding
   Dipayan Datta          : RHF DLPNO-CCSD density
   Achintya Kumar Dutta   : EOM-CC, STEOM-CC
   Nicolas Foglia         : Exact transition moments, OPA infrastructure, MCD improvements
   Dmitry Ganyushin       : Spin-Orbit,Spin-Spin,Magnetic field MRCI
   Miquel Garcia          : C-PCM and meta-GGA Hessian, CCSD/C-PCM, Gaussian charge scheme
   Tiago L. C. Gouveia    : GS-ROHF, GS-ROCIS
   Yang Guo               : DLPNO-NEVPT2, F12-NEVPT2, CIM, IAO-localization
   Andreas Hansen         : Spin unrestricted coupled pair/coupled cluster methods
   Ingolf Harden          : AUTO-CI MPn and infrastructure 
   Benjamin Helmich-Paris : MC-RPA, TRAH-(SCF,CASSCF), AVAS, COSX integrals, SCF dyn. polar.
   Lee Huntington         : MR-EOM, pCC
   Robert Izsak           : Overlap fitted RIJCOSX, COSX-SCS-MP3, EOM
   Riya Kayal             : Wick's Theorem for AUTO-CI, AUTO-CI UHF-CCSDT
   Emily Kempfer          : AUTO-CI, RHF CISDT and CCSDT
   Christian Kollmar      : KDIIS, OOCD, Brueckner-CCSD(T), CCSD density, CASPT2, CASPT2-K, improved NEVPT2
   Axel Koslowski         : Symmetry handling
   Simone Kossmann        : Meta GGA functionals, TD-DFT gradient, OOMP2, (MP2 Hessian; deprecated post 5.0)
   Lucas Lang             : DCDCAS
   Marvin Lechner         : AUTO-CI (C++ implementation), FIC-MRCC
   Spencer Leger          : CASSCF response
   Dagmar Lenk            : GEPOL surface, SMD, ORCA-2-JSON
   Dimitrios Liakos       : Extrapolation schemes; Compound Job, initial MDCI parallelization
   Dimitrios Manganas     : Further ROCIS development; embedding schemes. LFT, Crystal Embedding
   Dimitrios Pantazis     : SARC Basis sets
   Anastasios Papadopoulos: AUTO-CI, single reference methods and gradients
   Taras Petrenko         : pre 6.0 DFT Hessian and TD-DFT gradient, (ASA, deprecated), ECA, 1-Electron XAS/XES, NRVS
   Peter Pinski           : DLPNO-MP2, DLPNO-MP2 Gradient
   Christoph Reimann      : Effective Core Potentials
   Marius Retegan         : Local ZFS, SOC
   Christoph Riplinger    : Optimizer, TS searches, QM/MM, DLPNO-CCSD(T), (RO)-DLPNO pert. Triples
   Michael Roemelt        : Original ROCIS implementation
   Masaaki Saitow         : Open-shell DLPNO-CCSD energy and density
   Barbara Sandhoefer     : DKH picture change effects
   Kantharuban Sivalingam : CASSCF convergence/infrastructure, NEVPT2 and variants, FIC-MRCI
   Bernardo de Souza      : ESD, SOC TD-DFT
   Georgi Stoychev        : AutoAux, RI-MP2 NMR, DLPNO-MP2 response, X2C
   Van Anh Tran           : RI-MP2 g-tensors
   Willem Van den Heuvel  : Paramagnetic NMR
   Zikuan Wang            : NOTCH, Electric field optimization 
   Frank Wennmohs         : Technical directorship and infrastructure
   Hang Xu                : AUTO-CI-Response properties 


 We gratefully acknowledge several colleagues who have allowed us to
 interface, adapt or use parts of their codes:
   Stefan Grimme, W. Hujo, H. Kruse, P. Pracht,  : VdW corrections, initial TS optimization,
                  C. Bannwarth, S. Ehlert,         DFT functionals, gCP, sTDA/sTD-DF
                  L. Wittmann, M. Mueller
   Ed Valeev, F. Pavosevic, A. Kumar             : LibInt (2-el integral package), F12 methods
   Garnet Chan, S. Sharma, J. Yang, R. Olivares  : DMRG
   Ulf Ekstrom                                   : XCFun DFT Library
   Mihaly Kallay                                 : mrcc  (arbitrary order and MRCC methods)
   Frank Weinhold                                : gennbo (NPA and NBO analysis)
   Simon Mueller                                 : openCOSMO-RS
   Christopher J. Cramer and Donald G. Truhlar   : smd solvation model
   Lars Goerigk                                  : TD-DFT with DH, B97 family of functionals
   V. Asgeirsson, H. Jonsson                     : NEB implementation
   FAccTs GmbH                                   : IRC, NEB, NEB-TS, DLPNO-Multilevel, CI-OPT
                                                   MM, QMMM, 2- and 3-layer-ONIOM, Crystal-QMMM,
                                                   LR-CPCM, SF, NACMEs, symmetry and pop. for TD-DFT,
                                                   nearIR, NL-DFT gradient (VV10), updates on ESD,
                                                   ML-optimized integration grids, MBIS, APM,
                                                   GOAT, DOCKER, SOLVATOR, interface openCOSMO-RS
   S Lehtola, MJT Oliveira, MAL Marques          : LibXC Library
   Liviu Ungur et al                             : ANISO software


 Your calculation uses the libint2 library for the computation of 2-el integrals
 For citations please refer to: http://libint.valeyev.net

 Your ORCA version has been built with support for libXC version: 6.2.2
 For citations please refer to: https://libxc.gitlab.io

 This ORCA versions uses:
   CBLAS   interface :  Fast vector & matrix operations
   LAPACKE interface :  Fast linear algebra routines
   SCALAPACK package :  Parallel linear algebra routines
   Shared memory     :  Shared parallel matrices
   BLAS/LAPACK       :  OpenBLAS 0.3.27  USE64BITINT DYNAMIC_ARCH NO_AFFINITY Zen SINGLE_THREADED
        Core in use  :  Zen
   Copyright (c) 2011-2014, The OpenBLAS Project


   Robert Izsak           : Overlap fitted RIJCOSX, COSX-SCS-MP3, EOM
   Riya Kayal             : Wick's Theorem for AUTO-CI, AUTO-CI UHF-CCSDT
   Emily Kempfer          : AUTO-CI, RHF CISDT and CCSDT
   Christian Kollmar      : KDIIS, OOCD, Brueckner-CCSD(T), CCSD density, CASPT2, CASPT2-K, improved NEVPT2
   Axel Koslowski         : Symmetry handling
   Simone Kossmann        : Meta GGA functionals, TD-DFT gradient, OOMP2, (MP2 Hessian; deprecated post 5.0)
   Lucas Lang             : DCDCAS
   Marvin Lechner         : AUTO-CI (C++ implementation), FIC-MRCC
   Spencer Leger          : CASSCF response
   Dagmar Lenk            : GEPOL surface, SMD, ORCA-2-JSON
   Dimitrios Liakos       : Extrapolation schemes; Compound Job, initial MDCI parallelization
   Dimitrios Manganas     : Further ROCIS development; embedding schemes. LFT, Crystal Embedding
   Dimitrios Pantazis     : SARC Basis sets
   Anastasios Papadopoulos: AUTO-CI, single reference methods and gradients
   Taras Petrenko         : pre 6.0 DFT Hessian and TD-DFT gradient, (ASA, deprecated), ECA, 1-Electron XAS/XES, NRVS
   Peter Pinski           : DLPNO-MP2, DLPNO-MP2 Gradient
   Christoph Reimann      : Effective Core Potentials
   Marius Retegan         : Local ZFS, SOC
   Christoph Riplinger    : Optimizer, TS searches, QM/MM, DLPNO-CCSD(T), (RO)-DLPNO pert. Triples
   Michael Roemelt        : Original ROCIS implementation
   Masaaki Saitow         : Open-shell DLPNO-CCSD energy and density
   Barbara Sandhoefer     : DKH picture change effects
   Kantharuban Sivalingam : CASSCF convergence/infrastructure, NEVPT2 and variants, FIC-MRCI
   Bernardo de Souza      : ESD, SOC TD-DFT
   Georgi Stoychev        : AutoAux, RI-MP2 NMR, DLPNO-MP2 response, X2C
   Van Anh Tran           : RI-MP2 g-tensors
   Willem Van den Heuvel  : Paramagnetic NMR
   Zikuan Wang            : NOTCH, Electric field optimization 

                                 *****************
                                 * O   R   C   A *
                                 *****************

                                 *****************
                                 * O   R   C   A *
                                 *****************

                                            #,                                       
                                            ###                                      
                                            ####                                     
                                            #####                                    
                                            ######                                   
                                           ########,                                 
                                     ,,################,,,,,                         
                               ,,#################################,,                 
                          ,,##########################################,,             
                       ,#########################################, ''#####,          
                    ,#############################################,,   '####,        
                  ,##################################################,,,,####,       
                ,###########''''           ''''###############################       
              ,#####''   ,,,,##########,,,,          '''####'''          '####       
            ,##' ,,,,###########################,,,                        '##       
           ' ,,###''''                  '''############,,,                           
         ,,##''                                '''############,,,,        ,,,,,,###''
      ,#''                                            '''#######################'''  
     '                                                          ''''####''''         
             ,#######,   #######,   ,#######,      ##                                
            ,#'     '#,  ##    ##  ,#'     '#,    #''#        ,####,   ,####,        
            ##       ##  ##   ,#'  ##            #'  '#       #'       #'  '#        
            ##       ##  #######   ##           ,######,      #####,   #    #        
            '#,     ,#'  ##    ##  '#,     ,#' ,#      #,     #,   #   #,  ,#        
             '#######'   ##     ##  '#######'  #'      '#     '####' # '####'        




                                            #,                                       
                                            ###                                      
                                            ####                                     
                                            #####                                    
                                            ######                                   
                                           ########,                                 
                                     ,,################,,,,,                         
                               ,,#################################,,                 
                          ,,##########################################,,             
                       ,#########################################, ''#####,          
                    ,#############################################,,   '####,        
                  ,##################################################,,,,####,       
                ,###########''''           ''''###############################       
              ,#####''   ,,,,##########,,,,          '''####'''          '####       
            ,##' ,,,,###########################,,,                        '##       
           ' ,,###''''                  '''############,,,                           
         ,,##''                                '''############,,,,        ,,,,,,###''
      ,#''                                            '''#######################'''  
     '                                                          ''''####''''         
             ,#######,   #######,   ,#######,      ##                                
            ,#'     '#,  ##    ##  ,#'     '#,    #''#        ,####,   ,####,        
            ##       ##  ##   ,#'  ##            #'  '#       #'       #'  '#        
            ##       ##  #######   ##           ,######,      #####,   #    #        
            '#,     ,#'  ##    ##  '#,     ,#' ,#      #,     #,   #   #,  ,#        
             '#######'   ##     ##  '#######'  #'      '#     '####' # '####'        



                #########################################################
                #                        -***-                          #
                #          Department of theory and spectroscopy        #
                #                                                       #
                #                      Frank Neese                      #
                #                                                       #
                #     Directorship, Architecture, Infrastructure        #
                #                    SHARK, DRIVERS                     #
                #        Core code/Algorithms in most modules           #
                #                                                       #
                #        Max Planck Institute fuer Kohlenforschung      #
                #                Kaiser Wilhelm Platz 1                 #
                #                 D-45470 Muelheim/Ruhr                 #
                #                      Germany                          #
                #                                                       #
                #                  All rights reserved                  #
                #                        -***-                          #
                #########################################################


                         Program Version 6.0.0  -   RELEASE  -


 With contributions from (in alphabetic order):
   Daniel Aravena         : Magnetic Suceptibility
   Michael Atanasov       : Ab Initio Ligand Field Theory (pilot matlab implementation)
   Alexander A. Auer      : GIAO ZORA, VPT2 properties, NMR spectrum
   Ute Becker             : All parallelization in ORCA, NUMFREQ, NUMCALC
   Giovanni Bistoni       : ED, misc. LED, open-shell LED, HFLD
   Martin Brehm           : Molecular dynamics
   Dmytro Bykov           : pre 5.0 version of the SCF Hessian
                #########################################################
                #                        -***-                          #
                #          Department of theory and spectroscopy        #
                #                                                       #
                #                      Frank Neese                      #
                #                                                       #
                #     Directorship, Architecture, Infrastructure        #
                #                    SHARK, DRIVERS                     #
                #        Core code/Algorithms in most modules           #
                #                                                       #
                #        Max Planck Institute fuer Kohlenforschung      #
                #                Kaiser Wilhelm Platz 1                 #
                #                 D-45470 Muelheim/Ruhr                 #
                #                      Germany                          #
                #                                                       #
                #                  All rights reserved                  #
                #                        -***-                          #
                #########################################################


                         Program Version 6.0.0  -   RELEASE  -


 With contributions from (in alphabetic order):
   Daniel Aravena         : Magnetic Suceptibility
   Michael Atanasov       : Ab Initio Ligand Field Theory (pilot matlab implementation)
   Alexander A. Auer      : GIAO ZORA, VPT2 properties, NMR spectrum
   Ute Becker             : All parallelization in ORCA, NUMFREQ, NUMCALC
   Giovanni Bistoni       : ED, misc. LED, open-shell LED, HFLD
   Martin Brehm           : Molecular dynamics
   Dmytro Bykov           : pre 5.0 version of the SCF Hessian
   Marcos Casanova-Páez   : Triplet and SCS-CIS(D). UHF-(DLPNO)-IP/EA/STEOM-CCSD. UHF-CVS-IP/STEOM-CCSD
   Vijay G. Chilkuri      : MRCI spin determinant printing, contributions to CSF-ICE
   Pauline Colinet        : FMM embedding
   Dipayan Datta          : RHF DLPNO-CCSD density
   Achintya Kumar Dutta   : EOM-CC, STEOM-CC
   Nicolas Foglia         : Exact transition moments, OPA infrastructure, MCD improvements
   Dmitry Ganyushin       : Spin-Orbit,Spin-Spin,Magnetic field MRCI
   Miquel Garcia          : C-PCM and meta-GGA Hessian, CCSD/C-PCM, Gaussian charge scheme
   Tiago L. C. Gouveia    : GS-ROHF, GS-ROCIS
   Yang Guo               : DLPNO-NEVPT2, F12-NEVPT2, CIM, IAO-localization
   Andreas Hansen         : Spin unrestricted coupled pair/coupled cluster methods
   Ingolf Harden          : AUTO-CI MPn and infrastructure 
   Benjamin Helmich-Paris : MC-RPA, TRAH-(SCF,CASSCF), AVAS, COSX integrals, SCF dyn. polar.
   Lee Huntington         : MR-EOM, pCC
   Robert Izsak           : Overlap fitted RIJCOSX, COSX-SCS-MP3, EOM
   Riya Kayal             : Wick's Theorem for AUTO-CI, AUTO-CI UHF-CCSDT
   Emily Kempfer          : AUTO-CI, RHF CISDT and CCSDT
   Christian Kollmar      : KDIIS, OOCD, Brueckner-CCSD(T), CCSD density, CASPT2, CASPT2-K, improved NEVPT2
   Axel Koslowski         : Symmetry handling
   Simone Kossmann        : Meta GGA functionals, TD-DFT gradient, OOMP2, (MP2 Hessian; deprecated post 5.0)
   Lucas Lang             : DCDCAS
   Marvin Lechner         : AUTO-CI (C++ implementation), FIC-MRCC
   Spencer Leger          : CASSCF response
   Dagmar Lenk            : GEPOL surface, SMD, ORCA-2-JSON
   Dimitrios Liakos       : Extrapolation schemes; Compound Job, initial MDCI parallelization
   Dimitrios Manganas     : Further ROCIS development; embedding schemes. LFT, Crystal Embedding
   Dimitrios Pantazis     : SARC Basis sets
   Anastasios Papadopoulos: AUTO-CI, single reference methods and gradients
   Taras Petrenko         : pre 6.0 DFT Hessian and TD-DFT gradient, (ASA, deprecated), ECA, 1-Electron XAS/XES, NRVS
   Peter Pinski           : DLPNO-MP2, DLPNO-MP2 Gradient
   Christoph Reimann      : Effective Core Potentials
   Marcos Casanova-Páez   : Triplet and SCS-CIS(D). UHF-(DLPNO)-IP/EA/STEOM-CCSD. UHF-CVS-IP/STEOM-CCSD
   Vijay G. Chilkuri      : MRCI spin determinant printing, contributions to CSF-ICE
   Pauline Colinet        : FMM embedding
   Dipayan Datta          : RHF DLPNO-CCSD density
   Achintya Kumar Dutta   : EOM-CC, STEOM-CC
   Nicolas Foglia         : Exact transition moments, OPA infrastructure, MCD improvements
   Dmitry Ganyushin       : Spin-Orbit,Spin-Spin,Magnetic field MRCI
   Miquel Garcia          : C-PCM and meta-GGA Hessian, CCSD/C-PCM, Gaussian charge scheme
   Tiago L. C. Gouveia    : GS-ROHF, GS-ROCIS
   Yang Guo               : DLPNO-NEVPT2, F12-NEVPT2, CIM, IAO-localization
   Andreas Hansen         : Spin unrestricted coupled pair/coupled cluster methods
   Ingolf Harden          : AUTO-CI MPn and infrastructure 
   Benjamin Helmich-Paris : MC-RPA, TRAH-(SCF,CASSCF), AVAS, COSX integrals, SCF dyn. polar.
   Lee Huntington         : MR-EOM, pCC
   Robert Izsak           : Overlap fitted RIJCOSX, COSX-SCS-MP3, EOM
   Riya Kayal             : Wick's Theorem for AUTO-CI, AUTO-CI UHF-CCSDT
   Emily Kempfer          : AUTO-CI, RHF CISDT and CCSDT
   Christian Kollmar      : KDIIS, OOCD, Brueckner-CCSD(T), CCSD density, CASPT2, CASPT2-K, improved NEVPT2
   Axel Koslowski         : Symmetry handling
   Simone Kossmann        : Meta GGA functionals, TD-DFT gradient, OOMP2, (MP2 Hessian; deprecated post 5.0)
   Lucas Lang             : DCDCAS
   Marvin Lechner         : AUTO-CI (C++ implementation), FIC-MRCC
   Spencer Leger          : CASSCF response
   Dagmar Lenk            : GEPOL surface, SMD, ORCA-2-JSON
   Dimitrios Liakos       : Extrapolation schemes; Compound Job, initial MDCI parallelization
   Dimitrios Manganas     : Further ROCIS development; embedding schemes. LFT, Crystal Embedding
   Dimitrios Pantazis     : SARC Basis sets
   Anastasios Papadopoulos: AUTO-CI, single reference methods and gradients
   Taras Petrenko         : pre 6.0 DFT Hessian and TD-DFT gradient, (ASA, deprecated), ECA, 1-Electron XAS/XES, NRVS
   Peter Pinski           : DLPNO-MP2, DLPNO-MP2 Gradient
   Christoph Reimann      : Effective Core Potentials
   Marius Retegan         : Local ZFS, SOC
   Christoph Riplinger    : Optimizer, TS searches, QM/MM, DLPNO-CCSD(T), (RO)-DLPNO pert. Triples
   Michael Roemelt        : Original ROCIS implementation
   Masaaki Saitow         : Open-shell DLPNO-CCSD energy and density
   Barbara Sandhoefer     : DKH picture change effects
   Kantharuban Sivalingam : CASSCF convergence/infrastructure, NEVPT2 and variants, FIC-MRCI
   Bernardo de Souza      : ESD, SOC TD-DFT
   Georgi Stoychev        : AutoAux, RI-MP2 NMR, DLPNO-MP2 response, X2C
   Van Anh Tran           : RI-MP2 g-tensors
   Willem Van den Heuvel  : Paramagnetic NMR
   Zikuan Wang            : NOTCH, Electric field optimization 
   Frank Wennmohs         : Technical directorship and infrastructure
   Hang Xu                : AUTO-CI-Response properties 


 We gratefully acknowledge several colleagues who have allowed us to
 interface, adapt or use parts of their codes:
   Stefan Grimme, W. Hujo, H. Kruse, P. Pracht,  : VdW corrections, initial TS optimization,
                  C. Bannwarth, S. Ehlert,         DFT functionals, gCP, sTDA/sTD-DF
                  L. Wittmann, M. Mueller
   Ed Valeev, F. Pavosevic, A. Kumar             : LibInt (2-el integral package), F12 methods
   Garnet Chan, S. Sharma, J. Yang, R. Olivares  : DMRG
   Ulf Ekstrom                                   : XCFun DFT Library
   Mihaly Kallay                                 : mrcc  (arbitrary order and MRCC methods)
   Frank Weinhold                                : gennbo (NPA and NBO analysis)
   Simon Mueller                                 : openCOSMO-RS
   Christopher J. Cramer and Donald G. Truhlar   : smd solvation model
   Lars Goerigk                                  : TD-DFT with DH, B97 family of functionals
   V. Asgeirsson, H. Jonsson                     : NEB implementation
   Marius Retegan         : Local ZFS, SOC
   Christoph Riplinger    : Optimizer, TS searches, QM/MM, DLPNO-CCSD(T), (RO)-DLPNO pert. Triples
   Michael Roemelt        : Original ROCIS implementation
   Masaaki Saitow         : Open-shell DLPNO-CCSD energy and density
   Barbara Sandhoefer     : DKH picture change effects
   Kantharuban Sivalingam : CASSCF convergence/infrastructure, NEVPT2 and variants, FIC-MRCI
   Bernardo de Souza      : ESD, SOC TD-DFT
   Georgi Stoychev        : AutoAux, RI-MP2 NMR, DLPNO-MP2 response, X2C
   Van Anh Tran           : RI-MP2 g-tensors
   Willem Van den Heuvel  : Paramagnetic NMR
   Zikuan Wang            : NOTCH, Electric field optimization 
   Frank Wennmohs         : Technical directorship and infrastructure
   Hang Xu                : AUTO-CI-Response properties 


 We gratefully acknowledge several colleagues who have allowed us to
 interface, adapt or use parts of their codes:
   Stefan Grimme, W. Hujo, H. Kruse, P. Pracht,  : VdW corrections, initial TS optimization,
                  C. Bannwarth, S. Ehlert,         DFT functionals, gCP, sTDA/sTD-DF
                  L. Wittmann, M. Mueller
   Ed Valeev, F. Pavosevic, A. Kumar             : LibInt (2-el integral package), F12 methods
   Garnet Chan, S. Sharma, J. Yang, R. Olivares  : DMRG
   Ulf Ekstrom                                   : XCFun DFT Library
   Mihaly Kallay                                 : mrcc  (arbitrary order and MRCC methods)
   Frank Weinhold                                : gennbo (NPA and NBO analysis)
   Simon Mueller                                 : openCOSMO-RS
   Christopher J. Cramer and Donald G. Truhlar   : smd solvation model
   Lars Goerigk                                  : TD-DFT with DH, B97 family of functionals
   V. Asgeirsson, H. Jonsson                     : NEB implementation
   FAccTs GmbH                                   : IRC, NEB, NEB-TS, DLPNO-Multilevel, CI-OPT
                                                   MM, QMMM, 2- and 3-layer-ONIOM, Crystal-QMMM,
                                                   LR-CPCM, SF, NACMEs, symmetry and pop. for TD-DFT,
                                                   nearIR, NL-DFT gradient (VV10), updates on ESD,
                                                   ML-optimized integration grids, MBIS, APM,
                                                   GOAT, DOCKER, SOLVATOR, interface openCOSMO-RS
   S Lehtola, MJT Oliveira, MAL Marques          : LibXC Library
   Liviu Ungur et al                             : ANISO software


 Your calculation uses the libint2 library for the computation of 2-el integrals
 For citations please refer to: http://libint.valeyev.net

 Your ORCA version has been built with support for libXC version: 6.2.2
 For citations please refer to: https://libxc.gitlab.io

 This ORCA versions uses:
   CBLAS   interface :  Fast vector & matrix operations
   LAPACKE interface :  Fast linear algebra routines
   SCALAPACK package :  Parallel linear algebra routines
   Shared memory     :  Shared parallel matrices
   BLAS/LAPACK       :  OpenBLAS 0.3.27  USE64BITINT DYNAMIC_ARCH NO_AFFINITY Zen SINGLE_THREADED
        Core in use  :  Zen
   Copyright (c) 2011-2014, The OpenBLAS Project


   FAccTs GmbH                                   : IRC, NEB, NEB-TS, DLPNO-Multilevel, CI-OPT
                                                   MM, QMMM, 2- and 3-layer-ONIOM, Crystal-QMMM,
                                                   LR-CPCM, SF, NACMEs, symmetry and pop. for TD-DFT,
                                                   nearIR, NL-DFT gradient (VV10), updates on ESD,
                                                   ML-optimized integration grids, MBIS, APM,
                                                   GOAT, DOCKER, SOLVATOR, interface openCOSMO-RS
   S Lehtola, MJT Oliveira, MAL Marques          : LibXC Library
   Liviu Ungur et al                             : ANISO software


 Your calculation uses the libint2 library for the computation of 2-el integrals
 For citations please refer to: http://libint.valeyev.net

 Your ORCA version has been built with support for libXC version: 6.2.2
 For citations please refer to: https://libxc.gitlab.io

 This ORCA versions uses:
   CBLAS   interface :  Fast vector & matrix operations
   LAPACKE interface :  Fast linear algebra routines
   SCALAPACK package :  Parallel linear algebra routines
   Shared memory     :  Shared parallel matrices
   BLAS/LAPACK       :  OpenBLAS 0.3.27  USE64BITINT DYNAMIC_ARCH NO_AFFINITY Zen SINGLE_THREADED
        Core in use  :  Zen
   Copyright (c) 2011-2014, The OpenBLAS Project


   Frank Wennmohs         : Technical directorship and infrastructure
   Hang Xu                : AUTO-CI-Response properties 


 We gratefully acknowledge several colleagues who have allowed us to
 interface, adapt or use parts of their codes:
   Stefan Grimme, W. Hujo, H. Kruse, P. Pracht,  : VdW corrections, initial TS optimization,
                  C. Bannwarth, S. Ehlert,         DFT functionals, gCP, sTDA/sTD-DF
                  L. Wittmann, M. Mueller
   Ed Valeev, F. Pavosevic, A. Kumar             : LibInt (2-el integral package), F12 methods
   Garnet Chan, S. Sharma, J. Yang, R. Olivares  : DMRG
   Ulf Ekstrom                                   : XCFun DFT Library
   Mihaly Kallay                                 : mrcc  (arbitrary order and MRCC methods)
   Frank Weinhold                                : gennbo (NPA and NBO analysis)
   Simon Mueller                                 : openCOSMO-RS
   Christopher J. Cramer and Donald G. Truhlar   : smd solvation model
   Lars Goerigk                                  : TD-DFT with DH, B97 family of functionals
   V. Asgeirsson, H. Jonsson                     : NEB implementation
   FAccTs GmbH                                   : IRC, NEB, NEB-TS, DLPNO-Multilevel, CI-OPT
                                                   MM, QMMM, 2- and 3-layer-ONIOM, Crystal-QMMM,
                                                   LR-CPCM, SF, NACMEs, symmetry and pop. for TD-DFT,
                                                   nearIR, NL-DFT gradient (VV10), updates on ESD,
                                                   ML-optimized integration grids, MBIS, APM,
                                                   GOAT, DOCKER, SOLVATOR, interface openCOSMO-RS
   S Lehtola, MJT Oliveira, MAL Marques          : LibXC Library
   Liviu Ungur et al                             : ANISO software


 Your calculation uses the libint2 library for the computation of 2-el integrals
 For citations please refer to: http://libint.valeyev.net

 Your ORCA version has been built with support for libXC version: 6.2.2
 For citations please refer to: https://libxc.gitlab.io

 This ORCA versions uses:
   CBLAS   interface :  Fast vector & matrix operations
   LAPACKE interface :  Fast linear algebra routines
   SCALAPACK package :  Parallel linear algebra routines
   Shared memory     :  Shared parallel matrices
   BLAS/LAPACK       :  OpenBLAS 0.3.27  USE64BITINT DYNAMIC_ARCH NO_AFFINITY Zen SINGLE_THREADED
        Core in use  :  Zen
   Copyright (c) 2011-2014, The OpenBLAS Project



                                 *****************
                                 * O   R   C   A *
                                 *****************

                                            #,                                       
                                            ###                                      
                                            ####                                     
                                            #####                                    
                                            ######                                   
                                           ########,                                 
                                     ,,################,,,,,                         
                               ,,#################################,,                 
                          ,,##########################################,,             
                       ,#########################################, ''#####,          
                    ,#############################################,,   '####,        
                  ,##################################################,,,,####,       
                ,###########''''           ''''###############################       
              ,#####''   ,,,,##########,,,,          '''####'''          '####       
            ,##' ,,,,###########################,,,                        '##       
           ' ,,###''''                  '''############,,,                           
         ,,##''                                '''############,,,,        ,,,,,,###''
      ,#''                                            '''#######################'''  
     '                                                          ''''####''''         
             ,#######,   #######,   ,#######,      ##                                
            ,#'     '#,  ##    ##  ,#'     '#,    #''#        ,####,   ,####,        
            ##       ##  ##   ,#'  ##            #'  '#       #'       #'  '#        
            ##       ##  #######   ##           ,######,      #####,   #    #        
            '#,     ,#'  ##    ##  '#,     ,#' ,#      #,     #,   #   #,  ,#        
             '#######'   ##     ##  '#######'  #'      '#     '####' # '####'        



                #########################################################
                #                        -***-                          #
                #          Department of theory and spectroscopy        #
                #                                                       #
                #                      Frank Neese                      #
                #                                                       #
                #     Directorship, Architecture, Infrastructure        #
                #                    SHARK, DRIVERS                     #
                #        Core code/Algorithms in most modules           #
                #                                                       #
                #        Max Planck Institute fuer Kohlenforschung      #
                #                Kaiser Wilhelm Platz 1                 #
                #                 D-45470 Muelheim/Ruhr                 #
                #                      Germany                          #
                #                                                       #
                #                  All rights reserved                  #
                #                        -***-                          #
                #########################################################


                         Program Version 6.0.0  -   RELEASE  -


 With contributions from (in alphabetic order):
   Daniel Aravena         : Magnetic Suceptibility
   Michael Atanasov       : Ab Initio Ligand Field Theory (pilot matlab implementation)
   Alexander A. Auer      : GIAO ZORA, VPT2 properties, NMR spectrum
   Ute Becker             : All parallelization in ORCA, NUMFREQ, NUMCALC
   Giovanni Bistoni       : ED, misc. LED, open-shell LED, HFLD
   Martin Brehm           : Molecular dynamics
   Dmytro Bykov           : pre 5.0 version of the SCF Hessian
   Marcos Casanova-Páez   : Triplet and SCS-CIS(D). UHF-(DLPNO)-IP/EA/STEOM-CCSD. UHF-CVS-IP/STEOM-CCSD
   Vijay G. Chilkuri      : MRCI spin determinant printing, contributions to CSF-ICE
   Pauline Colinet        : FMM embedding
   Dipayan Datta          : RHF DLPNO-CCSD density
   Achintya Kumar Dutta   : EOM-CC, STEOM-CC
   Nicolas Foglia         : Exact transition moments, OPA infrastructure, MCD improvements
   Dmitry Ganyushin       : Spin-Orbit,Spin-Spin,Magnetic field MRCI
   Miquel Garcia          : C-PCM and meta-GGA Hessian, CCSD/C-PCM, Gaussian charge scheme
   Tiago L. C. Gouveia    : GS-ROHF, GS-ROCIS
   Yang Guo               : DLPNO-NEVPT2, F12-NEVPT2, CIM, IAO-localization
   Andreas Hansen         : Spin unrestricted coupled pair/coupled cluster methods
   Ingolf Harden          : AUTO-CI MPn and infrastructure 
   Benjamin Helmich-Paris : MC-RPA, TRAH-(SCF,CASSCF), AVAS, COSX integrals, SCF dyn. polar.
   Lee Huntington         : MR-EOM, pCC
   Robert Izsak           : Overlap fitted RIJCOSX, COSX-SCS-MP3, EOM
   Riya Kayal             : Wick's Theorem for AUTO-CI, AUTO-CI UHF-CCSDT
   Emily Kempfer          : AUTO-CI, RHF CISDT and CCSDT
   Christian Kollmar      : KDIIS, OOCD, Brueckner-CCSD(T), CCSD density, CASPT2, CASPT2-K, improved NEVPT2
   Axel Koslowski         : Symmetry handling
   Simone Kossmann        : Meta GGA functionals, TD-DFT gradient, OOMP2, (MP2 Hessian; deprecated post 5.0)
   Lucas Lang             : DCDCAS
   Marvin Lechner         : AUTO-CI (C++ implementation), FIC-MRCC
   Spencer Leger          : CASSCF response
   Dagmar Lenk            : GEPOL surface, SMD, ORCA-2-JSON
   Dimitrios Liakos       : Extrapolation schemes; Compound Job, initial MDCI parallelization
   Dimitrios Manganas     : Further ROCIS development; embedding schemes. LFT, Crystal Embedding
   Dimitrios Pantazis     : SARC Basis sets
   Anastasios Papadopoulos: AUTO-CI, single reference methods and gradients
   Taras Petrenko         : pre 6.0 DFT Hessian and TD-DFT gradient, (ASA, deprecated), ECA, 1-Electron XAS/XES, NRVS
   Peter Pinski           : DLPNO-MP2, DLPNO-MP2 Gradient
   Christoph Reimann      : Effective Core Potentials
   Marius Retegan         : Local ZFS, SOC
   Christoph Riplinger    : Optimizer, TS searches, QM/MM, DLPNO-CCSD(T), (RO)-DLPNO pert. Triples
   Michael Roemelt        : Original ROCIS implementation
   Masaaki Saitow         : Open-shell DLPNO-CCSD energy and density
   Barbara Sandhoefer     : DKH picture change effects
   Kantharuban Sivalingam : CASSCF convergence/infrastructure, NEVPT2 and variants, FIC-MRCI
   Bernardo de Souza      : ESD, SOC TD-DFT
   Georgi Stoychev        : AutoAux, RI-MP2 NMR, DLPNO-MP2 response, X2C
   Van Anh Tran           : RI-MP2 g-tensors
   Willem Van den Heuvel  : Paramagnetic NMR
   Zikuan Wang            : NOTCH, Electric field optimization 
   Frank Wennmohs         : Technical directorship and infrastructure
   Hang Xu                : AUTO-CI-Response properties 


 We gratefully acknowledge several colleagues who have allowed us to
 interface, adapt or use parts of their codes:
   Stefan Grimme, W. Hujo, H. Kruse, P. Pracht,  : VdW corrections, initial TS optimization,
                  C. Bannwarth, S. Ehlert,         DFT functionals, gCP, sTDA/sTD-DF
                  L. Wittmann, M. Mueller
   Ed Valeev, F. Pavosevic, A. Kumar             : LibInt (2-el integral package), F12 methods
   Garnet Chan, S. Sharma, J. Yang, R. Olivares  : DMRG
   Ulf Ekstrom                                   : XCFun DFT Library
   Mihaly Kallay                                 : mrcc  (arbitrary order and MRCC methods)
   Frank Weinhold                                : gennbo (NPA and NBO analysis)
   Simon Mueller                                 : openCOSMO-RS
   Christopher J. Cramer and Donald G. Truhlar   : smd solvation model
   Lars Goerigk                                  : TD-DFT with DH, B97 family of functionals
   V. Asgeirsson, H. Jonsson                     : NEB implementation
   FAccTs GmbH                                   : IRC, NEB, NEB-TS, DLPNO-Multilevel, CI-OPT
                                                   MM, QMMM, 2- and 3-layer-ONIOM, Crystal-QMMM,
                                                   LR-CPCM, SF, NACMEs, symmetry and pop. for TD-DFT,
                                                   nearIR, NL-DFT gradient (VV10), updates on ESD,
                                                   ML-optimized integration grids, MBIS, APM,
                                                   GOAT, DOCKER, SOLVATOR, interface openCOSMO-RS
   S Lehtola, MJT Oliveira, MAL Marques          : LibXC Library
   Liviu Ungur et al                             : ANISO software


 Your calculation uses the libint2 library for the computation of 2-el integrals
 For citations please refer to: http://libint.valeyev.net

 Your ORCA version has been built with support for libXC version: 6.2.2
 For citations please refer to: https://libxc.gitlab.io

 This ORCA versions uses:
   CBLAS   interface :  Fast vector & matrix operations
   LAPACKE interface :  Fast linear algebra routines
   SCALAPACK package :  Parallel linear algebra routines
   Shared memory     :  Shared parallel matrices
   BLAS/LAPACK       :  OpenBLAS 0.3.27  USE64BITINT DYNAMIC_ARCH NO_AFFINITY Zen SINGLE_THREADED
        Core in use  :  Zen
   Copyright (c) 2011-2014, The OpenBLAS Project


NOTE: MaxCore=3000 MB was set to SCF,MP2,MDCI,CIPSI,MRCI and CIS
      => If you want to overwrite this, your respective input block should be placed after the MaxCore statement
Your calculation utilizes the SMD solvation module
Please cite in your paper:
A.V. Marenich, C.J. Cramer, D.G. Truhlar J. Phys. Chem. B, 113, (2009), 6378 

Warning: RI is on but no J-basis has been assigned. Assigning Def2/J (nothing to worry about!)
NOTE: MaxCore=3000 MB was set to SCF,MP2,MDCI,CIPSI,MRCI and CIS
================================================================================

----- Orbital basis set information -----
Your calculation utilizes the basis: ma-def2-SVP
   F. Weigend and R. Ahlrichs, Phys. Chem. Chem. Phys. 7, 3297 (2005).
   J. Zheng, X. Xu and D. G. Truhlar, Theor. Chem. Acc. 128, 295 (2011).

----- AuxJ basis set information -----
Your calculation utilizes the auxiliary basis: def2/J
   F. Weigend, Phys. Chem. Chem. Phys. 8, 1057 (2006).

      => If you want to overwrite this, your respective input block should be placed after the MaxCore statement
Your calculation utilizes the SMD solvation module
Please cite in your paper:
A.V. Marenich, C.J. Cramer, D.G. Truhlar J. Phys. Chem. B, 113, (2009), 6378 

Warning: RI is on but no J-basis has been assigned. Assigning Def2/J (nothing to worry about!)
================================================================================

----- Orbital basis set information -----
Your calculation utilizes the basis: ma-def2-SVP
   F. Weigend and R. Ahlrichs, Phys. Chem. Chem. Phys. 7, 3297 (2005).
   J. Zheng, X. Xu and D. G. Truhlar, Theor. Chem. Acc. 128, 295 (2011).

----- AuxJ basis set information -----
Your calculation utilizes the auxiliary basis: def2/J
   F. Weigend, Phys. Chem. Chem. Phys. 8, 1057 (2006).


                                 *****************
                                 * O   R   C   A *
                                 *****************

                                            #,                                       
                                            ###                                      
                                            ####                                     
                                            #####                                    
                                            ######                                   
                                           ########,                                 
                                     ,,################,,,,,                         
                               ,,#################################,,                 
                          ,,##########################################,,             
                       ,#########################################, ''#####,          
                    ,#############################################,,   '####,        
                  ,##################################################,,,,####,       
                ,###########''''           ''''###############################       
              ,#####''   ,,,,##########,,,,          '''####'''          '####       
            ,##' ,,,,###########################,,,                        '##       
           ' ,,###''''                  '''############,,,                           
         ,,##''                                '''############,,,,        ,,,,,,###''
      ,#''                                            '''#######################'''  
     '                                                          ''''####''''         
             ,#######,   #######,   ,#######,      ##                                
            ,#'     '#,  ##    ##  ,#'     '#,    #''#        ,####,   ,####,        
            ##       ##  ##   ,#'  ##            #'  '#       #'       #'  '#        
            ##       ##  #######   ##           ,######,      #####,   #    #        
            '#,     ,#'  ##    ##  '#,     ,#' ,#      #,     #,   #   #,  ,#        
             '#######'   ##     ##  '#######'  #'      '#     '####' # '####'        



                #########################################################
                #                        -***-                          #
                #          Department of theory and spectroscopy        #
                #                                                       #
                #                      Frank Neese                      #
                #                                                       #
                #     Directorship, Architecture, Infrastructure        #
                #                    SHARK, DRIVERS                     #
                #        Core code/Algorithms in most modules           #
                #                                                       #
                #        Max Planck Institute fuer Kohlenforschung      #
                #                Kaiser Wilhelm Platz 1                 #
                #                 D-45470 Muelheim/Ruhr                 #
                #                      Germany                          #
                #                                                       #
                #                  All rights reserved                  #
                #                        -***-                          #
                #########################################################


                         Program Version 6.0.0  -   RELEASE  -


 With contributions from (in alphabetic order):
   Daniel Aravena         : Magnetic Suceptibility
   Michael Atanasov       : Ab Initio Ligand Field Theory (pilot matlab implementation)
   Alexander A. Auer      : GIAO ZORA, VPT2 properties, NMR spectrum
   Ute Becker             : All parallelization in ORCA, NUMFREQ, NUMCALC


                                 *****************
                                 * O   R   C   A *
                                 *****************

                                            #,                                       
                                            ###                                      
                                            ####                                     
                                            #####                                    
                                            ######                                   
                                           ########,                                 
                                     ,,################,,,,,                         
                               ,,#################################,,                 
                          ,,##########################################,,             
                       ,#########################################, ''#####,          
                    ,#############################################,,   '####,        
                  ,##################################################,,,,####,       
                ,###########''''           ''''###############################       
              ,#####''   ,,,,##########,,,,          '''####'''          '####       
            ,##' ,,,,###########################,,,                        '##       
           ' ,,###''''                  '''############,,,                           
         ,,##''                                '''############,,,,        ,,,,,,###''
      ,#''                                            '''#######################'''  
     '                                                          ''''####''''         
             ,#######,   #######,   ,#######,      ##                                
            ,#'     '#,  ##    ##  ,#'     '#,    #''#        ,####,   ,####,        
            ##       ##  ##   ,#'  ##            #'  '#       #'       #'  '#        
            ##       ##  #######   ##           ,######,      #####,   #    #        
            '#,     ,#'  ##    ##  '#,     ,#' ,#      #,     #,   #   #,  ,#        
             '#######'   ##     ##  '#######'  #'      '#     '####' # '####'        



                #########################################################
                #                        -***-                          #
                #          Department of theory and spectroscopy        #
                #                                                       #
                #                      Frank Neese                      #
                #                                                       #
                #     Directorship, Architecture, Infrastructure        #
                #                    SHARK, DRIVERS                     #
                #        Core code/Algorithms in most modules           #
                #                                                       #
                #        Max Planck Institute fuer Kohlenforschung      #
                #                Kaiser Wilhelm Platz 1                 #
                #                 D-45470 Muelheim/Ruhr                 #
                #                      Germany                          #
                #                                                       #
                #                  All rights reserved                  #
                #                        -***-                          #
                #########################################################


                         Program Version 6.0.0  -   RELEASE  -


 With contributions from (in alphabetic order):
   Daniel Aravena         : Magnetic Suceptibility
   Michael Atanasov       : Ab Initio Ligand Field Theory (pilot matlab implementation)
   Alexander A. Auer      : GIAO ZORA, VPT2 properties, NMR spectrum
   Ute Becker             : All parallelization in ORCA, NUMFREQ, NUMCALC
   Giovanni Bistoni       : ED, misc. LED, open-shell LED, HFLD
   Martin Brehm           : Molecular dynamics
   Dmytro Bykov           : pre 5.0 version of the SCF Hessian
   Marcos Casanova-Páez   : Triplet and SCS-CIS(D). UHF-(DLPNO)-IP/EA/STEOM-CCSD. UHF-CVS-IP/STEOM-CCSD
   Vijay G. Chilkuri      : MRCI spin determinant printing, contributions to CSF-ICE
   Pauline Colinet        : FMM embedding
   Dipayan Datta          : RHF DLPNO-CCSD density
   Achintya Kumar Dutta   : EOM-CC, STEOM-CC
   Nicolas Foglia         : Exact transition moments, OPA infrastructure, MCD improvements
   Dmitry Ganyushin       : Spin-Orbit,Spin-Spin,Magnetic field MRCI
   Miquel Garcia          : C-PCM and meta-GGA Hessian, CCSD/C-PCM, Gaussian charge scheme
   Tiago L. C. Gouveia    : GS-ROHF, GS-ROCIS
   Yang Guo               : DLPNO-NEVPT2, F12-NEVPT2, CIM, IAO-localization
   Andreas Hansen         : Spin unrestricted coupled pair/coupled cluster methods
   Ingolf Harden          : AUTO-CI MPn and infrastructure 
   Benjamin Helmich-Paris : MC-RPA, TRAH-(SCF,CASSCF), AVAS, COSX integrals, SCF dyn. polar.
   Lee Huntington         : MR-EOM, pCC
   Robert Izsak           : Overlap fitted RIJCOSX, COSX-SCS-MP3, EOM
   Riya Kayal             : Wick's Theorem for AUTO-CI, AUTO-CI UHF-CCSDT
   Emily Kempfer          : AUTO-CI, RHF CISDT and CCSDT
   Christian Kollmar      : KDIIS, OOCD, Brueckner-CCSD(T), CCSD density, CASPT2, CASPT2-K, improved NEVPT2
   Axel Koslowski         : Symmetry handling
   Simone Kossmann        : Meta GGA functionals, TD-DFT gradient, OOMP2, (MP2 Hessian; deprecated post 5.0)
   Lucas Lang             : DCDCAS
   Marvin Lechner         : AUTO-CI (C++ implementation), FIC-MRCC
   Spencer Leger          : CASSCF response
   Dagmar Lenk            : GEPOL surface, SMD, ORCA-2-JSON
   Dimitrios Liakos       : Extrapolation schemes; Compound Job, initial MDCI parallelization
   Dimitrios Manganas     : Further ROCIS development; embedding schemes. LFT, Crystal Embedding
   Dimitrios Pantazis     : SARC Basis sets
   Anastasios Papadopoulos: AUTO-CI, single reference methods and gradients
   Taras Petrenko         : pre 6.0 DFT Hessian and TD-DFT gradient, (ASA, deprecated), ECA, 1-Electron XAS/XES, NRVS
   Peter Pinski           : DLPNO-MP2, DLPNO-MP2 Gradient
   Christoph Reimann      : Effective Core Potentials
   Marius Retegan         : Local ZFS, SOC
   Christoph Riplinger    : Optimizer, TS searches, QM/MM, DLPNO-CCSD(T), (RO)-DLPNO pert. Triples
   Michael Roemelt        : Original ROCIS implementation
   Masaaki Saitow         : Open-shell DLPNO-CCSD energy and density
   Barbara Sandhoefer     : DKH picture change effects
   Kantharuban Sivalingam : CASSCF convergence/infrastructure, NEVPT2 and variants, FIC-MRCI
   Bernardo de Souza      : ESD, SOC TD-DFT
   Georgi Stoychev        : AutoAux, RI-MP2 NMR, DLPNO-MP2 response, X2C
   Van Anh Tran           : RI-MP2 g-tensors
   Willem Van den Heuvel  : Paramagnetic NMR
   Zikuan Wang            : NOTCH, Electric field optimization 
   Frank Wennmohs         : Technical directorship and infrastructure
   Hang Xu                : AUTO-CI-Response properties 


 We gratefully acknowledge several colleagues who have allowed us to
 interface, adapt or use parts of their codes:
   Stefan Grimme, W. Hujo, H. Kruse, P. Pracht,  : VdW corrections, initial TS optimization,
                  C. Bannwarth, S. Ehlert,         DFT functionals, gCP, sTDA/sTD-DF
                  L. Wittmann, M. Mueller
   Ed Valeev, F. Pavosevic, A. Kumar             : LibInt (2-el integral package), F12 methods
   Garnet Chan, S. Sharma, J. Yang, R. Olivares  : DMRG
   Ulf Ekstrom                                   : XCFun DFT Library
   Mihaly Kallay                                 : mrcc  (arbitrary order and MRCC methods)
   Frank Weinhold                                : gennbo (NPA and NBO analysis)
   Simon Mueller                                 : openCOSMO-RS
   Christopher J. Cramer and Donald G. Truhlar   : smd solvation model
   Giovanni Bistoni       : ED, misc. LED, open-shell LED, HFLD
   Martin Brehm           : Molecular dynamics
   Dmytro Bykov           : pre 5.0 version of the SCF Hessian
   Marcos Casanova-Páez   : Triplet and SCS-CIS(D). UHF-(DLPNO)-IP/EA/STEOM-CCSD. UHF-CVS-IP/STEOM-CCSD
   Vijay G. Chilkuri      : MRCI spin determinant printing, contributions to CSF-ICE
   Pauline Colinet        : FMM embedding
   Dipayan Datta          : RHF DLPNO-CCSD density
   Achintya Kumar Dutta   : EOM-CC, STEOM-CC
   Nicolas Foglia         : Exact transition moments, OPA infrastructure, MCD improvements
   Dmitry Ganyushin       : Spin-Orbit,Spin-Spin,Magnetic field MRCI
   Miquel Garcia          : C-PCM and meta-GGA Hessian, CCSD/C-PCM, Gaussian charge scheme
   Tiago L. C. Gouveia    : GS-ROHF, GS-ROCIS
   Yang Guo               : DLPNO-NEVPT2, F12-NEVPT2, CIM, IAO-localization
   Andreas Hansen         : Spin unrestricted coupled pair/coupled cluster methods
   Ingolf Harden          : AUTO-CI MPn and infrastructure 
   Benjamin Helmich-Paris : MC-RPA, TRAH-(SCF,CASSCF), AVAS, COSX integrals, SCF dyn. polar.
   Lee Huntington         : MR-EOM, pCC
   Robert Izsak           : Overlap fitted RIJCOSX, COSX-SCS-MP3, EOM
   Riya Kayal             : Wick's Theorem for AUTO-CI, AUTO-CI UHF-CCSDT
   Emily Kempfer          : AUTO-CI, RHF CISDT and CCSDT
   Christian Kollmar      : KDIIS, OOCD, Brueckner-CCSD(T), CCSD density, CASPT2, CASPT2-K, improved NEVPT2
   Axel Koslowski         : Symmetry handling
   Simone Kossmann        : Meta GGA functionals, TD-DFT gradient, OOMP2, (MP2 Hessian; deprecated post 5.0)
   Lucas Lang             : DCDCAS
   Marvin Lechner         : AUTO-CI (C++ implementation), FIC-MRCC
   Spencer Leger          : CASSCF response
   Dagmar Lenk            : GEPOL surface, SMD, ORCA-2-JSON
   Dimitrios Liakos       : Extrapolation schemes; Compound Job, initial MDCI parallelization
   Dimitrios Manganas     : Further ROCIS development; embedding schemes. LFT, Crystal Embedding
   Dimitrios Pantazis     : SARC Basis sets
   Anastasios Papadopoulos: AUTO-CI, single reference methods and gradients
   Taras Petrenko         : pre 6.0 DFT Hessian and TD-DFT gradient, (ASA, deprecated), ECA, 1-Electron XAS/XES, NRVS
   Peter Pinski           : DLPNO-MP2, DLPNO-MP2 Gradient
   Christoph Reimann      : Effective Core Potentials
   Marius Retegan         : Local ZFS, SOC
   Christoph Riplinger    : Optimizer, TS searches, QM/MM, DLPNO-CCSD(T), (RO)-DLPNO pert. Triples
   Michael Roemelt        : Original ROCIS implementation
   Masaaki Saitow         : Open-shell DLPNO-CCSD energy and density
   Barbara Sandhoefer     : DKH picture change effects
   Kantharuban Sivalingam : CASSCF convergence/infrastructure, NEVPT2 and variants, FIC-MRCI
   Bernardo de Souza      : ESD, SOC TD-DFT
   Georgi Stoychev        : AutoAux, RI-MP2 NMR, DLPNO-MP2 response, X2C
   Van Anh Tran           : RI-MP2 g-tensors
   Willem Van den Heuvel  : Paramagnetic NMR
   Zikuan Wang            : NOTCH, Electric field optimization 
   Frank Wennmohs         : Technical directorship and infrastructure
   Hang Xu                : AUTO-CI-Response properties 


 We gratefully acknowledge several colleagues who have allowed us to
 interface, adapt or use parts of their codes:
   Stefan Grimme, W. Hujo, H. Kruse, P. Pracht,  : VdW corrections, initial TS optimization,
                  C. Bannwarth, S. Ehlert,         DFT functionals, gCP, sTDA/sTD-DF
                  L. Wittmann, M. Mueller
   Ed Valeev, F. Pavosevic, A. Kumar             : LibInt (2-el integral package), F12 methods
   Garnet Chan, S. Sharma, J. Yang, R. Olivares  : DMRG
   Ulf Ekstrom                                   : XCFun DFT Library
   Mihaly Kallay                                 : mrcc  (arbitrary order and MRCC methods)
   Frank Weinhold                                : gennbo (NPA and NBO analysis)
   Simon Mueller                                 : openCOSMO-RS
   Christopher J. Cramer and Donald G. Truhlar   : smd solvation model
   Lars Goerigk                                  : TD-DFT with DH, B97 family of functionals
   V. Asgeirsson, H. Jonsson                     : NEB implementation
   FAccTs GmbH                                   : IRC, NEB, NEB-TS, DLPNO-Multilevel, CI-OPT
                                                   MM, QMMM, 2- and 3-layer-ONIOM, Crystal-QMMM,
                                                   LR-CPCM, SF, NACMEs, symmetry and pop. for TD-DFT,
                                                   nearIR, NL-DFT gradient (VV10), updates on ESD,
                                                   ML-optimized integration grids, MBIS, APM,
                                                   GOAT, DOCKER, SOLVATOR, interface openCOSMO-RS
   S Lehtola, MJT Oliveira, MAL Marques          : LibXC Library
   Liviu Ungur et al                             : ANISO software


 Your calculation uses the libint2 library for the computation of 2-el integrals
 For citations please refer to: http://libint.valeyev.net

 Your ORCA version has been built with support for libXC version: 6.2.2
 For citations please refer to: https://libxc.gitlab.io

 This ORCA versions uses:
   CBLAS   interface :  Fast vector & matrix operations
   LAPACKE interface :  Fast linear algebra routines
   SCALAPACK package :  Parallel linear algebra routines
   Shared memory     :  Shared parallel matrices
   BLAS/LAPACK       :  OpenBLAS 0.3.27  USE64BITINT DYNAMIC_ARCH NO_AFFINITY Zen SINGLE_THREADED
        Core in use  :  Zen
   Copyright (c) 2011-2014, The OpenBLAS Project


   Lars Goerigk                                  : TD-DFT with DH, B97 family of functionals
   V. Asgeirsson, H. Jonsson                     : NEB implementation
   FAccTs GmbH                                   : IRC, NEB, NEB-TS, DLPNO-Multilevel, CI-OPT
                                                   MM, QMMM, 2- and 3-layer-ONIOM, Crystal-QMMM,
                                                   LR-CPCM, SF, NACMEs, symmetry and pop. for TD-DFT,
                                                   nearIR, NL-DFT gradient (VV10), updates on ESD,
                                                   ML-optimized integration grids, MBIS, APM,
                                                   GOAT, DOCKER, SOLVATOR, interface openCOSMO-RS
   S Lehtola, MJT Oliveira, MAL Marques          : LibXC Library
   Liviu Ungur et al                             : ANISO software


 Your calculation uses the libint2 library for the computation of 2-el integrals
 For citations please refer to: http://libint.valeyev.net

 Your ORCA version has been built with support for libXC version: 6.2.2
 For citations please refer to: https://libxc.gitlab.io

 This ORCA versions uses:
   CBLAS   interface :  Fast vector & matrix operations
   LAPACKE interface :  Fast linear algebra routines
   SCALAPACK package :  Parallel linear algebra routines
   Shared memory     :  Shared parallel matrices
   BLAS/LAPACK       :  OpenBLAS 0.3.27  USE64BITINT DYNAMIC_ARCH NO_AFFINITY Zen SINGLE_THREADED
        Core in use  :  Zen
   Copyright (c) 2011-2014, The OpenBLAS Project


NOTE: MaxCore=3000 MB was set to SCF,MP2,MDCI,CIPSI,MRCI and CIS
      => If you want to overwrite this, your respective input block should be placed after the MaxCore statement
                                 *****************
                                 * O   R   C   A *
                                 *****************

                                            #,                                       
                                            ###                                      
                                            ####                                     
                                            #####                                    
                                            ######                                   
                                           ########,                                 
                                     ,,################,,,,,                         
                               ,,#################################,,                 
                          ,,##########################################,,             
                       ,#########################################, ''#####,          
                    ,#############################################,,   '####,        
                  ,##################################################,,,,####,       
                ,###########''''           ''''###############################       
              ,#####''   ,,,,##########,,,,          '''####'''          '####       
            ,##' ,,,,###########################,,,                        '##       
           ' ,,###''''                  '''############,,,                           
         ,,##''                                '''############,,,,        ,,,,,,###''
      ,#''                                            '''#######################'''  
     '                                                          ''''####''''         
             ,#######,   #######,   ,#######,      ##                                
            ,#'     '#,  ##    ##  ,#'     '#,    #''#        ,####,   ,####,        
            ##       ##  ##   ,#'  ##            #'  '#       #'       #'  '#        
            ##       ##  #######   ##           ,######,      #####,   #    #        
            '#,     ,#'  ##    ##  '#,     ,#' ,#      #,     #,   #   #,  ,#        
             '#######'   ##     ##  '#######'  #'      '#     '####' # '####'        
Your calculation utilizes the SMD solvation module
Please cite in your paper:
A.V. Marenich, C.J. Cramer, D.G. Truhlar J. Phys. Chem. B, 113, (2009), 6378 

Warning: RI is on but no J-basis has been assigned. Assigning Def2/J (nothing to worry about!)



                #########################################################
                #                        -***-                          #
                #          Department of theory and spectroscopy        #
                #                                                       #
                #                      Frank Neese                      #
                #                                                       #
                #     Directorship, Architecture, Infrastructure        #
                #                    SHARK, DRIVERS                     #

                #        Core code/Algorithms in most modules           #
                #                                                       #
                #        Max Planck Institute fuer Kohlenforschung      #
                #                Kaiser Wilhelm Platz 1                 #
                #                 D-45470 Muelheim/Ruhr                 #
                #                      Germany                          #
                #                                                       #
                #                  All rights reserved                  #
                #                        -***-                          #
                #########################################################


                         Program Version 6.0.0  -   RELEASE  -


 With contributions from (in alphabetic order):
   Daniel Aravena         : Magnetic Suceptibility
   Michael Atanasov       : Ab Initio Ligand Field Theory (pilot matlab implementation)
   Alexander A. Auer      : GIAO ZORA, VPT2 properties, NMR spectrum
   Ute Becker             : All parallelization in ORCA, NUMFREQ, NUMCALC
   Giovanni Bistoni       : ED, misc. LED, open-shell LED, HFLD
   Martin Brehm           : Molecular dynamics
   Dmytro Bykov           : pre 5.0 version of the SCF Hessian
   Marcos Casanova-Páez   : Triplet and SCS-CIS(D). UHF-(DLPNO)-IP/EA/STEOM-CCSD. UHF-CVS-IP/STEOM-CCSD
   Vijay G. Chilkuri      : MRCI spin determinant printing, contributions to CSF-ICE
   Pauline Colinet        : FMM embedding
   Dipayan Datta          : RHF DLPNO-CCSD density
   Achintya Kumar Dutta   : EOM-CC, STEOM-CC
   Nicolas Foglia         : Exact transition moments, OPA infrastructure, MCD improvements
   Dmitry Ganyushin       : Spin-Orbit,Spin-Spin,Magnetic field MRCI
   Miquel Garcia          : C-PCM and meta-GGA Hessian, CCSD/C-PCM, Gaussian charge scheme
   Tiago L. C. Gouveia    : GS-ROHF, GS-ROCIS
   Yang Guo               : DLPNO-NEVPT2, F12-NEVPT2, CIM, IAO-localization
   Andreas Hansen         : Spin unrestricted coupled pair/coupled cluster methods
   Ingolf Harden          : AUTO-CI MPn and infrastructure 
   Benjamin Helmich-Paris : MC-RPA, TRAH-(SCF,CASSCF), AVAS, COSX integrals, SCF dyn. polar.
   Lee Huntington         : MR-EOM, pCC
   Robert Izsak           : Overlap fitted RIJCOSX, COSX-SCS-MP3, EOM
   Riya Kayal             : Wick's Theorem for AUTO-CI, AUTO-CI UHF-CCSDT
   Emily Kempfer          : AUTO-CI, RHF CISDT and CCSDT
   Christian Kollmar      : KDIIS, OOCD, Brueckner-CCSD(T), CCSD density, CASPT2, CASPT2-K, improved NEVPT2
   Axel Koslowski         : Symmetry handling
   Simone Kossmann        : Meta GGA functionals, TD-DFT gradient, OOMP2, (MP2 Hessian; deprecated post 5.0)
   Lucas Lang             : DCDCAS
   Marvin Lechner         : AUTO-CI (C++ implementation), FIC-MRCC
   Spencer Leger          : CASSCF response
   Dagmar Lenk            : GEPOL surface, SMD, ORCA-2-JSON
   Dimitrios Liakos       : Extrapolation schemes; Compound Job, initial MDCI parallelization
   Dimitrios Manganas     : Further ROCIS development; embedding schemes. LFT, Crystal Embedding
   Dimitrios Pantazis     : SARC Basis sets
   Anastasios Papadopoulos: AUTO-CI, single reference methods and gradients
   Taras Petrenko         : pre 6.0 DFT Hessian and TD-DFT gradient, (ASA, deprecated), ECA, 1-Electron XAS/XES, NRVS
   Peter Pinski           : DLPNO-MP2, DLPNO-MP2 Gradient
   Christoph Reimann      : Effective Core Potentials
   Marius Retegan         : Local ZFS, SOC
   Christoph Riplinger    : Optimizer, TS searches, QM/MM, DLPNO-CCSD(T), (RO)-DLPNO pert. Triples
   Michael Roemelt        : Original ROCIS implementation
   Masaaki Saitow         : Open-shell DLPNO-CCSD energy and density
   Barbara Sandhoefer     : DKH picture change effects
   Kantharuban Sivalingam : CASSCF convergence/infrastructure, NEVPT2 and variants, FIC-MRCI
   Bernardo de Souza      : ESD, SOC TD-DFT
   Georgi Stoychev        : AutoAux, RI-MP2 NMR, DLPNO-MP2 response, X2C
   Van Anh Tran           : RI-MP2 g-tensors

                                 *****************
                                 * O   R   C   A *
                                 *****************

                                            #,                                       
                                            ###                                      
                                            ####                                     
                                            #####                                    
                                            ######                                   
                                           ########,                                 
                                     ,,################,,,,,                         
                               ,,#################################,,                 
                          ,,##########################################,,             
                       ,#########################################, ''#####,          
                    ,#############################################,,   '####,        
                  ,##################################################,,,,####,       
                ,###########''''           ''''###############################       
              ,#####''   ,,,,##########,,,,          '''####'''          '####       
            ,##' ,,,,###########################,,,                        '##       
           ' ,,###''''                  '''############,,,                           
         ,,##''                                '''############,,,,        ,,,,,,###''
      ,#''                                            '''#######################'''  
     '                                                          ''''####''''         
             ,#######,   #######,   ,#######,      ##                                
            ,#'     '#,  ##    ##  ,#'     '#,    #''#        ,####,   ,####,        
            ##       ##  ##   ,#'  ##            #'  '#       #'       #'  '#        
            ##       ##  #######   ##           ,######,      #####,   #    #        
            '#,     ,#'  ##    ##  '#,     ,#' ,#      #,     #,   #   #,  ,#        
             '#######'   ##     ##  '#######'  #'      '#     '####' # '####'        



                #########################################################
                #                        -***-                          #
                #          Department of theory and spectroscopy        #
                #                                                       #
                #                      Frank Neese                      #
                #                                                       #
                #     Directorship, Architecture, Infrastructure        #
                #                    SHARK, DRIVERS                     #
                #        Core code/Algorithms in most modules           #
                #                                                       #
                #        Max Planck Institute fuer Kohlenforschung      #
                #                Kaiser Wilhelm Platz 1                 #
                #                 D-45470 Muelheim/Ruhr                 #
                #                      Germany                          #
                #                                                       #
                #                  All rights reserved                  #
                #                        -***-                          #
                #########################################################


                         Program Version 6.0.0  -   RELEASE  -


 With contributions from (in alphabetic order):
   Daniel Aravena         : Magnetic Suceptibility
   Michael Atanasov       : Ab Initio Ligand Field Theory (pilot matlab implementation)
   Alexander A. Auer      : GIAO ZORA, VPT2 properties, NMR spectrum
   Ute Becker             : All parallelization in ORCA, NUMFREQ, NUMCALC

                                 *****************
                                 * O   R   C   A *
                                 *****************

                                            #,                                       
                                            ###                                      
                                            ####                                     
                                            #####                                    
                                            ######                                   
                                           ########,                                 
                                     ,,################,,,,,                         
                               ,,#################################,,                 
                          ,,##########################################,,             
                       ,#########################################, ''#####,          
                    ,#############################################,,   '####,        
                  ,##################################################,,,,####,       
                ,###########''''           ''''###############################       
              ,#####''   ,,,,##########,,,,          '''####'''          '####       
            ,##' ,,,,###########################,,,                        '##       
           ' ,,###''''                  '''############,,,                           
         ,,##''                                '''############,,,,        ,,,,,,###''
      ,#''                                            '''#######################'''  
     '                                                          ''''####''''         
             ,#######,   #######,   ,#######,      ##                                
            ,#'     '#,  ##    ##  ,#'     '#,    #''#        ,####,   ,####,        
            ##       ##  ##   ,#'  ##            #'  '#       #'       #'  '#        
            ##       ##  #######   ##           ,######,      #####,   #    #        
            '#,     ,#'  ##    ##  '#,     ,#' ,#      #,     #,   #   #,  ,#        
             '#######'   ##     ##  '#######'  #'      '#     '####' # '####'        



                #########################################################
                #                        -***-                          #
                #          Department of theory and spectroscopy        #
                #                                                       #
                #                      Frank Neese                      #
                #                                                       #
                #     Directorship, Architecture, Infrastructure        #
                #                    SHARK, DRIVERS                     #
                #        Core code/Algorithms in most modules           #
                #                                                       #
                #        Max Planck Institute fuer Kohlenforschung      #
                #                Kaiser Wilhelm Platz 1                 #
                #                 D-45470 Muelheim/Ruhr                 #
                #                      Germany                          #
                #                                                       #
                #                  All rights reserved                  #
                #                        -***-                          #
                #########################################################


                         Program Version 6.0.0  -   RELEASE  -


 With contributions from (in alphabetic order):
   Daniel Aravena         : Magnetic Suceptibility
   Michael Atanasov       : Ab Initio Ligand Field Theory (pilot matlab implementation)
   Alexander A. Auer      : GIAO ZORA, VPT2 properties, NMR spectrum
   Ute Becker             : All parallelization in ORCA, NUMFREQ, NUMCALC
   Willem Van den Heuvel  : Paramagnetic NMR
   Zikuan Wang            : NOTCH, Electric field optimization 
   Frank Wennmohs         : Technical directorship and infrastructure
   Hang Xu                : AUTO-CI-Response properties 


 We gratefully acknowledge several colleagues who have allowed us to
 interface, adapt or use parts of their codes:
   Stefan Grimme, W. Hujo, H. Kruse, P. Pracht,  : VdW corrections, initial TS optimization,
                  C. Bannwarth, S. Ehlert,         DFT functionals, gCP, sTDA/sTD-DF
                  L. Wittmann, M. Mueller
   Ed Valeev, F. Pavosevic, A. Kumar             : LibInt (2-el integral package), F12 methods
   Garnet Chan, S. Sharma, J. Yang, R. Olivares  : DMRG
   Ulf Ekstrom                                   : XCFun DFT Library
   Mihaly Kallay                                 : mrcc  (arbitrary order and MRCC methods)
   Frank Weinhold                                : gennbo (NPA and NBO analysis)
   Simon Mueller                                 : openCOSMO-RS
   Christopher J. Cramer and Donald G. Truhlar   : smd solvation model
   Lars Goerigk                                  : TD-DFT with DH, B97 family of functionals
   V. Asgeirsson, H. Jonsson                     : NEB implementation
   FAccTs GmbH                                   : IRC, NEB, NEB-TS, DLPNO-Multilevel, CI-OPT
                                                   MM, QMMM, 2- and 3-layer-ONIOM, Crystal-QMMM,
                                                   LR-CPCM, SF, NACMEs, symmetry and pop. for TD-DFT,
                                                   nearIR, NL-DFT gradient (VV10), updates on ESD,
                                                   ML-optimized integration grids, MBIS, APM,
                                                   GOAT, DOCKER, SOLVATOR, interface openCOSMO-RS
   S Lehtola, MJT Oliveira, MAL Marques          : LibXC Library
   Liviu Ungur et al                             : ANISO software


 Your calculation uses the libint2 library for the computation of 2-el integrals
 For citations please refer to: http://libint.valeyev.net

 Your ORCA version has been built with support for libXC version: 6.2.2
 For citations please refer to: https://libxc.gitlab.io

 This ORCA versions uses:
   CBLAS   interface :  Fast vector & matrix operations
   LAPACKE interface :  Fast linear algebra routines
   SCALAPACK package :  Parallel linear algebra routines
   Shared memory     :  Shared parallel matrices
   BLAS/LAPACK       :  OpenBLAS 0.3.27  USE64BITINT DYNAMIC_ARCH NO_AFFINITY Zen SINGLE_THREADED
        Core in use  :  Zen
   Copyright (c) 2011-2014, The OpenBLAS Project


   Giovanni Bistoni       : ED, misc. LED, open-shell LED, HFLD
   Martin Brehm           : Molecular dynamics
   Dmytro Bykov           : pre 5.0 version of the SCF Hessian
   Marcos Casanova-Páez   : Triplet and SCS-CIS(D). UHF-(DLPNO)-IP/EA/STEOM-CCSD. UHF-CVS-IP/STEOM-CCSD
   Vijay G. Chilkuri      : MRCI spin determinant printing, contributions to CSF-ICE
   Pauline Colinet        : FMM embedding
   Dipayan Datta          : RHF DLPNO-CCSD density
   Achintya Kumar Dutta   : EOM-CC, STEOM-CC
   Nicolas Foglia         : Exact transition moments, OPA infrastructure, MCD improvements
   Dmitry Ganyushin       : Spin-Orbit,Spin-Spin,Magnetic field MRCI
   Miquel Garcia          : C-PCM and meta-GGA Hessian, CCSD/C-PCM, Gaussian charge scheme
   Tiago L. C. Gouveia    : GS-ROHF, GS-ROCIS
   Yang Guo               : DLPNO-NEVPT2, F12-NEVPT2, CIM, IAO-localization
   Andreas Hansen         : Spin unrestricted coupled pair/coupled cluster methods
   Ingolf Harden          : AUTO-CI MPn and infrastructure 
   Benjamin Helmich-Paris : MC-RPA, TRAH-(SCF,CASSCF), AVAS, COSX integrals, SCF dyn. polar.
   Lee Huntington         : MR-EOM, pCC
   Robert Izsak           : Overlap fitted RIJCOSX, COSX-SCS-MP3, EOM
   Riya Kayal             : Wick's Theorem for AUTO-CI, AUTO-CI UHF-CCSDT
   Emily Kempfer          : AUTO-CI, RHF CISDT and CCSDT
   Christian Kollmar      : KDIIS, OOCD, Brueckner-CCSD(T), CCSD density, CASPT2, CASPT2-K, improved NEVPT2
   Axel Koslowski         : Symmetry handling
   Simone Kossmann        : Meta GGA functionals, TD-DFT gradient, OOMP2, (MP2 Hessian; deprecated post 5.0)
   Lucas Lang             : DCDCAS
   Marvin Lechner         : AUTO-CI (C++ implementation), FIC-MRCC
   Spencer Leger          : CASSCF response
   Dagmar Lenk            : GEPOL surface, SMD, ORCA-2-JSON
   Dimitrios Liakos       : Extrapolation schemes; Compound Job, initial MDCI parallelization
   Dimitrios Manganas     : Further ROCIS development; embedding schemes. LFT, Crystal Embedding
   Dimitrios Pantazis     : SARC Basis sets
   Anastasios Papadopoulos: AUTO-CI, single reference methods and gradients
   Taras Petrenko         : pre 6.0 DFT Hessian and TD-DFT gradient, (ASA, deprecated), ECA, 1-Electron XAS/XES, NRVS
   Peter Pinski           : DLPNO-MP2, DLPNO-MP2 Gradient
   Christoph Reimann      : Effective Core Potentials
   Marius Retegan         : Local ZFS, SOC
   Christoph Riplinger    : Optimizer, TS searches, QM/MM, DLPNO-CCSD(T), (RO)-DLPNO pert. Triples
   Michael Roemelt        : Original ROCIS implementation
   Masaaki Saitow         : Open-shell DLPNO-CCSD energy and density
   Barbara Sandhoefer     : DKH picture change effects
   Kantharuban Sivalingam : CASSCF convergence/infrastructure, NEVPT2 and variants, FIC-MRCI
   Bernardo de Souza      : ESD, SOC TD-DFT
   Georgi Stoychev        : AutoAux, RI-MP2 NMR, DLPNO-MP2 response, X2C
   Van Anh Tran           : RI-MP2 g-tensors
   Willem Van den Heuvel  : Paramagnetic NMR
   Zikuan Wang            : NOTCH, Electric field optimization 
   Frank Wennmohs         : Technical directorship and infrastructure
   Hang Xu                : AUTO-CI-Response properties 


 We gratefully acknowledge several colleagues who have allowed us to
 interface, adapt or use parts of their codes:
   Stefan Grimme, W. Hujo, H. Kruse, P. Pracht,  : VdW corrections, initial TS optimization,
                  C. Bannwarth, S. Ehlert,         DFT functionals, gCP, sTDA/sTD-DF
                  L. Wittmann, M. Mueller
   Ed Valeev, F. Pavosevic, A. Kumar             : LibInt (2-el integral package), F12 methods
   Garnet Chan, S. Sharma, J. Yang, R. Olivares  : DMRG
   Ulf Ekstrom                                   : XCFun DFT Library
   Mihaly Kallay                                 : mrcc  (arbitrary order and MRCC methods)
   Frank Weinhold                                : gennbo (NPA and NBO analysis)
   Simon Mueller                                 : openCOSMO-RS
   Christopher J. Cramer and Donald G. Truhlar   : smd solvation model
   Giovanni Bistoni       : ED, misc. LED, open-shell LED, HFLD
   Martin Brehm           : Molecular dynamics
   Dmytro Bykov           : pre 5.0 version of the SCF Hessian
   Marcos Casanova-Páez   : Triplet and SCS-CIS(D). UHF-(DLPNO)-IP/EA/STEOM-CCSD. UHF-CVS-IP/STEOM-CCSD
   Vijay G. Chilkuri      : MRCI spin determinant printing, contributions to CSF-ICE
   Pauline Colinet        : FMM embedding
   Dipayan Datta          : RHF DLPNO-CCSD density
   Achintya Kumar Dutta   : EOM-CC, STEOM-CC
   Nicolas Foglia         : Exact transition moments, OPA infrastructure, MCD improvements
   Dmitry Ganyushin       : Spin-Orbit,Spin-Spin,Magnetic field MRCI
   Miquel Garcia          : C-PCM and meta-GGA Hessian, CCSD/C-PCM, Gaussian charge scheme
   Tiago L. C. Gouveia    : GS-ROHF, GS-ROCIS
   Yang Guo               : DLPNO-NEVPT2, F12-NEVPT2, CIM, IAO-localization
   Andreas Hansen         : Spin unrestricted coupled pair/coupled cluster methods
   Ingolf Harden          : AUTO-CI MPn and infrastructure 
   Benjamin Helmich-Paris : MC-RPA, TRAH-(SCF,CASSCF), AVAS, COSX integrals, SCF dyn. polar.
   Lee Huntington         : MR-EOM, pCC
   Robert Izsak           : Overlap fitted RIJCOSX, COSX-SCS-MP3, EOM
   Riya Kayal             : Wick's Theorem for AUTO-CI, AUTO-CI UHF-CCSDT
   Emily Kempfer          : AUTO-CI, RHF CISDT and CCSDT
   Christian Kollmar      : KDIIS, OOCD, Brueckner-CCSD(T), CCSD density, CASPT2, CASPT2-K, improved NEVPT2
   Axel Koslowski         : Symmetry handling
   Simone Kossmann        : Meta GGA functionals, TD-DFT gradient, OOMP2, (MP2 Hessian; deprecated post 5.0)
   Lucas Lang             : DCDCAS
   Marvin Lechner         : AUTO-CI (C++ implementation), FIC-MRCC
   Spencer Leger          : CASSCF response
   Dagmar Lenk            : GEPOL surface, SMD, ORCA-2-JSON
   Dimitrios Liakos       : Extrapolation schemes; Compound Job, initial MDCI parallelization
   Dimitrios Manganas     : Further ROCIS development; embedding schemes. LFT, Crystal Embedding
   Dimitrios Pantazis     : SARC Basis sets
   Anastasios Papadopoulos: AUTO-CI, single reference methods and gradients
   Taras Petrenko         : pre 6.0 DFT Hessian and TD-DFT gradient, (ASA, deprecated), ECA, 1-Electron XAS/XES, NRVS
   Peter Pinski           : DLPNO-MP2, DLPNO-MP2 Gradient
   Christoph Reimann      : Effective Core Potentials
   Marius Retegan         : Local ZFS, SOC
   Christoph Riplinger    : Optimizer, TS searches, QM/MM, DLPNO-CCSD(T), (RO)-DLPNO pert. Triples
   Michael Roemelt        : Original ROCIS implementation
   Masaaki Saitow         : Open-shell DLPNO-CCSD energy and density
   Barbara Sandhoefer     : DKH picture change effects
   Kantharuban Sivalingam : CASSCF convergence/infrastructure, NEVPT2 and variants, FIC-MRCI
   Bernardo de Souza      : ESD, SOC TD-DFT
   Georgi Stoychev        : AutoAux, RI-MP2 NMR, DLPNO-MP2 response, X2C
   Van Anh Tran           : RI-MP2 g-tensors
   Willem Van den Heuvel  : Paramagnetic NMR
   Zikuan Wang            : NOTCH, Electric field optimization 
   Frank Wennmohs         : Technical directorship and infrastructure
   Hang Xu                : AUTO-CI-Response properties 


 We gratefully acknowledge several colleagues who have allowed us to
 interface, adapt or use parts of their codes:
   Stefan Grimme, W. Hujo, H. Kruse, P. Pracht,  : VdW corrections, initial TS optimization,
                  C. Bannwarth, S. Ehlert,         DFT functionals, gCP, sTDA/sTD-DF
                  L. Wittmann, M. Mueller
   Ed Valeev, F. Pavosevic, A. Kumar             : LibInt (2-el integral package), F12 methods
   Garnet Chan, S. Sharma, J. Yang, R. Olivares  : DMRG
   Ulf Ekstrom                                   : XCFun DFT Library
   Mihaly Kallay                                 : mrcc  (arbitrary order and MRCC methods)
   Frank Weinhold                                : gennbo (NPA and NBO analysis)
   Simon Mueller                                 : openCOSMO-RS
   Christopher J. Cramer and Donald G. Truhlar   : smd solvation model
================================================================================

----- Orbital basis set information -----
Your calculation utilizes the basis: ma-def2-SVP
   F. Weigend and R. Ahlrichs, Phys. Chem. Chem. Phys. 7, 3297 (2005).
   J. Zheng, X. Xu and D. G. Truhlar, Theor. Chem. Acc. 128, 295 (2011).

----- AuxJ basis set information -----
Your calculation utilizes the auxiliary basis: def2/J
   F. Weigend, Phys. Chem. Chem. Phys. 8, 1057 (2006).

   Lars Goerigk                                  : TD-DFT with DH, B97 family of functionals
   V. Asgeirsson, H. Jonsson                     : NEB implementation
   FAccTs GmbH                                   : IRC, NEB, NEB-TS, DLPNO-Multilevel, CI-OPT
                                                   MM, QMMM, 2- and 3-layer-ONIOM, Crystal-QMMM,
                                                   LR-CPCM, SF, NACMEs, symmetry and pop. for TD-DFT,
                                                   nearIR, NL-DFT gradient (VV10), updates on ESD,
                                                   ML-optimized integration grids, MBIS, APM,
                                                   GOAT, DOCKER, SOLVATOR, interface openCOSMO-RS
   S Lehtola, MJT Oliveira, MAL Marques          : LibXC Library
   Liviu Ungur et al                             : ANISO software


 Your calculation uses the libint2 library for the computation of 2-el integrals
 For citations please refer to: http://libint.valeyev.net

 Your ORCA version has been built with support for libXC version: 6.2.2
 For citations please refer to: https://libxc.gitlab.io

 This ORCA versions uses:
   CBLAS   interface :  Fast vector & matrix operations
   LAPACKE interface :  Fast linear algebra routines
   SCALAPACK package :  Parallel linear algebra routines
   Shared memory     :  Shared parallel matrices
   BLAS/LAPACK       :  OpenBLAS 0.3.27  USE64BITINT DYNAMIC_ARCH NO_AFFINITY Zen SINGLE_THREADED
        Core in use  :  Zen
   Copyright (c) 2011-2014, The OpenBLAS Project


   Lars Goerigk                                  : TD-DFT with DH, B97 family of functionals
   V. Asgeirsson, H. Jonsson                     : NEB implementation
   FAccTs GmbH                                   : IRC, NEB, NEB-TS, DLPNO-Multilevel, CI-OPT
                                                   MM, QMMM, 2- and 3-layer-ONIOM, Crystal-QMMM,
                                                   LR-CPCM, SF, NACMEs, symmetry and pop. for TD-DFT,
                                                   nearIR, NL-DFT gradient (VV10), updates on ESD,
                                                   ML-optimized integration grids, MBIS, APM,
                                                   GOAT, DOCKER, SOLVATOR, interface openCOSMO-RS
   S Lehtola, MJT Oliveira, MAL Marques          : LibXC Library
   Liviu Ungur et al                             : ANISO software


 Your calculation uses the libint2 library for the computation of 2-el integrals
 For citations please refer to: http://libint.valeyev.net

 Your ORCA version has been built with support for libXC version: 6.2.2
 For citations please refer to: https://libxc.gitlab.io

 This ORCA versions uses:
   CBLAS   interface :  Fast vector & matrix operations
   LAPACKE interface :  Fast linear algebra routines
   SCALAPACK package :  Parallel linear algebra routines
   Shared memory     :  Shared parallel matrices
   BLAS/LAPACK       :  OpenBLAS 0.3.27  USE64BITINT DYNAMIC_ARCH NO_AFFINITY Zen SINGLE_THREADED
        Core in use  :  Zen
   Copyright (c) 2011-2014, The OpenBLAS Project


================================================================================
                                        WARNINGS
                       Please study these warnings very carefully!
================================================================================


WARNING: Geometry Optimization
  ===> : Switching off AutoStart
         For restart on a previous wavefunction, please use MOREAD

                                 *****************
                                 * O   R   C   A *
                                 *****************

NOTE: MaxCore=3000 MB was set to SCF,MP2,MDCI,CIPSI,MRCI and CIS
      => If you want to overwrite this, your respective input block should be placed after the MaxCore statement
                                            #,                                       
                                            ###                                      
                                            ####                                     
                                            #####                                    
                                            ######                                   
                                           ########,                                 
                                     ,,################,,,,,                         
                               ,,#################################,,                 
                          ,,##########################################,,             
                       ,#########################################, ''#####,          
                    ,#############################################,,   '####,        
                  ,##################################################,,,,####,       
                ,###########''''           ''''###############################       
              ,#####''   ,,,,##########,,,,          '''####'''          '####       
            ,##' ,,,,###########################,,,                        '##       
           ' ,,###''''                  '''############,,,                           
         ,,##''                                '''############,,,,        ,,,,,,###''
      ,#''                                            '''#######################'''  
     '                                                          ''''####''''         
             ,#######,   #######,   ,#######,      ##                                
            ,#'     '#,  ##    ##  ,#'     '#,    #''#        ,####,   ,####,        
            ##       ##  ##   ,#'  ##            #'  '#       #'       #'  '#        
            ##       ##  #######   ##           ,######,      #####,   #    #        
            '#,     ,#'  ##    ##  '#,     ,#' ,#      #,     #,   #   #,  ,#        
             '#######'   ##     ##  '#######'  #'      '#     '####' # '####'        



                #########################################################
                #                        -***-                          #
                #          Department of theory and spectroscopy        #
                #                                                       #
NOTE: MaxCore=3000 MB was set to SCF,MP2,MDCI,CIPSI,MRCI and CIS
      => If you want to overwrite this, your respective input block should be placed after the MaxCore statement
                #                      Frank Neese                      #
                #                                                       #
                #     Directorship, Architecture, Infrastructure        #
                #                    SHARK, DRIVERS                     #
                #        Core code/Algorithms in most modules           #
                #                                                       #
                #        Max Planck Institute fuer Kohlenforschung      #
Your calculation utilizes the SMD solvation module
Please cite in your paper:
A.V. Marenich, C.J. Cramer, D.G. Truhlar J. Phys. Chem. B, 113, (2009), 6378 

Your calculation utilizes the SMD solvation module
Please cite in your paper:
A.V. Marenich, C.J. Cramer, D.G. Truhlar J. Phys. Chem. B, 113, (2009), 6378 

Warning: RI is on but no J-basis has been assigned. Assigning Def2/J (nothing to worry about!)
Warning: RI is on but no J-basis has been assigned. Assigning Def2/J (nothing to worry about!)
================================================================================
                                       INPUT FILE
================================================================================
NAME = job.inp
|  1> !pbe ma-def2-SVP SMD(2-methyl-2-propanol) opt SMD(Acetonitrile)  Freq
|  2> %maxcore 3000
|  3> %pal
|  4> nprocs 4
|  5> end
|  6> # MECP_BC
|  7> 
|  8> *xyz 0 1
|  9> C        -3.18487978      -0.14288142      -1.34349167 
| 10> H        -3.17290330       0.96414232      -1.25197160 
| 11> H        -2.25873280      -0.54331577      -0.89021522 
| 12> C        -4.40115023      -0.65094733      -0.63850391 
| 13> H        -4.55397224      -0.47761500       0.38279983 
| 14> F        -4.56901789      -2.28783512      -0.75909281 
| 15> H        -5.51952171      -0.41288137      -1.22487378 
NOTE: MaxCore=3000 MB was set to SCF,MP2,MDCI,CIPSI,MRCI and CIS
      => If you want to overwrite this, your respective input block should be placed after the MaxCore statement
NOTE: MaxCore=3000 MB was set to SCF,MP2,MDCI,CIPSI,MRCI and CIS
      => If you want to overwrite this, your respective input block should be placed after the MaxCore statement
| 16> H        -3.19422030      -0.41149530      -2.41660070 
| 17> *
| 18> 
| 19>                          ****END OF INPUT****
================================================================================
                #                Kaiser Wilhelm Platz 1                 #
                #                 D-45470 Muelheim/Ruhr                 #
                #                      Germany                          #
                #                                                       #
                #                  All rights reserved                  #
                #                        -***-                          #
                #########################################################


                         Program Version 6.0.0  -   RELEASE  -
Your calculation utilizes the SMD solvation module
Please cite in your paper:
A.V. Marenich, C.J. Cramer, D.G. Truhlar J. Phys. Chem. B, 113, (2009), 6378 

Your calculation utilizes the SMD solvation module
Please cite in your paper:
A.V. Marenich, C.J. Cramer, D.G. Truhlar J. Phys. Chem. B, 113, (2009), 6378 

Warning: RI is on but no J-basis has been assigned. Assigning Def2/J (nothing to worry about!)
Warning: RI is on but no J-basis has been assigned. Assigning Def2/J (nothing to worry about!)


 With contributions from (in alphabetic order):
   Daniel Aravena         : Magnetic Suceptibility
   Michael Atanasov       : Ab Initio Ligand Field Theory (pilot matlab implementation)
   Alexander A. Auer      : GIAO ZORA, VPT2 properties, NMR spectrum
   Ute Becker             : All parallelization in ORCA, NUMFREQ, NUMCALC
   Giovanni Bistoni       : ED, misc. LED, open-shell LED, HFLD
   Martin Brehm           : Molecular dynamics
================================================================================
                                        WARNINGS
                       Please study these warnings very carefully!
================================================================================

   Dmytro Bykov           : pre 5.0 version of the SCF Hessian
================================================================================

   Marcos Casanova-Páez   : Triplet and SCS-CIS(D). UHF-(DLPNO)-IP/EA/STEOM-CCSD. UHF-CVS-IP/STEOM-CCSD
   Vijay G. Chilkuri      : MRCI spin determinant printing, contributions to CSF-ICE
   Pauline Colinet        : FMM embedding
   Dipayan Datta          : RHF DLPNO-CCSD density
   Achintya Kumar Dutta   : EOM-CC, STEOM-CC
   Nicolas Foglia         : Exact transition moments, OPA infrastructure, MCD improvements
   Dmitry Ganyushin       : Spin-Orbit,Spin-Spin,Magnetic field MRCI
   Miquel Garcia          : C-PCM and meta-GGA Hessian, CCSD/C-PCM, Gaussian charge scheme
   Tiago L. C. Gouveia    : GS-ROHF, GS-ROCIS
   Yang Guo               : DLPNO-NEVPT2, F12-NEVPT2, CIM, IAO-localization
   Andreas Hansen         : Spin unrestricted coupled pair/coupled cluster methods
   Ingolf Harden          : AUTO-CI MPn and infrastructure 
   Benjamin Helmich-Paris : MC-RPA, TRAH-(SCF,CASSCF), AVAS, COSX integrals, SCF dyn. polar.
   Lee Huntington         : MR-EOM, pCC
   Robert Izsak           : Overlap fitted RIJCOSX, COSX-SCS-MP3, EOM
   Riya Kayal             : Wick's Theorem for AUTO-CI, AUTO-CI UHF-CCSDT
   Emily Kempfer          : AUTO-CI, RHF CISDT and CCSDT
   Christian Kollmar      : KDIIS, OOCD, Brueckner-CCSD(T), CCSD density, CASPT2, CASPT2-K, improved NEVPT2
   Axel Koslowski         : Symmetry handling
   Simone Kossmann        : Meta GGA functionals, TD-DFT gradient, OOMP2, (MP2 Hessian; deprecated post 5.0)
   Lucas Lang             : DCDCAS
   Marvin Lechner         : AUTO-CI (C++ implementation), FIC-MRCC
   Spencer Leger          : CASSCF response
   Dagmar Lenk            : GEPOL surface, SMD, ORCA-2-JSON
   Dimitrios Liakos       : Extrapolation schemes; Compound Job, initial MDCI parallelization
   Dimitrios Manganas     : Further ROCIS development; embedding schemes. LFT, Crystal Embedding
   Dimitrios Pantazis     : SARC Basis sets
   Anastasios Papadopoulos: AUTO-CI, single reference methods and gradients
   Taras Petrenko         : pre 6.0 DFT Hessian and TD-DFT gradient, (ASA, deprecated), ECA, 1-Electron XAS/XES, NRVS
   Peter Pinski           : DLPNO-MP2, DLPNO-MP2 Gradient
   Christoph Reimann      : Effective Core Potentials
   Marius Retegan         : Local ZFS, SOC
   Christoph Riplinger    : Optimizer, TS searches, QM/MM, DLPNO-CCSD(T), (RO)-DLPNO pert. Triples
   Michael Roemelt        : Original ROCIS implementation
   Masaaki Saitow         : Open-shell DLPNO-CCSD energy and density
   Barbara Sandhoefer     : DKH picture change effects
   Kantharuban Sivalingam : CASSCF convergence/infrastructure, NEVPT2 and variants, FIC-MRCI
   Bernardo de Souza      : ESD, SOC TD-DFT
   Georgi Stoychev        : AutoAux, RI-MP2 NMR, DLPNO-MP2 response, X2C
   Van Anh Tran           : RI-MP2 g-tensors
   Willem Van den Heuvel  : Paramagnetic NMR
   Zikuan Wang            : NOTCH, Electric field optimization 
   Frank Wennmohs         : Technical directorship and infrastructure
   Hang Xu                : AUTO-CI-Response properties 


 We gratefully acknowledge several colleagues who have allowed us to
 interface, adapt or use parts of their codes:
   Stefan Grimme, W. Hujo, H. Kruse, P. Pracht,  : VdW corrections, initial TS optimization,
                  C. Bannwarth, S. Ehlert,         DFT functionals, gCP, sTDA/sTD-DF
                  L. Wittmann, M. Mueller
   Ed Valeev, F. Pavosevic, A. Kumar             : LibInt (2-el integral package), F12 methods
   Garnet Chan, S. Sharma, J. Yang, R. Olivares  : DMRG
   Ulf Ekstrom                                   : XCFun DFT Library
   Mihaly Kallay                                 : mrcc  (arbitrary order and MRCC methods)
   Frank Weinhold                                : gennbo (NPA and NBO analysis)
   Simon Mueller                                 : openCOSMO-RS
   Christopher J. Cramer and Donald G. Truhlar   : smd solvation model
   Lars Goerigk                                  : TD-DFT with DH, B97 family of functionals
   V. Asgeirsson, H. Jonsson                     : NEB implementation
----- Orbital basis set information -----
Your calculation utilizes the basis: ma-def2-SVP
   F. Weigend and R. Ahlrichs, Phys. Chem. Chem. Phys. 7, 3297 (2005).
   J. Zheng, X. Xu and D. G. Truhlar, Theor. Chem. Acc. 128, 295 (2011).

----- AuxJ basis set information -----
Your calculation utilizes the auxiliary basis: def2/J
   F. Weigend, Phys. Chem. Chem. Phys. 8, 1057 (2006).


   FAccTs GmbH                                   : IRC, NEB, NEB-TS, DLPNO-Multilevel, CI-OPT
                                                   MM, QMMM, 2- and 3-layer-ONIOM, Crystal-QMMM,
                                                   LR-CPCM, SF, NACMEs, symmetry and pop. for TD-DFT,
                                                   nearIR, NL-DFT gradient (VV10), updates on ESD,
                                                   ML-optimized integration grids, MBIS, APM,
                                                   GOAT, DOCKER, SOLVATOR, interface openCOSMO-RS
   S Lehtola, MJT Oliveira, MAL Marques          : LibXC Library
   Liviu Ungur et al                             : ANISO software


 Your calculation uses the libint2 library for the computation of 2-el integrals
 For citations please refer to: http://libint.valeyev.net

 Your ORCA version has been built with support for libXC version: 6.2.2
 For citations please refer to: https://libxc.gitlab.io

 This ORCA versions uses:
   CBLAS   interface :  Fast vector & matrix operations
   LAPACKE interface :  Fast linear algebra routines
   SCALAPACK package :  Parallel linear algebra routines
   Shared memory     :  Shared parallel matrices
   BLAS/LAPACK       :  OpenBLAS 0.3.27  USE64BITINT DYNAMIC_ARCH NO_AFFINITY Zen SINGLE_THREADED
        Core in use  :  Zen
   Copyright (c) 2011-2014, The OpenBLAS Project


WARNING: Geometry Optimization
================================================================================

  ===> : Switching off AutoStart
----- Orbital basis set information -----
Your calculation utilizes the basis: ma-def2-SVP
   F. Weigend and R. Ahlrichs, Phys. Chem. Chem. Phys. 7, 3297 (2005).
   J. Zheng, X. Xu and D. G. Truhlar, Theor. Chem. Acc. 128, 295 (2011).

----- AuxJ basis set information -----
Your calculation utilizes the auxiliary basis: def2/J
   F. Weigend, Phys. Chem. Chem. Phys. 8, 1057 (2006).

         For restart on a previous wavefunction, please use MOREAD

================================================================================
================================================================================

----- Orbital basis set information -----
Your calculation utilizes the basis: ma-def2-SVP
   F. Weigend and R. Ahlrichs, Phys. Chem. Chem. Phys. 7, 3297 (2005).
   J. Zheng, X. Xu and D. G. Truhlar, Theor. Chem. Acc. 128, 295 (2011).

----- AuxJ basis set information -----
Your calculation utilizes the auxiliary basis: def2/J
   F. Weigend, Phys. Chem. Chem. Phys. 8, 1057 (2006).


----- Orbital basis set information -----
Your calculation utilizes the basis: ma-def2-SVP
   F. Weigend and R. Ahlrichs, Phys. Chem. Chem. Phys. 7, 3297 (2005).
   J. Zheng, X. Xu and D. G. Truhlar, Theor. Chem. Acc. 128, 295 (2011).

----- AuxJ basis set information -----
Your calculation utilizes the auxiliary basis: def2/J
   F. Weigend, Phys. Chem. Chem. Phys. 8, 1057 (2006).

================================================================================
                                        WARNINGS
                       Please study these warnings very carefully!
================================================================================


                       *****************************
                       * Geometry Optimization Run *
                       *****************************


WARNING: Geometry Optimization
  ===> : Switching off AutoStart
         For restart on a previous wavefunction, please use MOREAD

Geometry optimization settings:
Update method            Update   .... BFGS
Choice of coordinates    CoordSys .... (2022) Redundant Internals
Initial Hessian          InHess   .... Almloef's Model
Max. no of cycles        MaxIter  .... 50

Convergence Tolerances:
Energy Change            TolE     ....  5.0000e-06 Eh
Max. Gradient            TolMAXG  ....  3.0000e-04 Eh/bohr
RMS Gradient             TolRMSG  ....  1.0000e-04 Eh/bohr
Max. Displacement        TolMAXD  ....  4.0000e-03 bohr
RMS Displacement         TolRMSD  ....  2.0000e-03 bohr
Strict Convergence                .... False


                                 *****************
                                 * O   R   C   A *
                                 *****************

                                            #,                                       
                                            ###                                      
                                            ####                                     
                                            #####                                    
                                            ######                                   
                                           ########,                                 
                                     ,,################,,,,,                         
                               ,,#################################,,                 
                          ,,##########################################,,             
                       ,#########################################, ''#####,          
                    ,#############################################,,   '####,        
                  ,##################################################,,,,####,       
                ,###########''''           ''''###############################       
              ,#####''   ,,,,##########,,,,          '''####'''          '####       
            ,##' ,,,,###########################,,,                        '##       
           ' ,,###''''                  '''############,,,                           
         ,,##''                                '''############,,,,        ,,,,,,###''
      ,#''                                            '''#######################'''  
     '                                                          ''''####''''         
             ,#######,   #######,   ,#######,      ##                                
            ,#'     '#,  ##    ##  ,#'     '#,    #''#        ,####,   ,####,        
            ##       ##  ##   ,#'  ##            #'  '#       #'       #'  '#        
            ##       ##  #######   ##           ,######,      #####,   #    #        
            '#,     ,#'  ##    ##  '#,     ,#' ,#      #,     #,   #   #,  ,#        
             '#######'   ##     ##  '#######'  #'      '#     '####' # '####'        



                #########################################################
                #                        -***-                          #
                #          Department of theory and spectroscopy        #
                #                                                       #
                #                      Frank Neese                      #
                #                                                       #
                #     Directorship, Architecture, Infrastructure        #
                #                    SHARK, DRIVERS                     #
                #        Core code/Algorithms in most modules           #
                #                                                       #
                #        Max Planck Institute fuer Kohlenforschung      #
                #                Kaiser Wilhelm Platz 1                 #
                #                 D-45470 Muelheim/Ruhr                 #
                #                      Germany                          #
                #                                                       #
                #                  All rights reserved                  #
                #                        -***-                          #
                #########################################################


                         Program Version 6.0.0  -   RELEASE  -


 With contributions from (in alphabetic order):
   Daniel Aravena         : Magnetic Suceptibility
   Michael Atanasov       : Ab Initio Ligand Field Theory (pilot matlab implementation)
   Alexander A. Auer      : GIAO ZORA, VPT2 properties, NMR spectrum
   Ute Becker             : All parallelization in ORCA, NUMFREQ, NUMCALC
   Giovanni Bistoni       : ED, misc. LED, open-shell LED, HFLD
   Martin Brehm           : Molecular dynamics
   Dmytro Bykov           : pre 5.0 version of the SCF Hessian
   Marcos Casanova-Páez   : Triplet and SCS-CIS(D). UHF-(DLPNO)-IP/EA/STEOM-CCSD. UHF-CVS-IP/STEOM-CCSD
   Vijay G. Chilkuri      : MRCI spin determinant printing, contributions to CSF-ICE
   Pauline Colinet        : FMM embedding
   Dipayan Datta          : RHF DLPNO-CCSD density
   Achintya Kumar Dutta   : EOM-CC, STEOM-CC
   Nicolas Foglia         : Exact transition moments, OPA infrastructure, MCD improvements
   Dmitry Ganyushin       : Spin-Orbit,Spin-Spin,Magnetic field MRCI
   Miquel Garcia          : C-PCM and meta-GGA Hessian, CCSD/C-PCM, Gaussian charge scheme
   Tiago L. C. Gouveia    : GS-ROHF, GS-ROCIS
   Yang Guo               : DLPNO-NEVPT2, F12-NEVPT2, CIM, IAO-localization
   Andreas Hansen         : Spin unrestricted coupled pair/coupled cluster methods
   Ingolf Harden          : AUTO-CI MPn and infrastructure 
   Benjamin Helmich-Paris : MC-RPA, TRAH-(SCF,CASSCF), AVAS, COSX integrals, SCF dyn. polar.
   Lee Huntington         : MR-EOM, pCC
   Robert Izsak           : Overlap fitted RIJCOSX, COSX-SCS-MP3, EOM
   Riya Kayal             : Wick's Theorem for AUTO-CI, AUTO-CI UHF-CCSDT
   Emily Kempfer          : AUTO-CI, RHF CISDT and CCSDT
   Christian Kollmar      : KDIIS, OOCD, Brueckner-CCSD(T), CCSD density, CASPT2, CASPT2-K, improved NEVPT2
   Axel Koslowski         : Symmetry handling
   Simone Kossmann        : Meta GGA functionals, TD-DFT gradient, OOMP2, (MP2 Hessian; deprecated post 5.0)
   Lucas Lang             : DCDCAS
   Marvin Lechner         : AUTO-CI (C++ implementation), FIC-MRCC
   Spencer Leger          : CASSCF response
   Dagmar Lenk            : GEPOL surface, SMD, ORCA-2-JSON
   Dimitrios Liakos       : Extrapolation schemes; Compound Job, initial MDCI parallelization
   Dimitrios Manganas     : Further ROCIS development; embedding schemes. LFT, Crystal Embedding
   Dimitrios Pantazis     : SARC Basis sets
   Anastasios Papadopoulos: AUTO-CI, single reference methods and gradients
   Taras Petrenko         : pre 6.0 DFT Hessian and TD-DFT gradient, (ASA, deprecated), ECA, 1-Electron XAS/XES, NRVS
   Peter Pinski           : DLPNO-MP2, DLPNO-MP2 Gradient
   Christoph Reimann      : Effective Core Potentials
   Marius Retegan         : Local ZFS, SOC
   Christoph Riplinger    : Optimizer, TS searches, QM/MM, DLPNO-CCSD(T), (RO)-DLPNO pert. Triples
   Michael Roemelt        : Original ROCIS implementation
   Masaaki Saitow         : Open-shell DLPNO-CCSD energy and density
   Barbara Sandhoefer     : DKH picture change effects
   Kantharuban Sivalingam : CASSCF convergence/infrastructure, NEVPT2 and variants, FIC-MRCI
   Bernardo de Souza      : ESD, SOC TD-DFT
   Georgi Stoychev        : AutoAux, RI-MP2 NMR, DLPNO-MP2 response, X2C
   Van Anh Tran           : RI-MP2 g-tensors
   Willem Van den Heuvel  : Paramagnetic NMR
   Zikuan Wang            : NOTCH, Electric field optimization 
   Frank Wennmohs         : Technical directorship and infrastructure
   Hang Xu                : AUTO-CI-Response properties 


 We gratefully acknowledge several colleagues who have allowed us to
 interface, adapt or use parts of their codes:
   Stefan Grimme, W. Hujo, H. Kruse, P. Pracht,  : VdW corrections, initial TS optimization,
                  C. Bannwarth, S. Ehlert,         DFT functionals, gCP, sTDA/sTD-DF
                  L. Wittmann, M. Mueller
   Ed Valeev, F. Pavosevic, A. Kumar             : LibInt (2-el integral package), F12 methods
   Garnet Chan, S. Sharma, J. Yang, R. Olivares  : DMRG
   Ulf Ekstrom                                   : XCFun DFT Library
   Mihaly Kallay                                 : mrcc  (arbitrary order and MRCC methods)
   Frank Weinhold                                : gennbo (NPA and NBO analysis)
   Simon Mueller                                 : openCOSMO-RS
   Christopher J. Cramer and Donald G. Truhlar   : smd solvation model
   Lars Goerigk                                  : TD-DFT with DH, B97 family of functionals
   V. Asgeirsson, H. Jonsson                     : NEB implementation
   FAccTs GmbH                                   : IRC, NEB, NEB-TS, DLPNO-Multilevel, CI-OPT
                                                   MM, QMMM, 2- and 3-layer-ONIOM, Crystal-QMMM,
                                                   LR-CPCM, SF, NACMEs, symmetry and pop. for TD-DFT,
                                                   nearIR, NL-DFT gradient (VV10), updates on ESD,
                                                   ML-optimized integration grids, MBIS, APM,
                                                   GOAT, DOCKER, SOLVATOR, interface openCOSMO-RS
   S Lehtola, MJT Oliveira, MAL Marques          : LibXC Library
   Liviu Ungur et al                             : ANISO software


 Your calculation uses the libint2 library for the computation of 2-el integrals
 For citations please refer to: http://libint.valeyev.net

 Your ORCA version has been built with support for libXC version: 6.2.2
 For citations please refer to: https://libxc.gitlab.io

 This ORCA versions uses:
   CBLAS   interface :  Fast vector & matrix operations
   LAPACKE interface :  Fast linear algebra routines
   SCALAPACK package :  Parallel linear algebra routines
   Shared memory     :  Shared parallel matrices
   BLAS/LAPACK       :  OpenBLAS 0.3.27  USE64BITINT DYNAMIC_ARCH NO_AFFINITY Zen SINGLE_THREADED
        Core in use  :  Zen
   Copyright (c) 2011-2014, The OpenBLAS Project


================================================================================
                                       INPUT FILE
================================================================================
NAME = job.inp
|  1> !pbe ma-def2-SVP SMD(2-methyl-2-propanol) opt SMD(Acetonitrile)  Freq
|  2> %maxcore 3000
|  3> %pal
|  4> nprocs 4
|  5> end
|  6> # MECP_BC
|  7> 
|  8> *xyz 0 1
|  9> C        -3.18487978      -0.14288142      -1.34349167 
| 10> H        -3.17290330       0.96414232      -1.25197160 
| 11> H        -2.25873280      -0.54331577      -0.89021522 
| 12> C        -4.40115023      -0.65094733      -0.63850391 
| 13> H        -4.55397224      -0.47761500       0.38279983 
| 14> F        -4.56901789      -2.28783512      -0.75909281 
| 15> H        -5.51952171      -0.41288137      -1.22487378 
| 16> H        -3.19422030      -0.41149530      -2.41660070 
| 17> *
| 18> 
| 19>                          ****END OF INPUT****
================================================================================
NOTE: MaxCore=3000 MB was set to SCF,MP2,MDCI,CIPSI,MRCI and CIS
      => If you want to overwrite this, your respective input block should be placed after the MaxCore statement
Your calculation utilizes the SMD solvation module
Please cite in your paper:
A.V. Marenich, C.J. Cramer, D.G. Truhlar J. Phys. Chem. B, 113, (2009), 6378 

Warning: RI is on but no J-basis has been assigned. Assigning Def2/J (nothing to worry about!)
================================================================================

----- Orbital basis set information -----
Your calculation utilizes the basis: ma-def2-SVP
   F. Weigend and R. Ahlrichs, Phys. Chem. Chem. Phys. 7, 3297 (2005).
   J. Zheng, X. Xu and D. G. Truhlar, Theor. Chem. Acc. 128, 295 (2011).

----- AuxJ basis set information -----
Your calculation utilizes the auxiliary basis: def2/J
   F. Weigend, Phys. Chem. Chem. Phys. 8, 1057 (2006).

------------------------------------------------------------------------------
                        ORCA OPTIMIZATION COORDINATE SETUP
------------------------------------------------------------------------------

The optimization will be done in redundant internal coordinates (2022)
Making redundant internal coordinates   ...  (2022 redundants) done
Evaluating the initial hessian          ...  (Almloef) done
Evaluating the coordinates              ...  done
Calculating the B-matrix                .... done
Calculating the G-matrix                .... done

                       *****************************
                       * Geometry Optimization Run *
                       *****************************

Geometry optimization settings:
Update method            Update   .... BFGS
Choice of coordinates    CoordSys .... (2022) Redundant Internals
Initial Hessian          InHess   .... Almloef's Model
Max. no of cycles        MaxIter  .... 50

Convergence Tolerances:
Energy Change            TolE     ....  5.0000e-06 Eh
Max. Gradient            TolMAXG  ....  3.0000e-04 Eh/bohr
RMS Gradient             TolRMSG  ....  1.0000e-04 Eh/bohr
Max. Displacement        TolMAXD  ....  4.0000e-03 bohr
RMS Displacement         TolRMSD  ....  2.0000e-03 bohr
Strict Convergence                .... False

------------------------------------------------------------------------------
                        ORCA OPTIMIZATION COORDINATE SETUP
------------------------------------------------------------------------------

The optimization will be done in redundant internal coordinates (2022)
Diagonalizing the G-matrix              .... done
The first mode is                       ....    7
The number of degrees of freedom        ....   18

    -----------------------------------------------------------------
                    Redundant Internal Coordinates


    -----------------------------------------------------------------
         Definition                    Initial Value    Approx d2E/dq
    -----------------------------------------------------------------
      1. B(H   1,C   0)                  1.1109         0.333530   
      2. B(H   2,C   0)                  1.1061         0.339364   
      3. B(C   3,C   0)                  1.4948         0.425131   
      4. B(H   4,C   3)                  1.0471         0.421537   
      5. B(F   5,C   3)                  1.6499         0.200141   
      6. B(H   6,C   3)                  1.2850         0.175910   
      7. B(H   7,C   0)                  1.1063         0.339224   
      8. A(H   1,C   0,H   7)          108.7829         0.284705   
      9. A(H   1,C   0,C   3)          107.9766         0.327139   
     10. A(C   3,C   0,H   7)          111.5981         0.328053   
     11. A(H   2,C   0,H   7)          108.4617         0.285474   
     12. A(H   2,C   0,C   3)          111.4048         0.328075   
     13. A(H   1,C   0,H   2)          108.5402         0.284723   
     14. A(C   0,C   3,H   6)          115.4656         0.295036   
     15. A(H   4,C   3,F   5)          102.7482         0.297821   
     16. A(C   0,C   3,F   5)          112.6763         0.330907   
     17. A(F   5,C   3,H   6)           93.5490         0.260344   
     18. A(H   4,C   3,H   6)          106.7011         0.266856   
     19. A(C   0,C   3,H   4)          121.4990         0.340101   
     20. D(H   4,C   3,C   0,H   2)     59.0519         0.014293   
     21. D(H   4,C   3,C   0,H   7)   -179.5487         0.014293   
     22. D(F   5,C   3,C   0,H   1)    177.5110         0.014293   
     23. D(F   5,C   3,C   0,H   2)    -63.3949         0.014293   
     24. D(F   5,C   3,C   0,H   7)     58.0045         0.014293   
     25. D(H   4,C   3,C   0,H   1)    -60.0422         0.014293   
    -----------------------------------------------------------------

Number of atoms                         .... 8
Number of degrees of freedom            .... 25

Making redundant internal coordinates   ...  (2022 redundants) done
Evaluating the initial hessian          ...  (Almloef) done
Evaluating the coordinates              ...  done
Calculating the B-matrix                .... done
Calculating the G-matrix                .... done
Diagonalizing the G-matrix              .... done

                                 *****************
                                 * O   R   C   A *
                                 *****************

                                            #,                                       
                                            ###                                      
                                            ####                                     
                                            #####                                    
                                            ######                                   
                                           ########,                                 
                                     ,,################,,,,,                         
                               ,,#################################,,                 
                          ,,##########################################,,             
                       ,#########################################, ''#####,          
                    ,#############################################,,   '####,        
                  ,##################################################,,,,####,       
                ,###########''''           ''''###############################       
              ,#####''   ,,,,##########,,,,          '''####'''          '####       
            ,##' ,,,,###########################,,,                        '##       
           ' ,,###''''                  '''############,,,                           
         ,,##''                                '''############,,,,        ,,,,,,###''
      ,#''                                            '''#######################'''  
     '                                                          ''''####''''         
             ,#######,   #######,   ,#######,      ##                                
            ,#'     '#,  ##    ##  ,#'     '#,    #''#        ,####,   ,####,        
            ##       ##  ##   ,#'  ##            #'  '#       #'       #'  '#        
            ##       ##  #######   ##           ,######,      #####,   #    #        
            '#,     ,#'  ##    ##  '#,     ,#' ,#      #,     #,   #   #,  ,#        
             '#######'   ##     ##  '#######'  #'      '#     '####' # '####'        

         *************************************************************
         *                GEOMETRY OPTIMIZATION CYCLE   1            *
         *************************************************************



                #########################################################
                #                        -***-                          #
                #          Department of theory and spectroscopy        #
                #                                                       #
                #                      Frank Neese                      #
                #                                                       #
                #     Directorship, Architecture, Infrastructure        #
                #                    SHARK, DRIVERS                     #
                #        Core code/Algorithms in most modules           #
The first mode is                       ....    7
The number of degrees of freedom        ....   18
                #                                                       #
                #        Max Planck Institute fuer Kohlenforschung      #
                #                Kaiser Wilhelm Platz 1                 #
                #                 D-45470 Muelheim/Ruhr                 #
                #                      Germany                          #
                #                                                       #
                #                  All rights reserved                  #
                #                        -***-                          #
                #########################################################


                         Program Version 6.0.0  -   RELEASE  -


 With contributions from (in alphabetic order):
   Daniel Aravena         : Magnetic Suceptibility
   Michael Atanasov       : Ab Initio Ligand Field Theory (pilot matlab implementation)
   Alexander A. Auer      : GIAO ZORA, VPT2 properties, NMR spectrum
   Ute Becker             : All parallelization in ORCA, NUMFREQ, NUMCALC
   Giovanni Bistoni       : ED, misc. LED, open-shell LED, HFLD
   Martin Brehm           : Molecular dynamics
   Dmytro Bykov           : pre 5.0 version of the SCF Hessian
   Marcos Casanova-Páez   : Triplet and SCS-CIS(D). UHF-(DLPNO)-IP/EA/STEOM-CCSD. UHF-CVS-IP/STEOM-CCSD
   Vijay G. Chilkuri      : MRCI spin determinant printing, contributions to CSF-ICE
   Pauline Colinet        : FMM embedding
   Dipayan Datta          : RHF DLPNO-CCSD density
   Achintya Kumar Dutta   : EOM-CC, STEOM-CC
   Nicolas Foglia         : Exact transition moments, OPA infrastructure, MCD improvements
   Dmitry Ganyushin       : Spin-Orbit,Spin-Spin,Magnetic field MRCI
   Miquel Garcia          : C-PCM and meta-GGA Hessian, CCSD/C-PCM, Gaussian charge scheme
   Tiago L. C. Gouveia    : GS-ROHF, GS-ROCIS
   Yang Guo               : DLPNO-NEVPT2, F12-NEVPT2, CIM, IAO-localization
   Andreas Hansen         : Spin unrestricted coupled pair/coupled cluster methods
   Ingolf Harden          : AUTO-CI MPn and infrastructure 
   Benjamin Helmich-Paris : MC-RPA, TRAH-(SCF,CASSCF), AVAS, COSX integrals, SCF dyn. polar.
   Lee Huntington         : MR-EOM, pCC
   Robert Izsak           : Overlap fitted RIJCOSX, COSX-SCS-MP3, EOM
   Riya Kayal             : Wick's Theorem for AUTO-CI, AUTO-CI UHF-CCSDT
   Emily Kempfer          : AUTO-CI, RHF CISDT and CCSDT
   Christian Kollmar      : KDIIS, OOCD, Brueckner-CCSD(T), CCSD density, CASPT2, CASPT2-K, improved NEVPT2
   Axel Koslowski         : Symmetry handling
   Simone Kossmann        : Meta GGA functionals, TD-DFT gradient, OOMP2, (MP2 Hessian; deprecated post 5.0)
   Lucas Lang             : DCDCAS
   Marvin Lechner         : AUTO-CI (C++ implementation), FIC-MRCC
   Spencer Leger          : CASSCF response
   Dagmar Lenk            : GEPOL surface, SMD, ORCA-2-JSON
   Dimitrios Liakos       : Extrapolation schemes; Compound Job, initial MDCI parallelization
   Dimitrios Manganas     : Further ROCIS development; embedding schemes. LFT, Crystal Embedding
   Dimitrios Pantazis     : SARC Basis sets
   Anastasios Papadopoulos: AUTO-CI, single reference methods and gradients
   Taras Petrenko         : pre 6.0 DFT Hessian and TD-DFT gradient, (ASA, deprecated), ECA, 1-Electron XAS/XES, NRVS
   Peter Pinski           : DLPNO-MP2, DLPNO-MP2 Gradient
   Christoph Reimann      : Effective Core Potentials
   Marius Retegan         : Local ZFS, SOC
   Christoph Riplinger    : Optimizer, TS searches, QM/MM, DLPNO-CCSD(T), (RO)-DLPNO pert. Triples
   Michael Roemelt        : Original ROCIS implementation
   Masaaki Saitow         : Open-shell DLPNO-CCSD energy and density
   Barbara Sandhoefer     : DKH picture change effects
   Kantharuban Sivalingam : CASSCF convergence/infrastructure, NEVPT2 and variants, FIC-MRCI
   Bernardo de Souza      : ESD, SOC TD-DFT
   Georgi Stoychev        : AutoAux, RI-MP2 NMR, DLPNO-MP2 response, X2C
   Van Anh Tran           : RI-MP2 g-tensors
   Willem Van den Heuvel  : Paramagnetic NMR
   Zikuan Wang            : NOTCH, Electric field optimization 
   Frank Wennmohs         : Technical directorship and infrastructure
   Hang Xu                : AUTO-CI-Response properties 


 We gratefully acknowledge several colleagues who have allowed us to
 interface, adapt or use parts of their codes:
   Stefan Grimme, W. Hujo, H. Kruse, P. Pracht,  : VdW corrections, initial TS optimization,
                  C. Bannwarth, S. Ehlert,         DFT functionals, gCP, sTDA/sTD-DF
                  L. Wittmann, M. Mueller
   Ed Valeev, F. Pavosevic, A. Kumar             : LibInt (2-el integral package), F12 methods
   Garnet Chan, S. Sharma, J. Yang, R. Olivares  : DMRG
   Ulf Ekstrom                                   : XCFun DFT Library
   Mihaly Kallay                                 : mrcc  (arbitrary order and MRCC methods)
   Frank Weinhold                                : gennbo (NPA and NBO analysis)
   Simon Mueller                                 : openCOSMO-RS
   Christopher J. Cramer and Donald G. Truhlar   : smd solvation model
   Lars Goerigk                                  : TD-DFT with DH, B97 family of functionals
   V. Asgeirsson, H. Jonsson                     : NEB implementation
   FAccTs GmbH                                   : IRC, NEB, NEB-TS, DLPNO-Multilevel, CI-OPT
                                                   MM, QMMM, 2- and 3-layer-ONIOM, Crystal-QMMM,
                                                   LR-CPCM, SF, NACMEs, symmetry and pop. for TD-DFT,
                                                   nearIR, NL-DFT gradient (VV10), updates on ESD,
                                                   ML-optimized integration grids, MBIS, APM,
                                                   GOAT, DOCKER, SOLVATOR, interface openCOSMO-RS
   S Lehtola, MJT Oliveira, MAL Marques          : LibXC Library
   Liviu Ungur et al                             : ANISO software


 Your calculation uses the libint2 library for the computation of 2-el integrals
 For citations please refer to: http://libint.valeyev.net

 Your ORCA version has been built with support for libXC version: 6.2.2
 For citations please refer to: https://libxc.gitlab.io

 This ORCA versions uses:
   CBLAS   interface :  Fast vector & matrix operations
   LAPACKE interface :  Fast linear algebra routines
   SCALAPACK package :  Parallel linear algebra routines
   Shared memory     :  Shared parallel matrices
   BLAS/LAPACK       :  OpenBLAS 0.3.27  USE64BITINT DYNAMIC_ARCH NO_AFFINITY Zen SINGLE_THREADED
        Core in use  :  Zen
   Copyright (c) 2011-2014, The OpenBLAS Project


NOTE: MaxCore=3000 MB was set to SCF,MP2,MDCI,CIPSI,MRCI and CIS
NOTE: MaxCore=3000 MB was set to SCF,MP2,MDCI,CIPSI,MRCI and CIS
      => If you want to overwrite this, your respective input block should be placed after the MaxCore statement
      => If you want to overwrite this, your respective input block should be placed after the MaxCore statement
Your calculation utilizes the SMD solvation module
Please cite in your paper:
A.V. Marenich, C.J. Cramer, D.G. Truhlar J. Phys. Chem. B, 113, (2009), 6378 

Your calculation utilizes the SMD solvation module
Please cite in your paper:
A.V. Marenich, C.J. Cramer, D.G. Truhlar J. Phys. Chem. B, 113, (2009), 6378 

Warning: RI is on but no J-basis has been assigned. Assigning Def2/J (nothing to worry about!)
NOTE: MaxCore=3000 MB was set to SCF,MP2,MDCI,CIPSI,MRCI and CIS
Warning: RI is on but no J-basis has been assigned. Assigning Def2/J (nothing to worry about!)
      => If you want to overwrite this, your respective input block should be placed after the MaxCore statement
Your calculation utilizes the SMD solvation module
Please cite in your paper:
A.V. Marenich, C.J. Cramer, D.G. Truhlar J. Phys. Chem. B, 113, (2009), 6378 

Warning: RI is on but no J-basis has been assigned. Assigning Def2/J (nothing to worry about!)
================================================================================
================================================================================


----- Orbital basis set information -----
----- Orbital basis set information -----
Your calculation utilizes the basis: ma-def2-SVP
   F. Weigend and R. Ahlrichs, Phys. Chem. Chem. Phys. 7, 3297 (2005).
   J. Zheng, X. Xu and D. G. Truhlar, Theor. Chem. Acc. 128, 295 (2011).

----- AuxJ basis set information -----
Your calculation utilizes the auxiliary basis: def2/J
   F. Weigend, Phys. Chem. Chem. Phys. 8, 1057 (2006).

Your calculation utilizes the basis: ma-def2-SVP
   F. Weigend and R. Ahlrichs, Phys. Chem. Chem. Phys. 7, 3297 (2005).
   J. Zheng, X. Xu and D. G. Truhlar, Theor. Chem. Acc. 128, 295 (2011).

----- AuxJ basis set information -----
Your calculation utilizes the auxiliary basis: def2/J
   F. Weigend, Phys. Chem. Chem. Phys. 8, 1057 (2006).

================================================================================

----- Orbital basis set information -----
Your calculation utilizes the basis: ma-def2-SVP
   F. Weigend and R. Ahlrichs, Phys. Chem. Chem. Phys. 7, 3297 (2005).
   J. Zheng, X. Xu and D. G. Truhlar, Theor. Chem. Acc. 128, 295 (2011).

----- AuxJ basis set information -----
Your calculation utilizes the auxiliary basis: def2/J
   F. Weigend, Phys. Chem. Chem. Phys. 8, 1057 (2006).

NOTE: MaxCore=3000 MB was set to SCF,MP2,MDCI,CIPSI,MRCI and CIS
      => If you want to overwrite this, your respective input block should be placed after the MaxCore statement

    -----------------------------------------------------------------
                    Redundant Internal Coordinates


    -----------------------------------------------------------------
         Definition                    Initial Value    Approx d2E/dq
    -----------------------------------------------------------------
      1. B(H   1,C   0)                  1.1109         0.333530   
      2. B(H   2,C   0)                  1.1061         0.339364   
      3. B(C   3,C   0)                  1.4948         0.425131   
      4. B(H   4,C   3)                  1.0471         0.421537   
      5. B(F   5,C   3)                  1.6499         0.200141   
      6. B(H   6,C   3)                  1.2850         0.175910   
      7. B(H   7,C   0)                  1.1063         0.339224   
      8. A(H   1,C   0,H   7)          108.7829         0.284705   
      9. A(H   1,C   0,C   3)          107.9766         0.327139   
     10. A(C   3,C   0,H   7)          111.5981         0.328053   
     11. A(H   2,C   0,H   7)          108.4617         0.285474   
     12. A(H   2,C   0,C   3)          111.4048         0.328075   
     13. A(H   1,C   0,H   2)          108.5402         0.284723   
     14. A(C   0,C   3,H   6)          115.4656         0.295036   
     15. A(H   4,C   3,F   5)          102.7482         0.297821   
     16. A(C   0,C   3,F   5)          112.6763         0.330907   
     17. A(F   5,C   3,H   6)           93.5490         0.260344   
     18. A(H   4,C   3,H   6)          106.7011         0.266856   
     19. A(C   0,C   3,H   4)          121.4990         0.340101   
     20. D(H   4,C   3,C   0,H   2)     59.0519         0.014293   
     21. D(H   4,C   3,C   0,H   7)   -179.5487         0.014293   
     22. D(F   5,C   3,C   0,H   1)    177.5110         0.014293   
     23. D(F   5,C   3,C   0,H   2)    -63.3949         0.014293   
     24. D(F   5,C   3,C   0,H   7)     58.0045         0.014293   
     25. D(H   4,C   3,C   0,H   1)    -60.0422         0.014293   
    -----------------------------------------------------------------

Number of atoms                         .... 8
Number of degrees of freedom            .... 25


         *************************************************************
         *                GEOMETRY OPTIMIZATION CYCLE   1            *
         *************************************************************
Your calculation utilizes the SMD solvation module
Please cite in your paper:
A.V. Marenich, C.J. Cramer, D.G. Truhlar J. Phys. Chem. B, 113, (2009), 6378 

Warning: RI is on but no J-basis has been assigned. Assigning Def2/J (nothing to worry about!)
================================================================================

----- Orbital basis set information -----
---------------------------------
CARTESIAN COORDINATES (ANGSTROEM)
---------------------------------
  C     -3.184880   -0.142881   -1.343492
  H     -3.172903    0.964142   -1.251972
  H     -2.258733   -0.543316   -0.890215
  C     -4.401150   -0.650947   -0.638504
  H     -4.553972   -0.477615    0.382800
  F     -4.569018   -2.287835   -0.759093
  H     -5.519522   -0.412881   -1.224874
  H     -3.194220   -0.411495   -2.416601

----------------------------
CARTESIAN COORDINATES (A.U.)
----------------------------
  NO LB      ZA    FRAG     MASS         X           Y           Z
   0 C     6.0000    0    12.011   -6.018551   -0.270007   -2.538831
   1 H     1.0000    0     1.008   -5.995918    1.821965   -2.365883
   2 H     1.0000    0     1.008   -4.268386   -1.026718   -1.682263
   3 C     6.0000    0    12.011   -8.316969   -1.230112   -1.206598
   4 H     1.0000    0     1.008   -8.605760   -0.902562    0.723387
   5 F     9.0000    0    18.998   -8.634193   -4.323382   -1.434478
   6 H     1.0000    0     1.008  -10.430384   -0.780233   -2.314676
   7 H     1.0000    0     1.008   -6.036202   -0.777613   -4.566713

--------------------------------
INTERNAL COORDINATES (ANGSTROEM)
--------------------------------
 C      0   0   0     0.000000000000     0.00000000     0.00000000
 H      1   0   0     1.110864942380     0.00000000     0.00000000
 H      1   2   0     1.106144401671   108.54021445     0.00000000
 C      1   2   3     1.494808522252   107.97660176   120.89774898
 H      4   1   2     1.047119855939   121.49904282   299.95782861
 F      4   1   2     1.649885714566   112.67632493   177.51103310
 H      4   1   2     1.285013538073   115.46558618    71.65085454
 H      1   2   3     1.106256594154   108.78286008   242.16981992

---------------------------
INTERNAL COORDINATES (A.U.)
---------------------------
 C      0   0   0     0.000000000000     0.00000000     0.00000000
 H      1   0   0     2.099230512873     0.00000000     0.00000000
 H      1   2   0     2.090309983728   108.54021445     0.00000000
 C      1   2   3     2.824778729708   107.97660176   120.89774898
 H      4   1   2     1.978769757116   121.49904282   299.95782861
 F      4   1   2     3.117832152798   112.67632493   177.51103310
 H      4   1   2     2.428323665340   115.46558618    71.65085454
 H      1   2   3     2.090521996796   108.78286008   242.16981992

Your calculation utilizes the basis: ma-def2-SVP
   F. Weigend and R. Ahlrichs, Phys. Chem. Chem. Phys. 7, 3297 (2005).
   J. Zheng, X. Xu and D. G. Truhlar, Theor. Chem. Acc. 128, 295 (2011).

NOTE: MaxCore=3000 MB was set to SCF,MP2,MDCI,CIPSI,MRCI and CIS
      => If you want to overwrite this, your respective input block should be placed after the MaxCore statement
----- AuxJ basis set information -----
---------------------
BASIS SET INFORMATION
---------------------
NOTE: MaxCore=3000 MB was set to SCF,MP2,MDCI,CIPSI,MRCI and CIS
      => If you want to overwrite this, your respective input block should be placed after the MaxCore statement
There are 3 groups of distinct atoms

 Group   1 Type C   : 8s5p1d contracted to 4s3p1d pattern {5111/311/1}
 Group   2 Type H   : 4s1p contracted to 2s1p pattern {31/1}
 Group   3 Type F   : 8s5p1d contracted to 4s3p1d pattern {5111/311/1}

Atom   0C    basis set group =>   1
Atom   1H    basis set group =>   2
Atom   2H    basis set group =>   2
Atom   3C    basis set group =>   1
Atom   4H    basis set group =>   2
Atom   5F    basis set group =>   3
Atom   6H    basis set group =>   2
Atom   7H    basis set group =>   2
---------------------------------
AUXILIARY/J BASIS SET INFORMATION
---------------------------------
There are 3 groups of distinct atoms

 Group   1 Type C   : 12s5p4d2f1g contracted to 6s4p3d1f1g pattern {711111/2111/211/2/1}
 Group   2 Type H   : 5s2p1d contracted to 3s1p1d pattern {311/2/1}
 Group   3 Type F   : 12s5p4d2f1g contracted to 6s4p3d1f1g pattern {711111/2111/211/2/1}

Atom   0C    basis set group =>   1
Atom   1H    basis set group =>   2
Atom   2H    basis set group =>   2
Atom   3C    basis set group =>   1
---------------------------------
CARTESIAN COORDINATES (ANGSTROEM)
---------------------------------
  C     -3.184880   -0.142881   -1.343492
  H     -3.172903    0.964142   -1.251972
  H     -2.258733   -0.543316   -0.890215
  C     -4.401150   -0.650947   -0.638504
Atom   4H    basis set group =>   2
Atom   5F    basis set group =>   3
Atom   6H    basis set group =>   2
Atom   7H    basis set group =>   2
  H     -4.553972   -0.477615    0.382800
  F     -4.569018   -2.287835   -0.759093
  H     -5.519522   -0.412881   -1.224874
  H     -3.194220   -0.411495   -2.416601

----------------------------
CARTESIAN COORDINATES (A.U.)
----------------------------
  NO LB      ZA    FRAG     MASS         X           Y           Z
   0 C     6.0000    0    12.011   -6.018551   -0.270007   -2.538831
   1 H     1.0000    0     1.008   -5.995918    1.821965   -2.365883
   2 H     1.0000    0     1.008   -4.268386   -1.026718   -1.682263
Your calculation utilizes the SMD solvation module
Please cite in your paper:
A.V. Marenich, C.J. Cramer, D.G. Truhlar J. Phys. Chem. B, 113, (2009), 6378 

   3 C     6.0000    0    12.011   -8.316969   -1.230112   -1.206598
   4 H     1.0000    0     1.008   -8.605760   -0.902562    0.723387
   5 F     9.0000    0    18.998   -8.634193   -4.323382   -1.434478
   6 H     1.0000    0     1.008  -10.430384   -0.780233   -2.314676
Warning: RI is on but no J-basis has been assigned. Assigning Def2/J (nothing to worry about!)
   7 H     1.0000    0     1.008   -6.036202   -0.777613   -4.566713

--------------------------------
INTERNAL COORDINATES (ANGSTROEM)
--------------------------------
 C      0   0   0     0.000000000000     0.00000000     0.00000000
 H      1   0   0     1.110864942380     0.00000000     0.00000000
 H      1   2   0     1.106144401671   108.54021445     0.00000000
 C      1   2   3     1.494808522252   107.97660176   120.89774898
 H      4   1   2     1.047119855939   121.49904282   299.95782861
Your calculation utilizes the SMD solvation module
Please cite in your paper:
A.V. Marenich, C.J. Cramer, D.G. Truhlar J. Phys. Chem. B, 113, (2009), 6378 

Warning: RI is on but no J-basis has been assigned. Assigning Def2/J (nothing to worry about!)
 F      4   1   2     1.649885714566   112.67632493   177.51103310
 H      4   1   2     1.285013538073   115.46558618    71.65085454
 H      1   2   3     1.106256594154   108.78286008   242.16981992

---------------------------
INTERNAL COORDINATES (A.U.)
---------------------------
 C      0   0   0     0.000000000000     0.00000000     0.00000000
 H      1   0   0     2.099230512873     0.00000000     0.00000000
 H      1   2   0     2.090309983728   108.54021445     0.00000000
 C      1   2   3     2.824778729708   107.97660176   120.89774898
 H      4   1   2     1.978769757116   121.49904282   299.95782861
 F      4   1   2     3.117832152798   112.67632493   177.51103310
 H      4   1   2     2.428323665340   115.46558618    71.65085454
 H      1   2   3     2.090521996796   108.78286008   242.16981992

Your calculation utilizes the auxiliary basis: def2/J
   F. Weigend, Phys. Chem. Chem. Phys. 8, 1057 (2006).

---------------------
BASIS SET INFORMATION
---------------------
There are 3 groups of distinct atoms

 Group   1 Type C   : 8s5p1d contracted to 4s3p1d pattern {5111/311/1}
 Group   2 Type H   : 4s1p contracted to 2s1p pattern {31/1}
 Group   3 Type F   : 8s5p1d contracted to 4s3p1d pattern {5111/311/1}

Atom   0C    basis set group =>   1
Atom   1H    basis set group =>   2
Atom   2H    basis set group =>   2
Atom   3C    basis set group =>   1
Atom   4H    basis set group =>   2
Atom   5F    basis set group =>   3
Atom   6H    basis set group =>   2
Atom   7H    basis set group =>   2
---------------------------------
AUXILIARY/J BASIS SET INFORMATION
---------------------------------
There are 3 groups of distinct atoms

 Group   1 Type C   : 12s5p4d2f1g contracted to 6s4p3d1f1g pattern {711111/2111/211/2/1}
 Group   2 Type H   : 5s2p1d contracted to 3s1p1d pattern {311/2/1}
 Group   3 Type F   : 12s5p4d2f1g contracted to 6s4p3d1f1g pattern {711111/2111/211/2/1}

Atom   0C    basis set group =>   1
Atom   1H    basis set group =>   2
Atom   2H    basis set group =>   2
Atom   3C    basis set group =>   1
Atom   4H    basis set group =>   2
Atom   5F    basis set group =>   3
Atom   6H    basis set group =>   2
Atom   7H    basis set group =>   2
================================================================================

================================================================================

----- Orbital basis set information -----
Your calculation utilizes the basis: ma-def2-SVP
   F. Weigend and R. Ahlrichs, Phys. Chem. Chem. Phys. 7, 3297 (2005).
   J. Zheng, X. Xu and D. G. Truhlar, Theor. Chem. Acc. 128, 295 (2011).

----- AuxJ basis set information -----
Your calculation utilizes the auxiliary basis: def2/J
   F. Weigend, Phys. Chem. Chem. Phys. 8, 1057 (2006).

----- Orbital basis set information -----
Your calculation utilizes the basis: ma-def2-SVP
   F. Weigend and R. Ahlrichs, Phys. Chem. Chem. Phys. 7, 3297 (2005).
   J. Zheng, X. Xu and D. G. Truhlar, Theor. Chem. Acc. 128, 295 (2011).

----- AuxJ basis set information -----
Your calculation utilizes the auxiliary basis: def2/J
   F. Weigend, Phys. Chem. Chem. Phys. 8, 1057 (2006).

NOTE: MaxCore=3000 MB was set to SCF,MP2,MDCI,CIPSI,MRCI and CIS
      => If you want to overwrite this, your respective input block should be placed after the MaxCore statement
Your calculation utilizes the SMD solvation module
Please cite in your paper:
A.V. Marenich, C.J. Cramer, D.G. Truhlar J. Phys. Chem. B, 113, (2009), 6378 

Warning: RI is on but no J-basis has been assigned. Assigning Def2/J (nothing to worry about!)
================================================================================

----- Orbital basis set information -----
Your calculation utilizes the basis: ma-def2-SVP
   F. Weigend and R. Ahlrichs, Phys. Chem. Chem. Phys. 7, 3297 (2005).
   J. Zheng, X. Xu and D. G. Truhlar, Theor. Chem. Acc. 128, 295 (2011).

----- AuxJ basis set information -----
Your calculation utilizes the auxiliary basis: def2/J
   F. Weigend, Phys. Chem. Chem. Phys. 8, 1057 (2006).

================================================================================
                                        WARNINGS
                       Please study these warnings very carefully!
================================================================================

================================================================================
                                        WARNINGS
                       Please study these warnings very carefully!
================================================================================


WARNING: Geometry Optimization
  ===> : Switching off AutoStart
         For restart on a previous wavefunction, please use MOREAD


WARNING: Geometry Optimization
  ===> : Switching off AutoStart
         For restart on a previous wavefunction, please use MOREAD

================================================================================
                                        WARNINGS
                       Please study these warnings very carefully!
================================================================================


WARNING: Geometry Optimization
  ===> : Switching off AutoStart
         For restart on a previous wavefunction, please use MOREAD

================================================================================
                                        WARNINGS
                       Please study these warnings very carefully!
================================================================================


WARNING: Geometry Optimization
================================================================================
                                        WARNINGS
                       Please study these warnings very carefully!
================================================================================

  ===> : Switching off AutoStart
         For restart on a previous wavefunction, please use MOREAD

WARNING: Geometry Optimization
  ===> : Switching off AutoStart
         For restart on a previous wavefunction, please use MOREAD


NOTE: MaxCore=3000 MB was set to SCF,MP2,MDCI,CIPSI,MRCI and CIS
      => If you want to overwrite this, your respective input block should be placed after the MaxCore statement
Your calculation utilizes the SMD solvation module
Please cite in your paper:
A.V. Marenich, C.J. Cramer, D.G. Truhlar J. Phys. Chem. B, 113, (2009), 6378 

Warning: RI is on but no J-basis has been assigned. Assigning Def2/J (nothing to worry about!)
================================================================================

================================================================================
                                       INPUT FILE
================================================================================
NAME = job.inp
----- Orbital basis set information -----
Your calculation utilizes the basis: ma-def2-SVP
   F. Weigend and R. Ahlrichs, Phys. Chem. Chem. Phys. 7, 3297 (2005).
   J. Zheng, X. Xu and D. G. Truhlar, Theor. Chem. Acc. 128, 295 (2011).

----- AuxJ basis set information -----
Your calculation utilizes the auxiliary basis: def2/J
   F. Weigend, Phys. Chem. Chem. Phys. 8, 1057 (2006).

|  1> !pbe ma-def2-SVP SMD(2-methyl-2-propanol) opt SMD(Acetonitrile)  Freq
|  2> %maxcore 3000
|  3> %pal
|  4> nprocs 4
|  5> end
|  6> # MECP_BC
|  7> 
|  8> *xyz 0 1
|  9> C        -3.18487978      -0.14288142      -1.34349167 
| 10> H        -3.17290330       0.96414232      -1.25197160 
| 11> H        -2.25873280      -0.54331577      -0.89021522 
| 12> C        -4.40115023      -0.65094733      -0.63850391 
| 13> H        -4.55397224      -0.47761500       0.38279983 
| 14> F        -4.56901789      -2.28783512      -0.75909281 
| 15> H        -5.51952171      -0.41288137      -1.22487378 
| 16> H        -3.19422030      -0.41149530      -2.41660070 
| 17> *
| 18> 
| 19>                          ****END OF INPUT****
================================================================================
================================================================================
                                        WARNINGS
                       Please study these warnings very carefully!
================================================================================


WARNING: Geometry Optimization
  ===> : Switching off AutoStart
         For restart on a previous wavefunction, please use MOREAD


                       *****************************
                       * Geometry Optimization Run *
                       *****************************

Geometry optimization settings:
Update method            Update   .... BFGS
Choice of coordinates    CoordSys .... (2022) Redundant Internals
Initial Hessian          InHess   .... Almloef's Model
Max. no of cycles        MaxIter  .... 50

Convergence Tolerances:
Energy Change            TolE     ....  5.0000e-06 Eh
Max. Gradient            TolMAXG  ....  3.0000e-04 Eh/bohr
RMS Gradient             TolRMSG  ....  1.0000e-04 Eh/bohr
Max. Displacement        TolMAXD  ....  4.0000e-03 bohr
RMS Displacement         TolRMSD  ....  2.0000e-03 bohr
Strict Convergence                .... False

================================================================================
                                       INPUT FILE
================================================================================
NAME = job.inp
|  1> !pbe ma-def2-SVP SMD(2-methyl-2-propanol) opt SMD(Acetonitrile)  Freq
|  2> %maxcore 3000
|  3> %pal
|  4> nprocs 4
|  5> end
|  6> # MECP_BC
|  7> 
|  8> *xyz 0 1
|  9> C        -3.18487978      -0.14288142      -1.34349167 
| 10> H        -3.17290330       0.96414232      -1.25197160 
| 11> H        -2.25873280      -0.54331577      -0.89021522 
| 12> C        -4.40115023      -0.65094733      -0.63850391 
| 13> H        -4.55397224      -0.47761500       0.38279983 
| 14> F        -4.56901789      -2.28783512      -0.75909281 
| 15> H        -5.51952171      -0.41288137      -1.22487378 
| 16> H        -3.19422030      -0.41149530      -2.41660070 
| 17> *
| 18> 
| 19>                          ****END OF INPUT****
================================================================================
------------------------------------------------------------------------------
                        ORCA OPTIMIZATION COORDINATE SETUP
------------------------------------------------------------------------------

The optimization will be done in redundant internal coordinates (2022)

                       *****************************
                       * Geometry Optimization Run *
                       *****************************

Geometry optimization settings:
Update method            Update   .... BFGS
Choice of coordinates    CoordSys .... (2022) Redundant Internals
Initial Hessian          InHess   .... Almloef's Model
Max. no of cycles        MaxIter  .... 50

Convergence Tolerances:
Energy Change            TolE     ....  5.0000e-06 Eh
Max. Gradient            TolMAXG  ....  3.0000e-04 Eh/bohr
RMS Gradient             TolRMSG  ....  1.0000e-04 Eh/bohr
Max. Displacement        TolMAXD  ....  4.0000e-03 bohr
RMS Displacement         TolRMSD  ....  2.0000e-03 bohr
Strict Convergence                .... False

================================================================================
                                        WARNINGS
                       Please study these warnings very carefully!
================================================================================


WARNING: Geometry Optimization
  ===> : Switching off AutoStart
         For restart on a previous wavefunction, please use MOREAD

================================================================================
                                       INPUT FILE
================================================================================
NAME = job.inp
Making redundant internal coordinates   ...  (2022 redundants) done
Evaluating the initial hessian          ...  (Almloef) done
Evaluating the coordinates              ...  done
Calculating the B-matrix                .... done
|  1> !pbe ma-def2-SVP SMD(2-methyl-2-propanol) opt SMD(Acetonitrile)  Freq
|  2> %maxcore 3000
|  3> %pal
|  4> nprocs 4
|  5> end
|  6> # MECP_BC
|  7> 
|  8> *xyz 0 1
|  9> C        -3.18487978      -0.14288142      -1.34349167 
| 10> H        -3.17290330       0.96414232      -1.25197160 
| 11> H        -2.25873280      -0.54331577      -0.89021522 
| 12> C        -4.40115023      -0.65094733      -0.63850391 
| 13> H        -4.55397224      -0.47761500       0.38279983 
Calculating the G-matrix                .... done
| 14> F        -4.56901789      -2.28783512      -0.75909281 
| 15> H        -5.51952171      -0.41288137      -1.22487378 
| 16> H        -3.19422030      -0.41149530      -2.41660070 
| 17> *
| 18> 
| 19>                          ****END OF INPUT****
================================================================================
Diagonalizing the G-matrix              .... done
The first mode is                       ....    7
The number of degrees of freedom        ....   18

    -----------------------------------------------------------------
                    Redundant Internal Coordinates


    -----------------------------------------------------------------
         Definition                    Initial Value    Approx d2E/dq
    -----------------------------------------------------------------
      1. B(H   1,C   0)                  1.1109         0.333530   
      2. B(H   2,C   0)                  1.1061         0.339364   
      3. B(C   3,C   0)                  1.4948         0.425131   
      4. B(H   4,C   3)                  1.0471         0.421537   
      5. B(F   5,C   3)                  1.6499         0.200141   
      6. B(H   6,C   3)                  1.2850         0.175910   
      7. B(H   7,C   0)                  1.1063         0.339224   
      8. A(H   1,C   0,H   7)          108.7829         0.284705   
      9. A(H   1,C   0,C   3)          107.9766         0.327139   
     10. A(C   3,C   0,H   7)          111.5981         0.328053   
     11. A(H   2,C   0,H   7)          108.4617         0.285474   
     12. A(H   2,C   0,C   3)          111.4048         0.328075   
     13. A(H   1,C   0,H   2)          108.5402         0.284723   
     14. A(C   0,C   3,H   6)          115.4656         0.295036   
     15. A(H   4,C   3,F   5)          102.7482         0.297821   
     16. A(C   0,C   3,F   5)          112.6763         0.330907   
     17. A(F   5,C   3,H   6)           93.5490         0.260344   
     18. A(H   4,C   3,H   6)          106.7011         0.266856   
     19. A(C   0,C   3,H   4)          121.4990         0.340101   
     20. D(H   4,C   3,C   0,H   2)     59.0519         0.014293   
     21. D(H   4,C   3,C   0,H   7)   -179.5487         0.014293   
     22. D(F   5,C   3,C   0,H   1)    177.5110         0.014293   
     23. D(F   5,C   3,C   0,H   2)    -63.3949         0.014293   
     24. D(F   5,C   3,C   0,H   7)     58.0045         0.014293   
     25. D(H   4,C   3,C   0,H   1)    -60.0422         0.014293   
    -----------------------------------------------------------------

Number of atoms                         .... 8
Number of degrees of freedom            .... 25

------------------------------------------------------------------------------
                        ORCA OPTIMIZATION COORDINATE SETUP
------------------------------------------------------------------------------

The optimization will be done in redundant internal coordinates (2022)

         *************************************************************
         *                GEOMETRY OPTIMIZATION CYCLE   1            *
         *************************************************************

                       *****************************
                       * Geometry Optimization Run *
                       *****************************

Geometry optimization settings:
Update method            Update   .... BFGS
Choice of coordinates    CoordSys .... (2022) Redundant Internals
Initial Hessian          InHess   .... Almloef's Model
Max. no of cycles        MaxIter  .... 50

Convergence Tolerances:
Energy Change            TolE     ....  5.0000e-06 Eh
Max. Gradient            TolMAXG  ....  3.0000e-04 Eh/bohr
RMS Gradient             TolRMSG  ....  1.0000e-04 Eh/bohr
Max. Displacement        TolMAXD  ....  4.0000e-03 bohr
RMS Displacement         TolRMSD  ....  2.0000e-03 bohr
Strict Convergence                .... False

---------------------------------
CARTESIAN COORDINATES (ANGSTROEM)
---------------------------------
  C     -3.184880   -0.142881   -1.343492
  H     -3.172903    0.964142   -1.251972
  H     -2.258733   -0.543316   -0.890215
  C     -4.401150   -0.650947   -0.638504
  H     -4.553972   -0.477615    0.382800
  F     -4.569018   -2.287835   -0.759093
  H     -5.519522   -0.412881   -1.224874
  H     -3.194220   -0.411495   -2.416601

----------------------------
CARTESIAN COORDINATES (A.U.)
----------------------------
  NO LB      ZA    FRAG     MASS         X           Y           Z
   0 C     6.0000    0    12.011   -6.018551   -0.270007   -2.538831
   1 H     1.0000    0     1.008   -5.995918    1.821965   -2.365883
   2 H     1.0000    0     1.008   -4.268386   -1.026718   -1.682263
   3 C     6.0000    0    12.011   -8.316969   -1.230112   -1.206598
   4 H     1.0000    0     1.008   -8.605760   -0.902562    0.723387
   5 F     9.0000    0    18.998   -8.634193   -4.323382   -1.434478
   6 H     1.0000    0     1.008  -10.430384   -0.780233   -2.314676
   7 H     1.0000    0     1.008   -6.036202   -0.777613   -4.566713

--------------------------------
INTERNAL COORDINATES (ANGSTROEM)
--------------------------------
 C      0   0   0     0.000000000000     0.00000000     0.00000000
 H      1   0   0     1.110864942380     0.00000000     0.00000000
 H      1   2   0     1.106144401671   108.54021445     0.00000000
 C      1   2   3     1.494808522252   107.97660176   120.89774898
 H      4   1   2     1.047119855939   121.49904282   299.95782861
 F      4   1   2     1.649885714566   112.67632493   177.51103310
 H      4   1   2     1.285013538073   115.46558618    71.65085454
 H      1   2   3     1.106256594154   108.78286008   242.16981992

---------------------------
INTERNAL COORDINATES (A.U.)
---------------------------
 C      0   0   0     0.000000000000     0.00000000     0.00000000
 H      1   0   0     2.099230512873     0.00000000     0.00000000
 H      1   2   0     2.090309983728   108.54021445     0.00000000
 C      1   2   3     2.824778729708   107.97660176   120.89774898
 H      4   1   2     1.978769757116   121.49904282   299.95782861
 F      4   1   2     3.117832152798   112.67632493   177.51103310
 H      4   1   2     2.428323665340   115.46558618    71.65085454
 H      1   2   3     2.090521996796   108.78286008   242.16981992

---------------------
BASIS SET INFORMATION
---------------------
There are 3 groups of distinct atoms

 Group   1 Type C   : 8s5p1d contracted to 4s3p1d pattern {5111/311/1}
 Group   2 Type H   : 4s1p contracted to 2s1p pattern {31/1}
 Group   3 Type F   : 8s5p1d contracted to 4s3p1d pattern {5111/311/1}

Atom   0C    basis set group =>   1
Atom   1H    basis set group =>   2
Atom   2H    basis set group =>   2
Atom   3C    basis set group =>   1
Atom   4H    basis set group =>   2
Atom   5F    basis set group =>   3
Atom   6H    basis set group =>   2
Atom   7H    basis set group =>   2
---------------------------------
AUXILIARY/J BASIS SET INFORMATION
---------------------------------
There are 3 groups of distinct atoms

 Group   1 Type C   : 12s5p4d2f1g contracted to 6s4p3d1f1g pattern {711111/2111/211/2/1}
 Group   2 Type H   : 5s2p1d contracted to 3s1p1d pattern {311/2/1}
 Group   3 Type F   : 12s5p4d2f1g contracted to 6s4p3d1f1g pattern {711111/2111/211/2/1}

Atom   0C    basis set group =>   1
Atom   1H    basis set group =>   2
Atom   2H    basis set group =>   2
Atom   3C    basis set group =>   1
Atom   4H    basis set group =>   2
Atom   5F    basis set group =>   3
Atom   6H    basis set group =>   2
Atom   7H    basis set group =>   2
Making redundant internal coordinates   ...  (2022 redundants) done
Evaluating the initial hessian          ...  (Almloef) done
Evaluating the coordinates              ...  done
Calculating the B-matrix                .... done
Calculating the G-matrix                .... done
Diagonalizing the G-matrix              .... done
The first mode is                       ....    7
The number of degrees of freedom        ....   18

    -----------------------------------------------------------------
                    Redundant Internal Coordinates


    -----------------------------------------------------------------
         Definition                    Initial Value    Approx d2E/dq
    -----------------------------------------------------------------
      1. B(H   1,C   0)                  1.1109         0.333530   
      2. B(H   2,C   0)                  1.1061         0.339364   
      3. B(C   3,C   0)                  1.4948         0.425131   
      4. B(H   4,C   3)                  1.0471         0.421537   
      5. B(F   5,C   3)                  1.6499         0.200141   
      6. B(H   6,C   3)                  1.2850         0.175910   
      7. B(H   7,C   0)                  1.1063         0.339224   
      8. A(H   1,C   0,H   7)          108.7829         0.284705   
      9. A(H   1,C   0,C   3)          107.9766         0.327139   
     10. A(C   3,C   0,H   7)          111.5981         0.328053   
     11. A(H   2,C   0,H   7)          108.4617         0.285474   
     12. A(H   2,C   0,C   3)          111.4048         0.328075   
     13. A(H   1,C   0,H   2)          108.5402         0.284723   
     14. A(C   0,C   3,H   6)          115.4656         0.295036   
     15. A(H   4,C   3,F   5)          102.7482         0.297821   
     16. A(C   0,C   3,F   5)          112.6763         0.330907   
================================================================================
                                        WARNINGS
                       Please study these warnings very carefully!
================================================================================

     17. A(F   5,C   3,H   6)           93.5490         0.260344   
     18. A(H   4,C   3,H   6)          106.7011         0.266856   
     19. A(C   0,C   3,H   4)          121.4990         0.340101   
     20. D(H   4,C   3,C   0,H   2)     59.0519         0.014293   
     21. D(H   4,C   3,C   0,H   7)   -179.5487         0.014293   
     22. D(F   5,C   3,C   0,H   1)    177.5110         0.014293   
     23. D(F   5,C   3,C   0,H   2)    -63.3949         0.014293   
     24. D(F   5,C   3,C   0,H   7)     58.0045         0.014293   
     25. D(H   4,C   3,C   0,H   1)    -60.0422         0.014293   
    -----------------------------------------------------------------

Number of atoms                         .... 8
Number of degrees of freedom            .... 25

------------------------------------------------------------------------------
                        ORCA OPTIMIZATION COORDINATE SETUP
------------------------------------------------------------------------------

The optimization will be done in redundant internal coordinates (2022)

WARNING: Geometry Optimization
  ===> : Switching off AutoStart
         For restart on a previous wavefunction, please use MOREAD


         *************************************************************
         *                GEOMETRY OPTIMIZATION CYCLE   1            *
         *************************************************************
================================================================================
                                        WARNINGS
                       Please study these warnings very carefully!
================================================================================


WARNING: Geometry Optimization
  ===> : Switching off AutoStart
         For restart on a previous wavefunction, please use MOREAD

================================================================================
                                        WARNINGS
                       Please study these warnings very carefully!
================================================================================


WARNING: Geometry Optimization
  ===> : Switching off AutoStart
         For restart on a previous wavefunction, please use MOREAD

================================================================================
                                        WARNINGS
                       Please study these warnings very carefully!
================================================================================


WARNING: Geometry Optimization
  ===> : Switching off AutoStart
         For restart on a previous wavefunction, please use MOREAD

---------------------------------
CARTESIAN COORDINATES (ANGSTROEM)
---------------------------------
  C     -3.184880   -0.142881   -1.343492
  H     -3.172903    0.964142   -1.251972
  H     -2.258733   -0.543316   -0.890215
  C     -4.401150   -0.650947   -0.638504
  H     -4.553972   -0.477615    0.382800
  F     -4.569018   -2.287835   -0.759093
  H     -5.519522   -0.412881   -1.224874
  H     -3.194220   -0.411495   -2.416601

----------------------------
CARTESIAN COORDINATES (A.U.)
----------------------------
  NO LB      ZA    FRAG     MASS         X           Y           Z
   0 C     6.0000    0    12.011   -6.018551   -0.270007   -2.538831
   1 H     1.0000    0     1.008   -5.995918    1.821965   -2.365883
   2 H     1.0000    0     1.008   -4.268386   -1.026718   -1.682263
   3 C     6.0000    0    12.011   -8.316969   -1.230112   -1.206598
   4 H     1.0000    0     1.008   -8.605760   -0.902562    0.723387
   5 F     9.0000    0    18.998   -8.634193   -4.323382   -1.434478
   6 H     1.0000    0     1.008  -10.430384   -0.780233   -2.314676
   7 H     1.0000    0     1.008   -6.036202   -0.777613   -4.566713

--------------------------------
INTERNAL COORDINATES (ANGSTROEM)
--------------------------------
 C      0   0   0     0.000000000000     0.00000000     0.00000000
 H      1   0   0     1.110864942380     0.00000000     0.00000000
 H      1   2   0     1.106144401671   108.54021445     0.00000000
 C      1   2   3     1.494808522252   107.97660176   120.89774898
 H      4   1   2     1.047119855939   121.49904282   299.95782861
 F      4   1   2     1.649885714566   112.67632493   177.51103310
 H      4   1   2     1.285013538073   115.46558618    71.65085454
 H      1   2   3     1.106256594154   108.78286008   242.16981992

---------------------------
INTERNAL COORDINATES (A.U.)
---------------------------
 C      0   0   0     0.000000000000     0.00000000     0.00000000
 H      1   0   0     2.099230512873     0.00000000     0.00000000
 H      1   2   0     2.090309983728   108.54021445     0.00000000
 C      1   2   3     2.824778729708   107.97660176   120.89774898
 H      4   1   2     1.978769757116   121.49904282   299.95782861
 F      4   1   2     3.117832152798   112.67632493   177.51103310
 H      4   1   2     2.428323665340   115.46558618    71.65085454
 H      1   2   3     2.090521996796   108.78286008   242.16981992

---------------------
BASIS SET INFORMATION
---------------------
There are 3 groups of distinct atoms

 Group   1 Type C   : 8s5p1d contracted to 4s3p1d pattern {5111/311/1}
 Group   2 Type H   : 4s1p contracted to 2s1p pattern {31/1}
 Group   3 Type F   : 8s5p1d contracted to 4s3p1d pattern {5111/311/1}

Atom   0C    basis set group =>   1
Atom   1H    basis set group =>   2
Atom   2H    basis set group =>   2
Atom   3C    basis set group =>   1
Atom   4H    basis set group =>   2
Atom   5F    basis set group =>   3
Atom   6H    basis set group =>   2
Atom   7H    basis set group =>   2
---------------------------------
AUXILIARY/J BASIS SET INFORMATION
---------------------------------
There are 3 groups of distinct atoms

 Group   1 Type C   : 12s5p4d2f1g contracted to 6s4p3d1f1g pattern {711111/2111/211/2/1}
 Group   2 Type H   : 5s2p1d contracted to 3s1p1d pattern {311/2/1}
 Group   3 Type F   : 12s5p4d2f1g contracted to 6s4p3d1f1g pattern {711111/2111/211/2/1}

Atom   0C    basis set group =>   1
Atom   1H    basis set group =>   2
Atom   2H    basis set group =>   2
Atom   3C    basis set group =>   1
Atom   4H    basis set group =>   2
Atom   5F    basis set group =>   3
Atom   6H    basis set group =>   2
Atom   7H    basis set group =>   2
================================================================================
                                        WARNINGS
                       Please study these warnings very carefully!
================================================================================


WARNING: Geometry Optimization
  ===> : Switching off AutoStart
         For restart on a previous wavefunction, please use MOREAD

Making redundant internal coordinates   ...  (2022 redundants) done
Evaluating the initial hessian          ...  (Almloef) done
Evaluating the coordinates              ...  done
Calculating the B-matrix                .... done
Calculating the G-matrix                .... done
================================================================================
                                        WARNINGS
                       Please study these warnings very carefully!
================================================================================


WARNING: Geometry Optimization
  ===> : Switching off AutoStart
         For restart on a previous wavefunction, please use MOREAD

Diagonalizing the G-matrix              .... done
The first mode is                       ....    7
The number of degrees of freedom        ....   18

    -----------------------------------------------------------------
                    Redundant Internal Coordinates


    -----------------------------------------------------------------
         Definition                    Initial Value    Approx d2E/dq
    -----------------------------------------------------------------
      1. B(H   1,C   0)                  1.1109         0.333530   
      2. B(H   2,C   0)                  1.1061         0.339364   
      3. B(C   3,C   0)                  1.4948         0.425131   
      4. B(H   4,C   3)                  1.0471         0.421537   
      5. B(F   5,C   3)                  1.6499         0.200141   
      6. B(H   6,C   3)                  1.2850         0.175910   
      7. B(H   7,C   0)                  1.1063         0.339224   
      8. A(H   1,C   0,H   7)          108.7829         0.284705   
      9. A(H   1,C   0,C   3)          107.9766         0.327139   
     10. A(C   3,C   0,H   7)          111.5981         0.328053   
     11. A(H   2,C   0,H   7)          108.4617         0.285474   
     12. A(H   2,C   0,C   3)          111.4048         0.328075   
     13. A(H   1,C   0,H   2)          108.5402         0.284723   
     14. A(C   0,C   3,H   6)          115.4656         0.295036   
     15. A(H   4,C   3,F   5)          102.7482         0.297821   
     16. A(C   0,C   3,F   5)          112.6763         0.330907   
     17. A(F   5,C   3,H   6)           93.5490         0.260344   
     18. A(H   4,C   3,H   6)          106.7011         0.266856   
     19. A(C   0,C   3,H   4)          121.4990         0.340101   
     20. D(H   4,C   3,C   0,H   2)     59.0519         0.014293   
     21. D(H   4,C   3,C   0,H   7)   -179.5487         0.014293   
     22. D(F   5,C   3,C   0,H   1)    177.5110         0.014293   
     23. D(F   5,C   3,C   0,H   2)    -63.3949         0.014293   
     24. D(F   5,C   3,C   0,H   7)     58.0045         0.014293   
     25. D(H   4,C   3,C   0,H   1)    -60.0422         0.014293   
    -----------------------------------------------------------------

Number of atoms                         .... 8
Number of degrees of freedom            .... 25

================================================================================
                                       INPUT FILE
================================================================================
NAME = job.inp
|  1> !pbe ma-def2-SVP SMD(2-methyl-2-propanol) opt SMD(Acetonitrile)  Freq
|  2> %maxcore 3000
|  3> %pal
|  4> nprocs 4
|  5> end
|  6> # MECP_BC
|  7> 
|  8> *xyz 0 1
|  9> C        -3.18487978      -0.14288142      -1.34349167 
| 10> H        -3.17290330       0.96414232      -1.25197160 
| 11> H        -2.25873280      -0.54331577      -0.89021522 
| 12> C        -4.40115023      -0.65094733      -0.63850391 
| 13> H        -4.55397224      -0.47761500       0.38279983 
| 14> F        -4.56901789      -2.28783512      -0.75909281 
| 15> H        -5.51952171      -0.41288137      -1.22487378 
| 16> H        -3.19422030      -0.41149530      -2.41660070 
| 17> *
| 18> 
| 19>                          ****END OF INPUT****
================================================================================

                       *****************************
                       * Geometry Optimization Run *
                       *****************************

Geometry optimization settings:
Update method            Update   .... BFGS
Choice of coordinates    CoordSys .... (2022) Redundant Internals
Initial Hessian          InHess   .... Almloef's Model
Max. no of cycles        MaxIter  .... 50

Convergence Tolerances:
Energy Change            TolE     ....  5.0000e-06 Eh
Max. Gradient            TolMAXG  ....  3.0000e-04 Eh/bohr
RMS Gradient             TolRMSG  ....  1.0000e-04 Eh/bohr
Max. Displacement        TolMAXD  ....  4.0000e-03 bohr
RMS Displacement         TolRMSD  ....  2.0000e-03 bohr
Strict Convergence                .... False

------------------------------------------------------------------------------
                        ORCA OPTIMIZATION COORDINATE SETUP
------------------------------------------------------------------------------

The optimization will be done in redundant internal coordinates (2022)
Making redundant internal coordinates   ...  (2022 redundants) done
Evaluating the initial hessian          ...  (Almloef) done
Evaluating the coordinates              ...  done
Calculating the B-matrix                .... done
Calculating the G-matrix                .... done
Diagonalizing the G-matrix              .... done
The first mode is                       ....    7
The number of degrees of freedom        ....   18

    -----------------------------------------------------------------
                    Redundant Internal Coordinates


    -----------------------------------------------------------------
         Definition                    Initial Value    Approx d2E/dq
    -----------------------------------------------------------------
      1. B(H   1,C   0)                  1.1109         0.333530   
      2. B(H   2,C   0)                  1.1061         0.339364   
      3. B(C   3,C   0)                  1.4948         0.425131   
      4. B(H   4,C   3)                  1.0471         0.421537   
      5. B(F   5,C   3)                  1.6499         0.200141   
      6. B(H   6,C   3)                  1.2850         0.175910   
      7. B(H   7,C   0)                  1.1063         0.339224   
      8. A(H   1,C   0,H   7)          108.7829         0.284705   
      9. A(H   1,C   0,C   3)          107.9766         0.327139   
     10. A(C   3,C   0,H   7)          111.5981         0.328053   
     11. A(H   2,C   0,H   7)          108.4617         0.285474   
     12. A(H   2,C   0,C   3)          111.4048         0.328075   
     13. A(H   1,C   0,H   2)          108.5402         0.284723   
     14. A(C   0,C   3,H   6)          115.4656         0.295036   
     15. A(H   4,C   3,F   5)          102.7482         0.297821   
     16. A(C   0,C   3,F   5)          112.6763         0.330907   
     17. A(F   5,C   3,H   6)           93.5490         0.260344   
     18. A(H   4,C   3,H   6)          106.7011         0.266856   
     19. A(C   0,C   3,H   4)          121.4990         0.340101   
     20. D(H   4,C   3,C   0,H   2)     59.0519         0.014293   
     21. D(H   4,C   3,C   0,H   7)   -179.5487         0.014293   
     22. D(F   5,C   3,C   0,H   1)    177.5110         0.014293   
     23. D(F   5,C   3,C   0,H   2)    -63.3949         0.014293   
     24. D(F   5,C   3,C   0,H   7)     58.0045         0.014293   
     25. D(H   4,C   3,C   0,H   1)    -60.0422         0.014293   
    -----------------------------------------------------------------

Number of atoms                         .... 8
Number of degrees of freedom            .... 25


         *************************************************************
         *                GEOMETRY OPTIMIZATION CYCLE   1            *
         *************************************************************
---------------------------------
CARTESIAN COORDINATES (ANGSTROEM)
---------------------------------
  C     -3.184880   -0.142881   -1.343492
  H     -3.172903    0.964142   -1.251972
  H     -2.258733   -0.543316   -0.890215
  C     -4.401150   -0.650947   -0.638504
  H     -4.553972   -0.477615    0.382800
  F     -4.569018   -2.287835   -0.759093
  H     -5.519522   -0.412881   -1.224874
  H     -3.194220   -0.411495   -2.416601

----------------------------
CARTESIAN COORDINATES (A.U.)
----------------------------
  NO LB      ZA    FRAG     MASS         X           Y           Z
   0 C     6.0000    0    12.011   -6.018551   -0.270007   -2.538831
   1 H     1.0000    0     1.008   -5.995918    1.821965   -2.365883
   2 H     1.0000    0     1.008   -4.268386   -1.026718   -1.682263
   3 C     6.0000    0    12.011   -8.316969   -1.230112   -1.206598
   4 H     1.0000    0     1.008   -8.605760   -0.902562    0.723387
   5 F     9.0000    0    18.998   -8.634193   -4.323382   -1.434478
   6 H     1.0000    0     1.008  -10.430384   -0.780233   -2.314676
   7 H     1.0000    0     1.008   -6.036202   -0.777613   -4.566713

--------------------------------
INTERNAL COORDINATES (ANGSTROEM)
--------------------------------
 C      0   0   0     0.000000000000     0.00000000     0.00000000
 H      1   0   0     1.110864942380     0.00000000     0.00000000
 H      1   2   0     1.106144401671   108.54021445     0.00000000
 C      1   2   3     1.494808522252   107.97660176   120.89774898
 H      4   1   2     1.047119855939   121.49904282   299.95782861
 F      4   1   2     1.649885714566   112.67632493   177.51103310
 H      4   1   2     1.285013538073   115.46558618    71.65085454
 H      1   2   3     1.106256594154   108.78286008   242.16981992

---------------------------
INTERNAL COORDINATES (A.U.)
---------------------------
 C      0   0   0     0.000000000000     0.00000000     0.00000000
 H      1   0   0     2.099230512873     0.00000000     0.00000000
 H      1   2   0     2.090309983728   108.54021445     0.00000000
 C      1   2   3     2.824778729708   107.97660176   120.89774898
 H      4   1   2     1.978769757116   121.49904282   299.95782861
 F      4   1   2     3.117832152798   112.67632493   177.51103310
 H      4   1   2     2.428323665340   115.46558618    71.65085454
 H      1   2   3     2.090521996796   108.78286008   242.16981992

---------------------
BASIS SET INFORMATION
---------------------
There are 3 groups of distinct atoms

 Group   1 Type C   : 8s5p1d contracted to 4s3p1d pattern {5111/311/1}
 Group   2 Type H   : 4s1p contracted to 2s1p pattern {31/1}
 Group   3 Type F   : 8s5p1d contracted to 4s3p1d pattern {5111/311/1}

Atom   0C    basis set group =>   1
Atom   1H    basis set group =>   2
Atom   2H    basis set group =>   2
Atom   3C    basis set group =>   1
Atom   4H    basis set group =>   2
Atom   5F    basis set group =>   3
Atom   6H    basis set group =>   2
Atom   7H    basis set group =>   2
---------------------------------
AUXILIARY/J BASIS SET INFORMATION
---------------------------------
There are 3 groups of distinct atoms

 Group   1 Type C   : 12s5p4d2f1g contracted to 6s4p3d1f1g pattern {711111/2111/211/2/1}
 Group   2 Type H   : 5s2p1d contracted to 3s1p1d pattern {311/2/1}
 Group   3 Type F   : 12s5p4d2f1g contracted to 6s4p3d1f1g pattern {711111/2111/211/2/1}

Atom   0C    basis set group =>   1
Atom   1H    basis set group =>   2
Atom   2H    basis set group =>   2
Atom   3C    basis set group =>   1
Atom   4H    basis set group =>   2
Atom   5F    basis set group =>   3
Atom   6H    basis set group =>   2
Atom   7H    basis set group =>   2


           ************************************************************
           *        Program running with 4 parallel MPI-processes     *
           *              working on a common directory               *
           ************************************************************
------------------------------------------------------------------------------
                             ORCA STARTUP CALCULATIONS
                           -- RI-GTO INTEGRALS CHOSEN --
------------------------------------------------------------------------------
------------------------------------------------------------------------------
                   ___                                                        
                  /   \      - P O W E R E D   B Y -                         
                 /     \                                                     
                 |  |  |   _    _      __       _____    __    __             
                 |  |  |  | |  | |    /  \     |  _  \  |  |  /  |          
                  \  \/   | |  | |   /    \    | | | |  |  | /  /          
                 / \  \   | |__| |  /  /\  \   | |_| |  |  |/  /          
                |  |  |   |  __  | /  /__\  \  |    /   |      \           
                |  |  |   | |  | | |   __   |  |    \   |  |\   \          
                \     /   | |  | | |  |  |  |  | |\  \  |  | \   \       
                 \___/    |_|  |_| |__|  |__|  |_| \__\ |__|  \__/        
                                                                              
                      - O R C A' S   B I G   F R I E N D -                    
                                      &                                       
                       - I N T E G R A L  F E E D E R -                       
                                                                              
 v1 FN, 2020, v2 2021, v3 2022-2024                                           
------------------------------------------------------------------------------




           ************************************************************
           *        Program running with 4 parallel MPI-processes     *
           *              working on a common directory               *
           ************************************************************
------------------------------------------------------------------------------
                             ORCA STARTUP CALCULATIONS
                           -- RI-GTO INTEGRALS CHOSEN --
------------------------------------------------------------------------------
------------------------------------------------------------------------------
                   ___                                                        
                  /   \      - P O W E R E D   B Y -                         
                 /     \                                                     
                 |  |  |   _    _      __       _____    __    __             
                 |  |  |  | |  | |    /  \     |  _  \  |  |  /  |          
                  \  \/   | |  | |   /    \    | | | |  |  | /  /          
                 / \  \   | |__| |  /  /\  \   | |_| |  |  |/  /          
                |  |  |   |  __  | /  /__\  \  |    /   |      \           
                |  |  |   | |  | | |   __   |  |    \   |  |\   \          
                \     /   | |  | | |  |  |  |  | |\  \  |  | \   \       
                 \___/    |_|  |_| |__|  |__|  |_| \__\ |__|  \__/        
                                                                              
                      - O R C A' S   B I G   F R I E N D -                    
                                      &                                       
                       - I N T E G R A L  F E E D E R -                       
                                                                              
 v1 FN, 2020, v2 2021, v3 2022-2024                                           
------------------------------------------------------------------------------


----------------------
SHARK INTEGRAL PACKAGE
----------------------

Number of atoms                             ...      8
Number of basis functions                   ...     79
Number of shells                            ...     39
Maximum angular momentum                    ...      2
Integral batch strategy                     ... SHARK/LIBINT Hybrid
RI-J (if used) integral strategy            ... SPLIT-RIJ (Revised 2003 algorithm where possible)
Printlevel                                  ...      1
Contraction scheme used                     ... SEGMENTED contraction
Prescreening option                         ... SCHWARTZ
   Thresh                                   ... 2.500e-11
   Tcut                                     ... 2.500e-12
   Tpresel                                  ... 2.500e-12 
Coulomb Range Separation                    ... NOT USED
Exchange Range Separation                   ... NOT USED
Multipole approximations                    ... NOT USED
Finite Nucleus Model                        ... NOT USED
CABS basis                                  ... NOT available
Auxiliary Coulomb fitting basis             ... AVAILABLE
   # of basis functions in Aux-J            ...    202
   # of shells in Aux-J                     ...     70
   Maximum angular momentum in Aux-J        ...      4
Auxiliary J/K fitting basis                 ... NOT available
Auxiliary Correlation fitting basis         ... NOT available
Auxiliary 'external' fitting basis          ... NOT available

Checking pre-screening integrals            ... done (  0.0 sec) Dimension = 39
Check shell pair data                       ... done (  0.0 sec)
Shell pair information
Shell pair cut-off parameter TPreSel        ...   2.5e-12
Total number of shell pairs                 ...       780
Shell pairs after pre-screening             ...       778
Total number of primitive shell pairs       ...      2332
Primitive shell pairs kept                  ...      2031
          la=0 lb=0:    252 shell pairs
          la=1 lb=0:    307 shell pairs
          la=1 lb=1:    105 shell pairs
          la=2 lb=0:     66 shell pairs
          la=2 lb=1:     42 shell pairs
          la=2 lb=2:      6 shell pairs

----------------------
SHARK INTEGRAL PACKAGE
----------------------

Number of atoms                             ...      8
Number of basis functions                   ...     79
Number of shells                            ...     39
Maximum angular momentum                    ...      2
Integral batch strategy                     ... SHARK/LIBINT Hybrid
RI-J (if used) integral strategy            ... SPLIT-RIJ (Revised 2003 algorithm where possible)
Printlevel                                  ...      1
Contraction scheme used                     ... SEGMENTED contraction
Prescreening option                         ... SCHWARTZ
   Thresh                                   ... 2.500e-11
   Tcut                                     ... 2.500e-12
   Tpresel                                  ... 2.500e-12 
Coulomb Range Separation                    ... NOT USED
Exchange Range Separation                   ... NOT USED
Multipole approximations                    ... NOT USED
Finite Nucleus Model                        ... NOT USED
CABS basis                                  ... NOT available
Auxiliary Coulomb fitting basis             ... AVAILABLE
   # of basis functions in Aux-J            ...    202
   # of shells in Aux-J                     ...     70
   Maximum angular momentum in Aux-J        ...      4
Auxiliary J/K fitting basis                 ... NOT available
Auxiliary Correlation fitting basis         ... NOT available
Auxiliary 'external' fitting basis          ... NOT available

Checking pre-screening integrals            ... done (  0.0 sec) Dimension = 39
Calculating one electron integrals          ... done (  0.0 sec)
Check shell pair data                       ... done (  0.0 sec)
Shell pair information
Shell pair cut-off parameter TPreSel        ...   2.5e-12
Total number of shell pairs                 ...       780
Shell pairs after pre-screening             ...       778
Total number of primitive shell pairs       ...      2332
Primitive shell pairs kept                  ...      2031
          la=0 lb=0:    252 shell pairs
          la=1 lb=0:    307 shell pairs
          la=1 lb=1:    105 shell pairs
          la=2 lb=0:     66 shell pairs
          la=2 lb=1:     42 shell pairs
          la=2 lb=2:      6 shell pairs

Calculating one electron integrals          ... done (  0.0 sec)
Calculating RI/J V-Matrix + Cholesky decomp.... done (  0.0 sec)
Calculating Nuclear repulsion               ... done (  0.0 sec) ENN=     73.667882393909 Eh

Diagonalization of the overlap matrix:
Smallest eigenvalue                        ... 4.130e-04
Time for diagonalization                   ...    0.001 sec
Threshold for overlap eigenvalues          ... 1.000e-07
Number of eigenvalues below threshold      ... 0
Time for construction of square roots      ...    0.010 sec
Total time needed                          ...    0.013 sec
Calculating RI/J V-Matrix + Cholesky decomp.... done (  0.0 sec)
Calculating Nuclear repulsion               ... done (  0.0 sec) ENN=     73.667882393909 Eh

Diagonalization of the overlap matrix:
Smallest eigenvalue                        ... 4.130e-04
Time for diagonalization                   ...    0.001 sec
Threshold for overlap eigenvalues          ... 1.000e-07
Number of eigenvalues below threshold      ... 0


           ************************************************************
           *        Program running with 4 parallel MPI-processes     *
           *              working on a common directory               *
           ************************************************************
------------------------------------------------------------------------------
                             ORCA STARTUP CALCULATIONS
                           -- RI-GTO INTEGRALS CHOSEN --
------------------------------------------------------------------------------
------------------------------------------------------------------------------
                   ___                                                        
                  /   \      - P O W E R E D   B Y -                         
                 /     \                                                     
                 |  |  |   _    _      __       _____    __    __             
                 |  |  |  | |  | |    /  \     |  _  \  |  |  /  |          
                  \  \/   | |  | |   /    \    | | | |  |  | /  /          
                 / \  \   | |__| |  /  /\  \   | |_| |  |  |/  /          
                |  |  |   |  __  | /  /__\  \  |    /   |      \           
                |  |  |   | |  | | |   __   |  |    \   |  |\   \          
                \     /   | |  | | |  |  |  |  | |\  \  |  | \   \       
                 \___/    |_|  |_| |__|  |__|  |_| \__\ |__|  \__/        
                                                                              
                      - O R C A' S   B I G   F R I E N D -                    
                                      &                                       
                       - I N T E G R A L  F E E D E R -                       
                                                                              
 v1 FN, 2020, v2 2021, v3 2022-2024                                           
------------------------------------------------------------------------------



-------------------
DFT GRID GENERATION
-------------------

General Integration Accuracy     IntAcc      ... 4.388
Radial Grid Type                 RadialGrid  ... OptM3 with GC (2021)
Angular Grid (max. ang.)         AngularGrid ... 4 (Lebedev-302)
Angular grid pruning method      GridPruning ... 4 (adaptive)
Weight generation scheme         WeightScheme... mBecke (2022)
Basis function cutoff            BFCut       ... 1.0000e-11
Integration weight cutoff        WCut        ... 1.0000e-14
Partially contracted basis set               ... off
Rotationally invariant grid construction     ... off
Angular grids for H and He will be reduced by one unit
Diffuse basis detected: some atoms will have their outermost
                        angular grid increased by 1.

Time for construction of square roots      ...    0.012 sec
Total time needed                          ...    0.014 sec

-------------------
DFT GRID GENERATION
-------------------

General Integration Accuracy     IntAcc      ... 4.388
Radial Grid Type                 RadialGrid  ... OptM3 with GC (2021)
Angular Grid (max. ang.)         AngularGrid ... 4 (Lebedev-302)
Angular grid pruning method      GridPruning ... 4 (adaptive)
Weight generation scheme         WeightScheme... mBecke (2022)
Basis function cutoff            BFCut       ... 1.0000e-11
Integration weight cutoff        WCut        ... 1.0000e-14
Partially contracted basis set               ... off
Rotationally invariant grid construction     ... off
Angular grids for H and He will be reduced by one unit
Diffuse basis detected: some atoms will have their outermost
                        angular grid increased by 1.



           ************************************************************
           *        Program running with 4 parallel MPI-processes     *
           *              working on a common directory               *
           ************************************************************
----------------------
SHARK INTEGRAL PACKAGE
----------------------

Number of atoms                             ...      8
Number of basis functions                   ...     79
Number of shells                            ...     39
Maximum angular momentum                    ...      2
Integral batch strategy                     ... SHARK/LIBINT Hybrid
RI-J (if used) integral strategy            ... SPLIT-RIJ (Revised 2003 algorithm where possible)
Printlevel                                  ...      1
Contraction scheme used                     ... SEGMENTED contraction
Prescreening option                         ... SCHWARTZ
   Thresh                                   ... 2.500e-11
   Tcut                                     ... 2.500e-12
   Tpresel                                  ... 2.500e-12 
Coulomb Range Separation                    ... NOT USED
Exchange Range Separation                   ... NOT USED
Multipole approximations                    ... NOT USED
Finite Nucleus Model                        ... NOT USED
CABS basis                                  ... NOT available
Auxiliary Coulomb fitting basis             ... AVAILABLE
   # of basis functions in Aux-J            ...    202
   # of shells in Aux-J                     ...     70
   Maximum angular momentum in Aux-J        ...      4
Auxiliary J/K fitting basis                 ... NOT available
Auxiliary Correlation fitting basis         ... NOT available
Auxiliary 'external' fitting basis          ... NOT available

Checking pre-screening integrals            ... done (  0.0 sec) Dimension = 39
Check shell pair data                       ... done (  0.0 sec)
Shell pair information
Shell pair cut-off parameter TPreSel        ...   2.5e-12
Total number of shell pairs                 ...       780
Shell pairs after pre-screening             ...       778
Total number of primitive shell pairs       ...      2332
Primitive shell pairs kept                  ...      2031
          la=0 lb=0:    252 shell pairs
          la=1 lb=0:    307 shell pairs
          la=1 lb=1:    105 shell pairs
          la=2 lb=0:     66 shell pairs
          la=2 lb=1:     42 shell pairs
          la=2 lb=2:      6 shell pairs

Calculating one electron integrals          ... done (  0.0 sec)
------------------------------------------------------------------------------
                             ORCA STARTUP CALCULATIONS
                           -- RI-GTO INTEGRALS CHOSEN --
------------------------------------------------------------------------------
Calculating RI/J V-Matrix + Cholesky decomp.... done (  0.0 sec)
Calculating Nuclear repulsion               ... done (  0.0 sec) ENN=     73.667882393909 Eh

Diagonalization of the overlap matrix:
Smallest eigenvalue                        ... 4.130e-04
Time for diagonalization                   ...    0.001 sec
Threshold for overlap eigenvalues          ... 1.000e-07
Number of eigenvalues below threshold      ... 0
Time for construction of square roots      ...    0.002 sec
Total time needed                          ...    0.016 sec

-------------------
DFT GRID GENERATION
-------------------

General Integration Accuracy     IntAcc      ... 4.388
Radial Grid Type                 RadialGrid  ... OptM3 with GC (2021)
Angular Grid (max. ang.)         AngularGrid ... 4 (Lebedev-302)
Angular grid pruning method      GridPruning ... 4 (adaptive)
Weight generation scheme         WeightScheme... mBecke (2022)
Basis function cutoff            BFCut       ... 1.0000e-11
Integration weight cutoff        WCut        ... 1.0000e-14
Partially contracted basis set               ... off
Rotationally invariant grid construction     ... off
Angular grids for H and He will be reduced by one unit
Diffuse basis detected: some atoms will have their outermost
                        angular grid increased by 1.



           ************************************************************
           *        Program running with 4 parallel MPI-processes     *
           *              working on a common directory               *
           ************************************************************
------------------------------------------------------------------------------
                   ___                                                        
                  /   \      - P O W E R E D   B Y -                         
                 /     \                                                     
                 |  |  |   _    _      __       _____    __    __             
                 |  |  |  | |  | |    /  \     |  _  \  |  |  /  |          
                  \  \/   | |  | |   /    \    | | | |  |  | /  /          
                 / \  \   | |__| |  /  /\  \   | |_| |  |  |/  /          
                |  |  |   |  __  | /  /__\  \  |    /   |      \           
                |  |  |   | |  | | |   __   |  |    \   |  |\   \          
                \     /   | |  | | |  |  |  |  | |\  \  |  | \   \       
                 \___/    |_|  |_| |__|  |__|  |_| \__\ |__|  \__/        
                                                                              
                      - O R C A' S   B I G   F R I E N D -                    
                                      &                                       
                       - I N T E G R A L  F E E D E R -                       
                                                                              
 v1 FN, 2020, v2 2021, v3 2022-2024                                           
------------------------------------------------------------------------------


------------------------------------------------------------------------------
                             ORCA STARTUP CALCULATIONS
                           -- RI-GTO INTEGRALS CHOSEN --
------------------------------------------------------------------------------
Total number of grid points                  ...    35488
Total number of batches                      ...      557
Average number of points per batch           ...       63
Average number of grid points per atom       ...     4436
Initializing property integral containers    ... done (  0.0 sec)

SHARK setup successfully completed in   0.4 seconds

Maximum memory used throughout the entire STARTUP-calculation: 11.7 MB
------------------------------------------------------------------------------
                   ___                                                        
                  /   \      - P O W E R E D   B Y -                         
                 /     \                                                     
                 |  |  |   _    _      __       _____    __    __             
                 |  |  |  | |  | |    /  \     |  _  \  |  |  /  |          
                  \  \/   | |  | |   /    \    | | | |  |  | /  /          
                 / \  \   | |__| |  /  /\  \   | |_| |  |  |/  /          
                |  |  |   |  __  | /  /__\  \  |    /   |      \           
                |  |  |   | |  | | |   __   |  |    \   |  |\   \          
                \     /   | |  | | |  |  |  |  | |\  \  |  | \   \       
                 \___/    |_|  |_| |__|  |__|  |_| \__\ |__|  \__/        
                                                                              
                      - O R C A' S   B I G   F R I E N D -                    
                                      &                                       
                       - I N T E G R A L  F E E D E R -                       
                                                                              
 v1 FN, 2020, v2 2021, v3 2022-2024                                           
------------------------------------------------------------------------------


----------------------
SHARK INTEGRAL PACKAGE
----------------------

Number of atoms                             ...      8
Number of basis functions                   ...     79
Number of shells                            ...     39
Maximum angular momentum                    ...      2
Integral batch strategy                     ... SHARK/LIBINT Hybrid
RI-J (if used) integral strategy            ... SPLIT-RIJ (Revised 2003 algorithm where possible)
Printlevel                                  ...      1
Contraction scheme used                     ... SEGMENTED contraction
Prescreening option                         ... SCHWARTZ
   Thresh                                   ... 2.500e-11
   Tcut                                     ... 2.500e-12
   Tpresel                                  ... 2.500e-12 
Coulomb Range Separation                    ... NOT USED
Exchange Range Separation                   ... NOT USED
Multipole approximations                    ... NOT USED
Finite Nucleus Model                        ... NOT USED
CABS basis                                  ... NOT available
Auxiliary Coulomb fitting basis             ... AVAILABLE
   # of basis functions in Aux-J            ...    202
   # of shells in Aux-J                     ...     70
   Maximum angular momentum in Aux-J        ...      4
Auxiliary J/K fitting basis                 ... NOT available
Auxiliary Correlation fitting basis         ... NOT available
Auxiliary 'external' fitting basis          ... NOT available

Checking pre-screening integrals            ... done (  0.0 sec) Dimension = 39
Check shell pair data                       ... done (  0.0 sec)
Shell pair information
Shell pair cut-off parameter TPreSel        ...   2.5e-12
Total number of shell pairs                 ...       780
Shell pairs after pre-screening             ...       778
Total number of primitive shell pairs       ...      2332
Primitive shell pairs kept                  ...      2031
          la=0 lb=0:    252 shell pairs
          la=1 lb=0:    307 shell pairs
          la=1 lb=1:    105 shell pairs
          la=2 lb=0:     66 shell pairs
          la=2 lb=1:     42 shell pairs
          la=2 lb=2:      6 shell pairs

Calculating one electron integrals          ... done (  0.0 sec)
Calculating RI/J V-Matrix + Cholesky decomp.... done (  0.0 sec)
Calculating Nuclear repulsion               ... done (  0.0 sec) ENN=     73.667882393909 Eh

Diagonalization of the overlap matrix:
Smallest eigenvalue                        ... 4.130e-04
Time for diagonalization                   ...    0.001 sec
Threshold for overlap eigenvalues          ... 1.000e-07
Number of eigenvalues below threshold      ... 0
Time for construction of square roots      ...    0.015 sec
Total time needed                          ...    0.017 sec

-------------------
DFT GRID GENERATION
-------------------

General Integration Accuracy     IntAcc      ... 4.388
Radial Grid Type                 RadialGrid  ... OptM3 with GC (2021)
Angular Grid (max. ang.)         AngularGrid ... 4 (Lebedev-302)
Angular grid pruning method      GridPruning ... 4 (adaptive)
Weight generation scheme         WeightScheme... mBecke (2022)
Basis function cutoff            BFCut       ... 1.0000e-11
Integration weight cutoff        WCut        ... 1.0000e-14
Partially contracted basis set               ... off
Rotationally invariant grid construction     ... off
Angular grids for H and He will be reduced by one unit
Diffuse basis detected: some atoms will have their outermost
                        angular grid increased by 1.

----------------------
SHARK INTEGRAL PACKAGE
----------------------

Number of atoms                             ...      8
Number of basis functions                   ...     79
Number of shells                            ...     39
Maximum angular momentum                    ...      2
Integral batch strategy                     ... SHARK/LIBINT Hybrid
RI-J (if used) integral strategy            ... SPLIT-RIJ (Revised 2003 algorithm where possible)
Printlevel                                  ...      1
Contraction scheme used                     ... SEGMENTED contraction
Prescreening option                         ... SCHWARTZ
   Thresh                                   ... 2.500e-11
   Tcut                                     ... 2.500e-12
   Tpresel                                  ... 2.500e-12 
Coulomb Range Separation                    ... NOT USED
Exchange Range Separation                   ... NOT USED
Multipole approximations                    ... NOT USED
Finite Nucleus Model                        ... NOT USED
CABS basis                                  ... NOT available
Auxiliary Coulomb fitting basis             ... AVAILABLE
   # of basis functions in Aux-J            ...    202
   # of shells in Aux-J                     ...     70
   Maximum angular momentum in Aux-J        ...      4
Auxiliary J/K fitting basis                 ... NOT available
Auxiliary Correlation fitting basis         ... NOT available
Auxiliary 'external' fitting basis          ... NOT available

Checking pre-screening integrals            ... done (  0.0 sec) Dimension = 39
Check shell pair data                       ... done (  0.0 sec)
Shell pair information
Shell pair cut-off parameter TPreSel        ...   2.5e-12
Total number of shell pairs                 ...       780
Shell pairs after pre-screening             ...       778
Total number of primitive shell pairs       ...      2332
Primitive shell pairs kept                  ...      2031
          la=0 lb=0:    252 shell pairs
          la=1 lb=0:    307 shell pairs
          la=1 lb=1:    105 shell pairs
          la=2 lb=0:     66 shell pairs
          la=2 lb=1:     42 shell pairs
          la=2 lb=2:      6 shell pairs

Calculating one electron integrals          ... done (  0.0 sec)
Calculating RI/J V-Matrix + Cholesky decomp.... done (  0.0 sec)
Calculating Nuclear repulsion               ... done (  0.0 sec) ENN=     73.667882393909 Eh

Diagonalization of the overlap matrix:
Smallest eigenvalue                        ... 4.130e-04
Time for diagonalization                   ...    0.001 sec
Threshold for overlap eigenvalues          ... 1.000e-07
Number of eigenvalues below threshold      ... 0
Time for construction of square roots      ...    0.003 sec
Total time needed                          ...    0.005 sec

-------------------
DFT GRID GENERATION
-------------------

General Integration Accuracy     IntAcc      ... 4.388
Radial Grid Type                 RadialGrid  ... OptM3 with GC (2021)
Angular Grid (max. ang.)         AngularGrid ... 4 (Lebedev-302)
Angular grid pruning method      GridPruning ... 4 (adaptive)
Weight generation scheme         WeightScheme... mBecke (2022)
Basis function cutoff            BFCut       ... 1.0000e-11
Integration weight cutoff        WCut        ... 1.0000e-14
Partially contracted basis set               ... off
Rotationally invariant grid construction     ... off
Angular grids for H and He will be reduced by one unit
Diffuse basis detected: some atoms will have their outermost
                        angular grid increased by 1.


ORCA finished by error termination in Startup
Calling Command: mpirun -np 4  /mnt/home/soft/orca/programs/x86_64/orca_6_0_0_avx2/orca_startup_mpi job.int.tmp job 
[file orca_tools/qcmsg.cpp, line 394]: 
  .... aborting the run

Total number of grid points                  ...    35488
Total number of batches                      ...      557
Average number of points per batch           ...       63
Average number of grid points per atom       ...     4436
Initializing property integral containers    ... done (  0.0 sec)

SHARK setup successfully completed in   0.5 seconds

Maximum memory used throughout the entire STARTUP-calculation: 11.7 MB

ORCA finished by error termination in Startup
Calling Command: mpirun -np 4  /mnt/home/soft/orca/programs/x86_64/orca_6_0_0_avx2/orca_startup_mpi job.int.tmp job 
[file orca_tools/qcmsg.cpp, line 394]: 
  .... aborting the run



           ************************************************************
           *        Program running with 4 parallel MPI-processes     *
           *              working on a common directory               *
           ************************************************************
-------------------------------------------------------------------------------
                                 ORCA GUESS
                   Start orbitals & Density for SCF / CASSCF
-------------------------------------------------------------------------------

------------
SCF SETTINGS
------------
Hamiltonian:
 Density Functional     Method          .... DFT(GTOs)
 Exchange Functional    Exchange        .... PBE
   PBE kappa parameter   XKappa         ....  0.804000
   PBE mue parameter    XMuePBE         ....  0.219520
 Correlation Functional Correlation     .... PBE
   PBE beta parameter  CBetaPBE         ....  0.066725
 LDA part of GGA corr.  LDAOpt          .... PW91-LDA
 Gradients option       PostSCFGGA      .... off
   NL short-range parameter             ....  6.400000
 RI-approximation to the Coulomb term is turned on
   Number of AuxJ basis functions       .... 202


General Settings:
 Integral files         IntName         .... job
 Hartree-Fock type      HFTyp           .... RHF
 Total Charge           Charge          ....    0
 Multiplicity           Mult            ....    1
 Number of Electrons    NEL             ....   26
 Basis Dimension        Dim             ....   79
 Nuclear Repulsion      ENuc            ....     73.6678823939 Eh

Convergence Acceleration:
 AO-DIIS                CNVDIIS         .... on
   Start iteration      DIISMaxIt       ....    12
   Startup error        DIISStart       ....  0.200000
   # of expansion vecs  DIISMaxEq       ....     5
   Bias factor          DIISBfac        ....   1.050
   Max. coefficient     DIISMaxC        ....  10.000
 MO-DIIS                CNVKDIIS        .... off
 Trust-Rad. Augm. Hess. CNVTRAH         .... auto
   Auto Start mean grad. ratio tolernc. ....  1.125000
   Auto Start start iteration           ....    50
   Auto Start num. interpolation iter.  ....    10
   Max. Number of Micro iterations      ....    24
   Max. Number of Macro iterations      .... Maxiter - #DIIS iter
   Number of Davidson start vectors     ....     2
   Converg. threshold    (grad. norm)   ....   1.000e-05
   Grad. Scal. Fac. for Micro threshold ....   0.100
   Minimum threshold for Micro iter.    ....   1.000e-02
   NR start threshold (gradient norm)   ....   1.000e-04
   Initial trust radius                 ....   0.400
   Minimum AH scaling param. (alpha)    ....   1.000
   Maximum AH scaling param. (alpha)    .... 1000.000
   Quad. conv. algorithm                .... NR
   White noise on init. David. guess    .... on
   Maximum white noise                  ....   0.010
   Pseudo random numbers                .... off
   Inactive MOs                         .... canonical
   Orbital update algorithm             .... Taylor
   Preconditioner                       .... Diag
   Full preconditioner red. dimension   ....   250
 SOSCF                  CNVSOSCF        .... on
   Start iteration      SOSCFMaxIt      ....   150
   Startup grad/error   SOSCFStart      ....  0.003300
   Hessian update       SOSCFHessUp     .... L-BFGS
 Level Shifting         CNVShift        .... on
   Level shift para.    LevelShift      ....    0.2500
   Turn off err/grad.   ShiftErr        ....    0.0010
 Zerner damping         CNVZerner       .... off
 Static damping         CNVDamp         .... on
   Fraction old density DampFac         ....    0.7000
   Max. Damping (<1)    DampMax         ....    0.9800
   Min. Damping (>=0)   DampMin         ....    0.0000
   Turn off err/grad.   DampErr         ....    0.1000

SCF Procedure:
 Maximum # iterations   MaxIter         ....   125
 SCF integral mode      SCFMode         .... Direct
   Integral package                     .... SHARK and LIBINT hybrid scheme
 Reset frequency        DirectResetFreq ....    20
 Integral Threshold     Thresh          ....  2.500e-11 Eh
 Primitive CutOff       TCut            ....  2.500e-12 Eh

Convergence Tolerance:
 Convergence Check Mode ConvCheckMode   .... Total+1el-Energy
 Convergence forced     ConvForced      .... 0
 Energy Change          TolE            ....  1.000e-08 Eh
 1-El. energy change                    ....  1.000e-05 Eh
 Orbital Gradient       TolG            ....  1.000e-05
 Orbital Rotation angle TolX            ....  1.000e-05
 DIIS Error             TolErr          ....  5.000e-07

------------------------------
INITIAL GUESS: MODEL POTENTIAL
------------------------------
Loading Hartree-Fock densities                     ... done
Calculating cut-offs                               ... done
Initializing the effective Hamiltonian             ... done
Setting up the integral package (SHARK)            ... done
Starting the Coulomb interaction                   ... done (   0.0 sec)
Making the grid                                    ... done (   0.1 sec)
Mapping shells                                     ... done
Starting the XC term evaluation                    ... done (   0.0 sec)
  promolecular density results
     # of electrons  =     25.998292803
     EX              =    -21.592240707
     EC              =     -0.833366711
     EX+EC           =    -22.425607418
Transforming the Hamiltonian                       ... done (   0.0 sec)
Diagonalizing the Hamiltonian                      ... done (   0.0 sec)
Back transforming the eigenvectors                 ... done (   0.0 sec)
Now organizing SCF variables                       ... done
                      ------------------
                      INITIAL GUESS DONE (   0.1 sec)
                      ------------------
             **** ENERGY FILE WAS UPDATED (job.en.tmp) ****
Finished Guess after   0.4 sec
Maximum memory used throughout the entire GUESS-calculation: 6.9 MB


           ************************************************************
           *        Program running with 4 parallel MPI-processes     *
           *              working on a common directory               *
           ************************************************************
-------------------------------------------------------------------------------
                                 ORCA GUESS
                   Start orbitals & Density for SCF / CASSCF
-------------------------------------------------------------------------------


ORCA finished by error termination in Startup
Calling Command: mpirun -np 4  /mnt/home/soft/orca/programs/x86_64/orca_6_0_0_avx2/orca_startup_mpi job.int.tmp job 
[file orca_tools/qcmsg.cpp, line 394]: 
  .... aborting the run



           ************************************************************
           *        Program running with 4 parallel MPI-processes     *
           *              working on a common directory               *
           ************************************************************

-------------------------------------------------------------------------------------------
                                      ORCA LEAN-SCF
                              memory conserving SCF solver
-------------------------------------------------------------------------------------------

--------------------
CPCM SOLVATION MODEL
--------------------
CPCM parameters:
  Epsilon                                         ...      35.6880
  Refrac                                          ...       1.3442
  Rsolv                                           ...       1.3000
  Surface type                                    ... GAUSSIAN VDW
  Discretization scheme                           ... Constant charge density
    Threshold for H atoms                         ...       5.0000 (charges/Ang^2)
    Threshold for non-H atoms                     ...       5.0000 (charges/Ang^2)
  Epsilon function type                           ...         CPCM
Solvent:                                          ... ACETONITRILE
SMD-CDS solvent descriptors:
  Soln                                            ...       1.3442
  Soln25                                          ...       1.3416
  Sola                                            ...       0.0700
  Solb                                            ...       0.3200
  Solg                                            ...      41.2500
  Solc                                            ...       0.0000
  Solh                                            ...       0.0000
Radii:
  Scheme                                          ... Element-dependent radii
  Radius for C  used is    3.4960 Bohr (=   1.8500 Ang.)
  Radius for H  used is    2.2677 Bohr (=   1.2000 Ang.)
  Radius for F  used is    3.2692 Bohr (=   1.7300 Ang.)
Calculating surface                               ...        done! (  0.0s)
Cavity surface points                             ...          697
Cavity Volume                                     ...     413.2002
Cavity Surface-area                               ...     304.3755
Calculating surface distance matrix               ...        done! (  0.0s)
Performing Cholesky decomposition & store         ...        done! (  0.0s)
Overall time for CPCM initialization              ...                 0.0s

----------------------------------------D-I-I-S--------------------------------------------
Iteration    Energy (Eh)           Delta-E    RMSDP     MaxDP     DIISErr   Damp  Time(sec)
-------------------------------------------------------------------------------------------
               ***  Starting incremental Fock matrix formation  ***
    1    -178.6423118799758072     0.00e+00  3.06e-03  6.95e-02  1.39e-01  0.700   0.2
    2    -178.6698828574786262    -2.76e-02  1.95e-03  4.00e-02  6.73e-02  0.700   0.2
                               ***Turning on AO-DIIS***
    3    -178.6794067496342677    -9.52e-03  7.79e-04  9.23e-03  2.00e-02  0.700   0.1
    4    -178.6852868389904643    -5.88e-03  1.29e-03  1.44e-02  8.11e-03  0.000   0.1

ORCA finished by error termination in GUESS
Calling Command: mpirun -np 4  /mnt/home/soft/orca/programs/x86_64/orca_6_0_0_avx2/orca_guess_mpi job.gbw job 
[file orca_tools/qcmsg.cpp, line 394]: 
  .... aborting the run

    5    -178.6984894259219345    -1.32e-02  2.84e-04  2.95e-03  4.05e-03  0.000   0.1
                              *** Initializing SOSCF ***
---------------------------------------S-O-S-C-F--------------------------------------
Iteration    Energy (Eh)           Delta-E    RMSDP     MaxDP     MaxGrad    Time(sec)
--------------------------------------------------------------------------------------
    6    -178.6985710588087954    -8.16e-05  9.48e-05  9.64e-04  1.46e-03     0.2
               *** Restarting incremental Fock matrix formation ***
    7    -178.6985784013471061    -7.34e-06  7.76e-05  8.09e-04  1.83e-04     0.1
    8    -178.6985780329799809     3.68e-07  2.90e-05  5.05e-04  2.77e-04     0.1
    9    -178.6985793683854240    -1.34e-06  2.02e-05  3.41e-04  7.46e-05     0.1
   10    -178.6985791616838810     2.07e-07  1.30e-05  2.51e-04  1.37e-04     0.1
   11    -178.6985794569908990    -2.95e-07  2.25e-06  2.48e-05  6.83e-06     0.1
   12    -178.6985794576184503    -6.28e-10  8.29e-07  7.97e-06  4.34e-06     0.1
                 **** Energy Check signals convergence ****

               *****************************************************
               *                     SUCCESS                       *
               *           SCF CONVERGED AFTER  12 CYCLES          *
               *****************************************************


SMD CDS free energy correction energy :                 0.13018     Kcal/mol
Total Energy after SMD CDS correction =              -178.698372010 Eh
             **** ENERGY FILE WAS UPDATED (job.en.tmp) ****

----------------
TOTAL SCF ENERGY
----------------

Total Energy       :       -178.69837201047153 Eh           -4862.62991 eV

Components:
Nuclear Repulsion  :         73.66788239390904 Eh            2004.60499 eV
Electronic Energy  :       -252.35262499748083 Eh           -6866.86403 eV
One Electron Energy:       -390.80082666532428 Eh          -10634.23113 eV
Two Electron Energy:        138.44820166784345 Eh            3767.36710 eV
CPCM Dielectric    :         -0.01383685404664 Eh              -0.37652 eV
SMD CDS (Gcds)     :          0.00020744714692 Eh               0.00564 eV

Virial components:
Potential Energy   :       -355.48769038588716 Eh           -9673.31184 eV
Kinetic Energy     :        176.78931837541566 Eh            4810.68192 eV
Virial Ratio       :          2.01079846708273

DFT components:
N(Alpha)           :       13.000032989207 electrons
N(Beta)            :       13.000032989207 electrons
N(Total)           :       26.000065978414 electrons
E(X)               :      -21.932152612561 Eh       
E(C)               :       -0.841657801652 Eh       
E(XC)              :      -22.773810414213 Eh       

CPCM Solvation Model Properties:
Surface-charge          :         -0.02891556475924
Corrected charge        :          0.00000000000000
Outlying charge corr.   :          0.00008429111769 Eh               0.00229 eV
Free-energy (cav+disp)  :          0.00020744714692 Eh               0.00564 eV

---------------
SCF CONVERGENCE
---------------

  Last Energy change         ...    6.2755e-10  Tolerance :   1.0000e-08
  Last MAX-Density change    ...    7.9683e-06  Tolerance :   1.0000e-07
  Last RMS-Density change    ...    8.2922e-07  Tolerance :   5.0000e-09
  Last DIIS Error            ...    1.4614e-03  Tolerance :   5.0000e-07
  Last Orbital Gradient      ...    4.3381e-06  Tolerance :   1.0000e-05
  Last Orbital Rotation      ...    5.9730e-06  Tolerance :   1.0000e-05


----------------
ORBITAL ENERGIES
----------------

  NO   OCC          E(Eh)            E(eV) 
   0   2.0000     -24.231665      -659.3771 
   1   2.0000      -9.987104      -271.7629 
   2   2.0000      -9.904940      -269.5271 
   3   2.0000      -1.001456       -27.2510 
   4   2.0000      -0.688939       -18.7470 
   5   2.0000      -0.550221       -14.9723 
   6   2.0000      -0.416321       -11.3287 
   7   2.0000      -0.399444       -10.8694 
   8   2.0000      -0.378927       -10.3111 
   9   2.0000      -0.339871        -9.2483 
  10   2.0000      -0.328712        -8.9447 
  11   2.0000      -0.298590        -8.1250 
  12   2.0000      -0.275380        -7.4935 
  13   0.0000      -0.040913        -1.1133 
  14   0.0000       0.004877         0.1327 
  15   0.0000       0.024982         0.6798 
  16   0.0000       0.046142         1.2556 
  17   0.0000       0.056960         1.5500 
  18   0.0000       0.084125         2.2892 
  19   0.0000       0.091002         2.4763 
  20   0.0000       0.104012         2.8303 
  21   0.0000       0.115569         3.1448 
  22   0.0000       0.137475         3.7409 
  23   0.0000       0.144963         3.9446 
*Only the first 10 virtual orbitals were printed.

                    ********************************
                    * MULLIKEN POPULATION ANALYSIS *
                    ********************************

-----------------------
MULLIKEN ATOMIC CHARGES
-----------------------
   0 C :   -0.238261
   1 H :    0.148721
   2 H :    0.130860
   3 C :   -0.033761
   4 H :    0.138965
   5 F :   -0.436870
   6 H :    0.159628
   7 H :    0.130718
Sum of atomic charges:    0.0000000

--------------------------------
MULLIKEN REDUCED ORBITAL CHARGES
--------------------------------
  0 C s       :     3.101381  s :     3.101381
      pz      :     1.063175  p :     3.114102
      px      :     0.980587
      py      :     1.070339
      dz2     :     0.006528  d :     0.022778
      dxz     :     0.005155
      dyz     :     0.002034
      dx2y2   :     0.006039
      dxy     :     0.003022

  1 H s       :     0.827645  s :     0.827645
      pz      :     0.005104  p :     0.023633
      px      :     0.004692
      py      :     0.013838

  2 H s       :     0.846120  s :     0.846120
      pz      :     0.006256  p :     0.023020
      px      :     0.010673
      py      :     0.006090

  3 C s       :     3.248244  s :     3.248244
      pz      :     1.134571  p :     2.747259
      px      :     1.060255
      py      :     0.552433
      dz2     :     0.010375  d :     0.038258
      dxz     :     0.004972
      dyz     :     0.004719
      dx2y2   :     0.011432
      dxy     :     0.006760

  4 H s       :     0.837576  s :     0.837576
      pz      :     0.014958  p :     0.023459
      px      :     0.005343
      py      :     0.003158

  5 F s       :     3.973516  s :     3.973516
      pz      :     1.968208  p :     5.460760
      px      :     1.962881
      py      :     1.529671
      dz2     :     0.000405  d :     0.002594
      dxz     :     0.000008
      dyz     :     0.000502
      dx2y2   :     0.001149
      dxy     :     0.000530

  6 H s       :     0.824915  s :     0.824915
      pz      :     0.004624  p :     0.015457
      px      :     0.008737
      py      :     0.002096

  7 H s       :     0.846568  s :     0.846568
      pz      :     0.013050  p :     0.022714
      px      :     0.004292
      py      :     0.005373



                     *******************************
                     * LOEWDIN POPULATION ANALYSIS *
                     *******************************

----------------------
LOEWDIN ATOMIC CHARGES
----------------------
   0 C :   -0.220349
   1 H :    0.126742
   2 H :    0.106244
   3 C :    0.114550
   4 H :    0.088327
   5 F :   -0.467994
   6 H :    0.145881
   7 H :    0.106598

-------------------------------
LOEWDIN REDUCED ORBITAL CHARGES
-------------------------------
  0 C s       :     2.884885  s :     2.884885
      pz      :     1.103858  p :     3.271122
      px      :     1.078035
      py      :     1.089229
      dz2     :     0.017828  d :     0.064342
      dxz     :     0.014757
      dyz     :     0.005384
      dx2y2   :     0.017463
      dxy     :     0.008909

  1 H s       :     0.806816  s :     0.806816
      pz      :     0.012073  p :     0.066442
      px      :     0.011624
      py      :     0.042745

  2 H s       :     0.827614  s :     0.827614
      pz      :     0.016992  p :     0.066142
      px      :     0.033442
      py      :     0.015708

  3 C s       :     2.942680  s :     2.942680
      pz      :     1.132919  p :     2.858801
      px      :     1.103528
      py      :     0.622354
      dz2     :     0.023268  d :     0.083968
      dxz     :     0.013764
      dyz     :     0.009271
      dx2y2   :     0.024283
      dxy     :     0.013383

  4 H s       :     0.833897  s :     0.833897
      pz      :     0.051673  p :     0.077777
      px      :     0.016508
      py      :     0.009595

  5 F s       :     3.874230  s :     3.874230
      pz      :     1.982779  p :     5.590093
      px      :     1.976619
      py      :     1.630696
      dz2     :     0.000627  d :     0.003672
      dxz     :     0.000008
      dyz     :     0.000589
      dx2y2   :     0.001780
      dxy     :     0.000668

  6 H s       :     0.811495  s :     0.811495
      pz      :     0.011070  p :     0.042624
      px      :     0.027085
      py      :     0.004468

  7 H s       :     0.827852  s :     0.827852
      pz      :     0.041065  p :     0.065549
      px      :     0.011139
      py      :     0.013346



                      *****************************
                      * MAYER POPULATION ANALYSIS *
                      *****************************

  NA   - Mulliken gross atomic population
  ZA   - Total nuclear charge
  QA   - Mulliken gross atomic charge
  VA   - Mayer's total valence
  BVA  - Mayer's bonded valence
  FA   - Mayer's free valence

  ATOM       NA         ZA         QA         VA         BVA        FA
  0 C      6.2383     6.0000    -0.2383     3.9932     3.9932    -0.0000
  1 H      0.8513     1.0000     0.1487     0.9748     0.9748    -0.0000
  2 H      0.8691     1.0000     0.1309     0.9760     0.9760     0.0000
  3 C      6.0338     6.0000    -0.0338     3.8287     3.8287     0.0000
  4 H      0.8610     1.0000     0.1390     0.9529     0.9529    -0.0000
  5 F      9.4369     9.0000    -0.4369     0.7082     0.7082    -0.0000
  6 H      0.8404     1.0000     0.1596     0.9500     0.9500     0.0000
  7 H      0.8693     1.0000     0.1307     0.9740     0.9740    -0.0000

  Mayer bond orders larger than 0.100000
B(  0-C ,  1-H ) :   0.9280 B(  0-C ,  2-H ) :   0.9494 B(  0-C ,  3-C ) :   1.1659 
B(  0-C ,  7-H ) :   0.9432 B(  3-C ,  4-H ) :   0.9300 B(  3-C ,  5-F ) :   0.7089 
B(  3-C ,  6-H ) :   0.9645 

-------
TIMINGS
-------

Total SCF time: 0 days 0 hours 0 min 2 sec 

Total time                  ....       2.095 sec
Sum of individual times     ....       2.058 sec  ( 98.2%)

SCF preparation             ....       0.341 sec  ( 16.3%)
Fock matrix formation       ....       1.524 sec  ( 72.8%)
  Startup                   ....       0.018 sec  (  1.2% of F)
  Split-RI-J                ....       0.216 sec  ( 14.2% of F)
  XC integration            ....       0.866 sec  ( 56.8% of F)
    XC Preparation          ....       0.000 sec  (  0.0% of XC)
    Basis function eval.    ....       0.261 sec  ( 30.1% of XC)
    Density eval.           ....       0.118 sec  ( 13.7% of XC)
    XC-Functional eval.     ....       0.069 sec  (  8.0% of XC)
    XC-Potential eval.      ....       0.142 sec  ( 16.5% of XC)
  CPCM terms                ....       0.366 sec  ( 24.0% of F)
Diagonalization             ....       0.000 sec  (  0.0%)
Density matrix formation    ....       0.031 sec  (  1.5%)
Total Energy calculation    ....       0.022 sec  (  1.1%)
Population analysis         ....       0.012 sec  (  0.6%)
Orbital Transformation      ....       0.016 sec  (  0.8%)
Orbital Orthonormalization  ....       0.000 sec  (  0.0%)
DIIS solution               ....       0.072 sec  (  3.5%)
SOSCF solution              ....       0.038 sec  (  1.8%)
Finished LeanSCF after   2.1 sec

Maximum memory used throughout the entire LEANSCF-calculation: 7.9 MB


           ************************************************************
           *        Program running with 4 parallel MPI-processes     *
           *              working on a common directory               *
           ************************************************************

------------------------------------------------------------------------------
                         ORCA PROPERTY INTEGRAL CALCULATIONS
------------------------------------------------------------------------------

GBWName                                   ... job.gbw
Number of atoms                           ...      8
Number of basis functions                 ...     79
Max core memory                           ...   3000 MB

Dipole integrals                          ... YES
Quadrupole integrals                      ...  NO
Linear momentum integrals                 ...  NO
Angular momentum integrals                ...  NO
Higher moments length integrals           ...  NO
Higher moments velocity integrals         ...  NO
Kinetic energy integrals                  ...  NO
GIAO right hand sides                     ...  NO
GIAO dipole derivative integrals          ...  NO
SOC integrals                             ...  NO
EPR diamagnetic integrals (GIAO)          ...  NO
EPR gauge integrals                       ...  NO
Field gradient integrals                  ...  NO (   0 nuclei)
Spin-dipole/Fermi contact integrals       ...  NO (   0 nuclei)
Contact density integrals                 ...  NO (   0 nuclei)
Nucleus-orbit integrals                   ...  NO (   0 nuclei)
Geometric perturbations                   ...  NO (   8 nuclei)

Choice of electric origin   ... Center of mass
Position of electric origin ... ( -7.7369, -2.1189, -1.7172) 
Choice of magnetic origin   ... GIAO
Position of magnetic origin ... (  0.0000,  0.0000,  0.0000) 

Calculating integrals                     ... Electric Dipole (Length)     done (  0.0 sec)

Property integrals calculated in   0.0 sec

Maximum memory used throughout the entire PROPINT-calculation: 6.5 MB

-------------------------   --------------------
FINAL SINGLE POINT ENERGY      -178.698372010472
-------------------------   --------------------



           ************************************************************
           *        Program running with 4 parallel MPI-processes     *
           *              working on a common directory               *
           ************************************************************
------------------------------------------------------------------------------
                         ORCA SCF GRADIENT CALCULATION
------------------------------------------------------------------------------

Nuc. rep. gradient        (SHARK) ... done (  0.0 sec)
HCore & Overlap gradient  (SHARK) ... done (  0.0 sec)
Split-RIJ-J gradient      (SHARK) ... done (  0.1 sec)
XC gradient                       ... done (  0.4 sec)
CPCM gradient                     ... done (  0.1 sec)
SMD gradient                      ... done (  0.0 sec)

------------------
CARTESIAN GRADIENT
------------------

   1   C   :    0.004379393    0.011329930   -0.003667755
   2   H   :    0.000701304   -0.000048883   -0.000654708
   3   H   :   -0.002108568   -0.001098245   -0.002313780
   4   C   :    0.075285874    0.038296326    0.085326459
   5   H   :   -0.002118497   -0.005234349   -0.044162466
   6   F   :   -0.015422058   -0.046103079   -0.006119105
   7   H   :   -0.061562458    0.004235834   -0.029272009
   8   H   :    0.000845010   -0.001377535    0.000863362

Difference to translation invariance:
           :    0.0000000000   -0.0000000000    0.0000000000

Difference to rotation invariance:
           :   -0.0001296131   -0.0000527669   -0.0000897495

Norm of the Cartesian gradient     ...    0.1537503712
RMS gradient                       ...    0.0313841631
MAX gradient                       ...    0.0853264591

-------
TIMINGS
-------

Total SCF gradient time     ....        0.698 sec

Densities                   ....       0.000 sec  (  0.0%)
One electron gradient       ....       0.014 sec  (  1.9%)
RI-J Coulomb gradient       ....       0.148 sec  ( 21.2%)
XC gradient                 ....       0.357 sec  ( 51.2%)
CPCM gradient               ....       0.100 sec  ( 14.4%)
   A-Matrix (El+Nuc)        ....       0.035 sec  (  5.0%)
   Potential                ....       0.066 sec  (  9.4%)
SMD gradient                ....       0.002 sec  (  0.3%)

Maximum memory used throughout the entire SCFGRAD-calculation: 10.4 MB
------------------------------------------------------------------------------
                         ORCA GEOMETRY RELAXATION STEP
------------------------------------------------------------------------------

Reading the OPT-File                    .... done
Getting information on internals        .... done
Copying old internal coords+grads       .... done
Making the new internal coordinates     .... (2022 redundants) done
Validating the new internal coordinates .... (2022 redundants) done
Calculating the B-matrix                .... done
Calculating the G,G- and P matrices     .... done
Transforming gradient to internals      .... done
Projecting the internal gradient        .... done
Number of atoms                         ....   8
Number of internal coordinates          ....  25
Current Energy                          ....  -178.698372010 Eh
Current gradient norm                   ....     0.153750371 Eh/bohr
Maximum allowed component of the step   ....  0.300
Current trust radius                    ....  0.300
Evaluating the initial hessian          ....  (Almloef) done
Projecting the Hessian                  .... done
Forming the augmented Hessian           .... done
Diagonalizing the augmented Hessian     .... done
Last element of RFO vector              ....  0.926806815
Lowest eigenvalues of augmented Hessian:
 -0.038161391  0.014295026  0.083363657  0.131285794  0.138024398
Length of the computed step             ....  0.405196040
Warning: the length of the step is outside the trust region - taking restricted step instead
The input lambda is                     ....     0.013293
   iter:   5  x=   -0.114224  g=    0.741879 f(x)=     0.014824
The output lambda is                    ....    -0.116709 (9 iterations)
The final length of the internal step   ....  0.300000000
Converting the step to Cartesian space:
 Initial RMS(Int)=    0.0600000000
Transforming coordinates:
 Iter   0:  RMS(Cart)=    0.0541161829 RMS(Int)=    1.2550672806
 Iter   5:  RMS(Cart)=    0.0000000786 RMS(Int)=    0.0000000548
done
Storing new coordinates                 .... done

                                .--------------------.
          ----------------------|Geometry convergence|-------------------------
          Item                value                   Tolerance       Converged
          ---------------------------------------------------------------------
          RMS gradient        0.0195393185            0.0001000000      NO
          MAX gradient        0.0677184129            0.0003000000      NO
          RMS step            0.0600000000            0.0020000000      NO
          MAX step            0.2314213536            0.0040000000      NO
          ........................................................
          Max(Bonds)      0.1225      Max(Angles)    3.12
          Max(Dihed)        1.52      Max(Improp)    0.00
          ---------------------------------------------------------------------

The optimization has not yet converged - more geometry cycles are needed


    ---------------------------------------------------------------------------
                         Redundant Internal Coordinates
                            (Angstroem and degrees)

        Definition                    Value    dE/dq     Step     New-Value
    ----------------------------------------------------------------------------
     1. B(H   1,C   0)                1.1109 -0.000091  0.0001    1.1110   
     2. B(H   2,C   0)                1.1061 -0.002319  0.0027    1.1088   
     3. B(C   3,C   0)                1.4948  0.008820 -0.0086    1.4862   
     4. B(H   4,C   3)                1.0471 -0.043631  0.0429    1.0900   
     5. B(F   5,C   3)                1.6499  0.047760 -0.0798    1.5701   
     6. B(H   6,C   3)                1.2850  0.067718 -0.1225    1.1626   
     7. B(H   7,C   0)                1.1063 -0.000511  0.0006    1.1068   
     8. A(H   1,C   0,H   7)          108.78  0.000085   -0.08    108.70   
     9. A(H   1,C   0,C   3)          107.98  0.002264   -0.37    107.61   
    10. A(C   3,C   0,H   7)          111.60 -0.000676    0.13    111.73   
    11. A(H   2,C   0,H   7)          108.46 -0.001319    0.34    108.80   
    12. A(H   2,C   0,C   3)          111.40 -0.000804    0.14    111.54   
    13. A(H   1,C   0,H   2)          108.54  0.000518   -0.17    108.37   
    14. A(C   0,C   3,H   6)          115.47  0.004096   -0.33    115.13   
    15. A(H   4,C   3,F   5)          102.75 -0.005632    0.17    102.92   
    16. A(C   0,C   3,F   5)          112.68  0.010007   -1.59    111.09   
    17. A(F   5,C   3,H   6)           93.55 -0.019373    3.12     96.67   
    18. A(H   4,C   3,H   6)          106.70 -0.003300    0.73    107.43   
    19. A(C   0,C   3,H   4)          121.50  0.006964   -1.07    120.43   
    20. D(H   4,C   3,C   0,H   2)     59.05  0.005488   -1.52     57.53   
    21. D(H   4,C   3,C   0,H   7)   -179.55  0.002756   -0.90   -180.45   
    22. D(F   5,C   3,C   0,H   1)    177.51 -0.003908    1.10    178.61   
    23. D(F   5,C   3,C   0,H   2)    -63.39 -0.002323    0.74    -62.65   
    24. D(F   5,C   3,C   0,H   7)     58.00 -0.005055    1.37     59.37   
    25. D(H   4,C   3,C   0,H   1)    -60.04  0.003903   -1.16    -61.21   
    ----------------------------------------------------------------------------

Geometry step timings:
Preparation and reading OPT file:      0.000 s ( 7.762 %)
Internal coordinates            :      0.000 s ( 1.027 %)
B/P matrices and projection     :      0.000 s ( 9.665 %)
Hessian update/contruction      :      0.002 s (49.290 %)
Making the step                 :      0.000 s (14.376 %)
Converting the step to Cartesian:      0.000 s ( 2.386 %)
Storing new data                :      0.000 s ( 2.537 %)
Checking convergence            :      0.000 s ( 0.060 %)
Final printing                  :      0.000 s (12.534 %)
Total time                      :      0.003 s

Time for energy+gradient        :      6.526 s
Time for complete geometry iter :      7.206 s

         *************************************************************
         *                GEOMETRY OPTIMIZATION CYCLE   2            *
         *************************************************************
---------------------------------
CARTESIAN COORDINATES (ANGSTROEM)
---------------------------------
  C     -3.206160   -0.158371   -1.348709
  H     -3.198135    0.948613   -1.255000
  H     -2.283530   -0.555520   -0.879091
  C     -4.426235   -0.658697   -0.663243
  H     -4.572079   -0.482079    0.402435
  F     -4.537280   -2.220713   -0.777501
  H     -5.428958   -0.412502   -1.197527
  H     -3.202022   -0.423559   -2.423314

----------------------------
CARTESIAN COORDINATES (A.U.)
----------------------------
  NO LB      ZA    FRAG     MASS         X           Y           Z
   0 C     6.0000    0    12.011   -6.058764   -0.299278   -2.548692
   1 H     1.0000    0     1.008   -6.043600    1.792619   -2.371607
   2 H     1.0000    0     1.008   -4.315246   -1.049781   -1.661241
   3 C     6.0000    0    12.011   -8.364372   -1.244758   -1.253347
   4 H     1.0000    0     1.008   -8.639978   -0.910998    0.760493
   5 F     9.0000    0    18.998   -8.574216   -4.196540   -1.469264
   6 H     1.0000    0     1.008  -10.259243   -0.779515   -2.262998
   7 H     1.0000    0     1.008   -6.050944   -0.800411   -4.579400

--------------------------------
INTERNAL COORDINATES (ANGSTROEM)
--------------------------------
 C      0   0   0     0.000000000000     0.00000000     0.00000000
 H      1   0   0     1.110972260340     0.00000000     0.00000000
 H      1   2   0     1.108834971988   108.36978693     0.00000000
 C      1   2   3     1.486195002997   107.60582800   120.74819350
 H      4   1   2     1.090015787620   120.41224756   298.80458977
 F      4   1   2     1.570120984286   111.06384377   178.60478545
 H      4   1   2     1.162550627028   115.13892738    70.04323927
 H      1   2   3     1.106849995969   108.69876209   241.90859024

---------------------------
INTERNAL COORDINATES (A.U.)
---------------------------
 C      0   0   0     0.000000000000     0.00000000     0.00000000
 H      1   0   0     2.099433314425     0.00000000     0.00000000
 H      1   2   0     2.095394424771   108.36978693     0.00000000
 C      1   2   3     2.808501537266   107.60582800   120.74819350
 H      4   1   2     2.059831320253   120.41224756   298.80458977
 F      4   1   2     2.967098657424   111.06384377   178.60478545
 H      4   1   2     2.196902301901   115.13892738    70.04323927
 H      1   2   3     2.091643363714   108.69876209   241.90859024



           ************************************************************
           *        Program running with 4 parallel MPI-processes     *
           *              working on a common directory               *
           ************************************************************
------------------------------------------------------------------------------
                   ___                                                        
                  /   \      - P O W E R E D   B Y -                         
                 /     \                                                     
                 |  |  |   _    _      __       _____    __    __             
                 |  |  |  | |  | |    /  \     |  _  \  |  |  /  |          
                  \  \/   | |  | |   /    \    | | | |  |  | /  /          
                 / \  \   | |__| |  /  /\  \   | |_| |  |  |/  /          
                |  |  |   |  __  | /  /__\  \  |    /   |      \           
                |  |  |   | |  | | |   __   |  |    \   |  |\   \          
                \     /   | |  | | |  |  |  |  | |\  \  |  | \   \       
                 \___/    |_|  |_| |__|  |__|  |_| \__\ |__|  \__/        
                                                                              
                      - O R C A' S   B I G   F R I E N D -                    
                                      &                                       
                       - I N T E G R A L  F E E D E R -                       
                                                                              
 v1 FN, 2020, v2 2021, v3 2022-2024                                           
------------------------------------------------------------------------------


----------------------
SHARK INTEGRAL PACKAGE
----------------------

Number of atoms                             ...      8
Number of basis functions                   ...     79
Number of shells                            ...     39
Maximum angular momentum                    ...      2
Integral batch strategy                     ... SHARK/LIBINT Hybrid
RI-J (if used) integral strategy            ... SPLIT-RIJ (Revised 2003 algorithm where possible)
Printlevel                                  ...      1
Contraction scheme used                     ... SEGMENTED contraction
Prescreening option                         ... SCHWARTZ
   Thresh                                   ... 2.500e-11
   Tcut                                     ... 2.500e-12
   Tpresel                                  ... 2.500e-12 
Coulomb Range Separation                    ... NOT USED
Exchange Range Separation                   ... NOT USED
Multipole approximations                    ... NOT USED
Finite Nucleus Model                        ... NOT USED
CABS basis                                  ... NOT available
Auxiliary Coulomb fitting basis             ... AVAILABLE
   # of basis functions in Aux-J            ...    202
   # of shells in Aux-J                     ...     70
   Maximum angular momentum in Aux-J        ...      4
Auxiliary J/K fitting basis                 ... NOT available
Auxiliary Correlation fitting basis         ... NOT available
Auxiliary 'external' fitting basis          ... NOT available

Checking pre-screening integrals            ... done (  0.0 sec) Dimension = 39
Check shell pair data                       ... done (  0.0 sec)
Shell pair information
Shell pair cut-off parameter TPreSel        ...   2.5e-12
Total number of shell pairs                 ...       780
Shell pairs after pre-screening             ...       778
Total number of primitive shell pairs       ...      2332
Primitive shell pairs kept                  ...      2045
          la=0 lb=0:    252 shell pairs
          la=1 lb=0:    307 shell pairs
          la=1 lb=1:    105 shell pairs
          la=2 lb=0:     66 shell pairs
          la=2 lb=1:     42 shell pairs
          la=2 lb=2:      6 shell pairs

Calculating one electron integrals          ... done (  0.0 sec)
Calculating RI/J V-Matrix + Cholesky decomp.... done (  0.0 sec)
Calculating Nuclear repulsion               ... done (  0.0 sec) ENN=     75.559979631922 Eh

Diagonalization of the overlap matrix:
Smallest eigenvalue                        ... 4.075e-04
Time for diagonalization                   ...    0.001 sec
Threshold for overlap eigenvalues          ... 1.000e-07
Number of eigenvalues below threshold      ... 0
Time for construction of square roots      ...    0.003 sec
Total time needed                          ...    0.005 sec

-------------------
DFT GRID GENERATION
-------------------

General Integration Accuracy     IntAcc      ... 4.388
Radial Grid Type                 RadialGrid  ... OptM3 with GC (2021)
Angular Grid (max. ang.)         AngularGrid ... 4 (Lebedev-302)
Angular grid pruning method      GridPruning ... 4 (adaptive)
Weight generation scheme         WeightScheme... mBecke (2022)
Basis function cutoff            BFCut       ... 1.0000e-11
Integration weight cutoff        WCut        ... 1.0000e-14
Partially contracted basis set               ... off
Rotationally invariant grid construction     ... off
Angular grids for H and He will be reduced by one unit
Diffuse basis detected: some atoms will have their outermost
                        angular grid increased by 1.

Total number of grid points                  ...    35464
Total number of batches                      ...      559
Average number of points per batch           ...       63
Average number of grid points per atom       ...     4433
Initializing property integral containers    ... done (  0.0 sec)

SHARK setup successfully completed in   0.4 seconds

Maximum memory used throughout the entire STARTUP-calculation: 11.8 MB


           ************************************************************
           *        Program running with 4 parallel MPI-processes     *
           *              working on a common directory               *
           ************************************************************
Occupation numbers will be reassigned to an Aufbau configuration
             **** ENERGY FILE WAS UPDATED (job.en.tmp) ****
Finished Guess after   0.4 sec
Maximum memory used throughout the entire GUESS-calculation: 6.4 MB


           ************************************************************
           *        Program running with 4 parallel MPI-processes     *
           *              working on a common directory               *
           ************************************************************
--------------------
CPCM SOLVATION MODEL
--------------------
CPCM parameters:
  Epsilon                                         ...      35.6880
  Refrac                                          ...       1.3442
  Rsolv                                           ...       1.3000
  Surface type                                    ... GAUSSIAN VDW
  Discretization scheme                           ... Constant charge density
    Threshold for H atoms                         ...       5.0000 (charges/Ang^2)
    Threshold for non-H atoms                     ...       5.0000 (charges/Ang^2)
  Epsilon function type                           ...         CPCM
Solvent:                                          ... ACETONITRILE
SMD-CDS solvent descriptors:
  Soln                                            ...       1.3442
  Soln25                                          ...       1.3416
  Sola                                            ...       0.0700
  Solb                                            ...       0.3200
  Solg                                            ...      41.2500
  Solc                                            ...       0.0000
  Solh                                            ...       0.0000
Radii:
  Scheme                                          ... Element-dependent radii
  Radius for C  used is    3.4960 Bohr (=   1.8500 Ang.)
  Radius for H  used is    2.2677 Bohr (=   1.2000 Ang.)
  Radius for F  used is    3.2692 Bohr (=   1.7300 Ang.)
Calculating surface                               ...        done! (  0.0s)
Cavity surface points                             ...          693
Cavity Volume                                     ...     406.7658
Cavity Surface-area                               ...     299.7545
Calculating surface distance matrix               ...        done! (  0.0s)
Performing Cholesky decomposition & store         ...        done! (  0.0s)
Overall time for CPCM initialization              ...                 0.0s

----------------------------------------D-I-I-S--------------------------------------------
Iteration    Energy (Eh)           Delta-E    RMSDP     MaxDP     DIISErr   Damp  Time(sec)
-------------------------------------------------------------------------------------------
               ***  Starting incremental Fock matrix formation  ***
    1    -178.7172835908059483     0.00e+00  7.06e-04  9.82e-03  2.44e-02  0.700   0.2
    2    -178.7182795570748226    -9.96e-04  5.99e-04  8.31e-03  1.78e-02  0.700   0.1
                               ***Turning on AO-DIIS***
    3    -178.7189982367469270    -7.19e-04  4.26e-04  5.88e-03  1.21e-02  0.700   0.1
    4    -178.7194931861585587    -4.95e-04  1.03e-03  1.40e-02  8.51e-03  0.000   0.1
                              *** Initializing SOSCF ***
---------------------------------------S-O-S-C-F--------------------------------------
Iteration    Energy (Eh)           Delta-E    RMSDP     MaxDP     MaxGrad    Time(sec)
--------------------------------------------------------------------------------------
    5    -178.7206396166680520    -1.15e-03  6.48e-05  1.07e-03  6.39e-04     0.1
               *** Restarting incremental Fock matrix formation ***
    6    -178.7206410225062427    -1.41e-06  5.66e-05  1.06e-03  1.32e-04     0.1
    7    -178.7206407007147391     3.22e-07  2.29e-05  5.06e-04  2.17e-04     0.1
    8    -178.7206414510419563    -7.50e-07  1.25e-05  2.15e-04  4.93e-05     0.1
    9    -178.7206413737973207     7.72e-08  7.92e-06  1.30e-04  9.02e-05     0.1
   10    -178.7206414846755251    -1.11e-07  3.40e-07  4.73e-06  1.26e-06     0.1
                  *** Gradient check signals convergence ***

               *****************************************************
               *                     SUCCESS                       *
               *           SCF CONVERGED AFTER  10 CYCLES          *
               *****************************************************


SMD CDS free energy correction energy :                 0.06986     Kcal/mol
Total Energy after SMD CDS correction =              -178.720530149 Eh
             **** ENERGY FILE WAS UPDATED (job.en.tmp) ****

----------------
TOTAL SCF ENERGY
----------------

Total Energy       :       -178.72053014883062 Eh           -4863.23287 eV

Components:
Nuclear Repulsion  :         75.55997963192210 Eh            2056.09158 eV
Electronic Energy  :       -254.26898769595169 Eh           -6919.01091 eV
One Electron Energy:       -394.53026300268726 Eh          -10735.71425 eV
Two Electron Energy:        140.26127530673557 Eh            3816.70334 eV
CPCM Dielectric    :         -0.01163342064596 Eh              -0.31656 eV
SMD CDS (Gcds)     :          0.00011133584491 Eh               0.00303 eV

Virial components:
Potential Energy   :       -355.63494724804639 Eh           -9677.31890 eV
Kinetic Energy     :        176.91441709921574 Eh            4814.08603 eV
Virial Ratio       :          2.01020896475951

DFT components:
N(Alpha)           :       13.000026877879 electrons
N(Beta)            :       13.000026877879 electrons
N(Total)           :       26.000053755758 electrons
E(X)               :      -21.974089357962 Eh       
E(C)               :       -0.846066124374 Eh       
E(XC)              :      -22.820155482336 Eh       

CPCM Solvation Model Properties:
Surface-charge          :         -0.02858495442725
Corrected charge        :          0.00000000000000
Outlying charge corr.   :          0.00008308194050 Eh               0.00226 eV
Free-energy (cav+disp)  :          0.00011133584491 Eh               0.00303 eV

---------------
SCF CONVERGENCE
---------------

  Last Energy change         ...    1.1088e-07  Tolerance :   1.0000e-08
  Last MAX-Density change    ...    4.7323e-06  Tolerance :   1.0000e-07
  Last RMS-Density change    ...    3.3963e-07  Tolerance :   5.0000e-09
  Last DIIS Error            ...    6.3943e-04  Tolerance :   5.0000e-07
  Last Orbital Gradient      ...    1.2607e-06  Tolerance :   1.0000e-05
  Last Orbital Rotation      ...    2.7936e-06  Tolerance :   1.0000e-05


Total SCF time: 0 days 0 hours 0 min 1 sec 
Finished LeanSCF after   1.8 sec

Maximum memory used throughout the entire LEANSCF-calculation: 8.1 MB


           ************************************************************
           *        Program running with 4 parallel MPI-processes     *
           *              working on a common directory               *
           ************************************************************

------------------------------------------------------------------------------
                         ORCA PROPERTY INTEGRAL CALCULATIONS
------------------------------------------------------------------------------

GBWName                                   ... job.gbw
Number of atoms                           ...      8
Number of basis functions                 ...     79
Max core memory                           ...   3000 MB

Dipole integrals                          ... YES
Quadrupole integrals                      ...  NO
Linear momentum integrals                 ...  NO
Angular momentum integrals                ...  NO
Higher moments length integrals           ...  NO
Higher moments velocity integrals         ...  NO
Kinetic energy integrals                  ...  NO
GIAO right hand sides                     ...  NO
GIAO dipole derivative integrals          ...  NO
SOC integrals                             ...  NO
EPR diamagnetic integrals (GIAO)          ...  NO
EPR gauge integrals                       ...  NO
Field gradient integrals                  ...  NO (   0 nuclei)
Spin-dipole/Fermi contact integrals       ...  NO (   0 nuclei)
Contact density integrals                 ...  NO (   0 nuclei)
Nucleus-orbit integrals                   ...  NO (   0 nuclei)
Geometric perturbations                   ...  NO (   8 nuclei)

Choice of electric origin   ... Center of mass
Position of electric origin ... ( -7.7345, -2.0814, -1.7431) 
Choice of magnetic origin   ... GIAO
Position of magnetic origin ... (  0.0000,  0.0000,  0.0000) 

Calculating integrals                     ... Electric Dipole (Length)     done (  0.0 sec)

Property integrals calculated in   0.0 sec

Maximum memory used throughout the entire PROPINT-calculation: 6.5 MB

-------------------------   --------------------
FINAL SINGLE POINT ENERGY      -178.720530148831
-------------------------   --------------------



           ************************************************************
           *        Program running with 4 parallel MPI-processes     *
           *              working on a common directory               *
           ************************************************************
------------------------------------------------------------------------------
                         ORCA SCF GRADIENT CALCULATION
------------------------------------------------------------------------------

Nuc. rep. gradient        (SHARK) ... done (  0.0 sec)
HCore & Overlap gradient  (SHARK) ... done (  0.0 sec)
Split-RIJ-J gradient      (SHARK) ... done (  0.1 sec)
XC gradient                       ... done (  0.4 sec)
CPCM gradient                     ... done (  0.1 sec)
SMD gradient                      ... done (  0.0 sec)

------------------
CARTESIAN GRADIENT
------------------

   1   C   :   -0.003289541    0.003285918   -0.003284520
   2   H   :   -0.000728716   -0.000124334    0.000457773
   3   H   :   -0.000618197   -0.001472283   -0.000775716
   4   C   :    0.049318786    0.038175490    0.031019474
   5   H   :   -0.007051493   -0.003045756   -0.011215318
   6   F   :   -0.010778507   -0.033465751   -0.004762049
   7   H   :   -0.027678571   -0.002400277   -0.012049188
   8   H   :    0.000826240   -0.000953006    0.000609542

Difference to translation invariance:
           :    0.0000000000    0.0000000000    0.0000000000

Difference to rotation invariance:
           :   -0.0000564362   -0.0000282855    0.0000234760

Norm of the Cartesian gradient     ...    0.0851518400
RMS gradient                       ...    0.0173815465
MAX gradient                       ...    0.0493187862

-------
TIMINGS
-------

Total SCF gradient time     ....        0.703 sec

Densities                   ....       0.000 sec  (  0.0%)
One electron gradient       ....       0.014 sec  (  2.0%)
RI-J Coulomb gradient       ....       0.149 sec  ( 21.2%)
XC gradient                 ....       0.358 sec  ( 51.0%)
CPCM gradient               ....       0.103 sec  ( 14.6%)
   A-Matrix (El+Nuc)        ....       0.035 sec  (  4.9%)
   Potential                ....       0.068 sec  (  9.7%)
SMD gradient                ....       0.003 sec  (  0.4%)

Maximum memory used throughout the entire SCFGRAD-calculation: 10.4 MB
------------------------------------------------------------------------------
                         ORCA GEOMETRY RELAXATION STEP
------------------------------------------------------------------------------

Reading the OPT-File                    .... done
Getting information on internals        .... done
Copying old internal coords+grads       .... done
Making the new internal coordinates     .... (2022 redundants) done
Validating the new internal coordinates .... (2022 redundants) done
Calculating the B-matrix                .... done
Calculating the G,G- and P matrices     .... done
Transforming gradient to internals      .... done
Projecting the internal gradient        .... done
Number of atoms                         ....   8
Number of internal coordinates          ....  25
Current Energy                          ....  -178.720530149 Eh
Current gradient norm                   ....     0.085151840 Eh/bohr
Maximum allowed component of the step   ....  0.300
Current trust radius                    ....  0.300
Updating the Hessian (BFGS)             .... done
Forming the augmented Hessian           .... done
Diagonalizing the augmented Hessian     .... done
Last element of RFO vector              ....  0.940785361
Lowest eigenvalues of augmented Hessian:
 -0.018507927  0.014295184  0.082981452  0.131176620  0.137995127
Length of the computed step             ....  0.360340225
Warning: the length of the step is outside the trust region - taking restricted step instead
The input lambda is                     ....     0.013293
   iter:   5  x=   -0.046550  g=    1.145344 f(x)=     0.004453
The output lambda is                    ....    -0.046695 (9 iterations)
The final length of the internal step   ....  0.300000000
Converting the step to Cartesian space:
 Initial RMS(Int)=    0.0600000000
Transforming coordinates:
 Iter   0:  RMS(Cart)=    0.0510095925 RMS(Int)=    0.0597293872
 Iter   5:  RMS(Cart)=    0.0000000216 RMS(Int)=    0.0000000147
done
Storing new coordinates                 .... done
The predicted energy change is          ....    -0.009832214
Previously predicted energy change      ....    -0.019566986
Actually observed energy change         ....    -0.022158138
Ratio of predicted to observed change   ....     1.132424677
New trust radius                        ....     0.450000000

                                .--------------------.
          ----------------------|Geometry convergence|-------------------------
          Item                value                   Tolerance       Converged
          ---------------------------------------------------------------------
          Energy change      -0.0221581384            0.0000050000      NO
          RMS gradient        0.0104133250            0.0001000000      NO
          MAX gradient        0.0344021382            0.0003000000      NO
          RMS step            0.0600000000            0.0020000000      NO
          MAX step            0.2092998052            0.0040000000      NO
          ........................................................
          Max(Bonds)      0.1108      Max(Angles)    5.61
          Max(Dihed)        1.72      Max(Improp)    0.00
          ---------------------------------------------------------------------

The optimization has not yet converged - more geometry cycles are needed


    ---------------------------------------------------------------------------
                         Redundant Internal Coordinates
                            (Angstroem and degrees)

        Definition                    Value    dE/dq     Step     New-Value
    ----------------------------------------------------------------------------
     1. B(H   1,C   0)                1.1110 -0.000090  0.0002    1.1112   
     2. B(H   2,C   0)                1.1088 -0.000316  0.0005    1.1094   
     3. B(C   3,C   0)                1.4862 -0.001500  0.0033    1.4895   
     4. B(H   4,C   3)                1.0900 -0.010514  0.0189    1.1089   
     5. B(F   5,C   3)                1.5701  0.034402 -0.1108    1.4594   
     6. B(H   6,C   3)                1.1626  0.028902 -0.0874    1.0752   
     7. B(H   7,C   0)                1.1068 -0.000360  0.0008    1.1077   
     8. A(H   1,C   0,H   7)          108.70  0.000853   -0.34    108.36   
     9. A(H   1,C   0,C   3)          107.61 -0.000709    0.17    107.77   
    10. A(C   3,C   0,H   7)          111.73  0.000446   -0.10    111.62   
    11. A(H   2,C   0,H   7)          108.80 -0.000784    0.33    109.13   
    12. A(H   2,C   0,C   3)          111.54 -0.001010    0.31    111.85   
    13. A(H   1,C   0,H   2)          108.37  0.001300   -0.40    107.97   
    14. A(C   0,C   3,H   6)          115.14  0.003524   -0.76    114.38   
    15. A(H   4,C   3,F   5)          102.88 -0.005891    0.95    103.83   
    16. A(C   0,C   3,F   5)          111.06  0.004733   -1.49    109.57   
    17. A(F   5,C   3,H   6)           96.67 -0.018133    5.61    102.28   
    18. A(H   4,C   3,H   6)          107.43 -0.002801    1.02    108.45   
    19. A(C   0,C   3,H   4)          120.41  0.011361   -3.11    117.31   
    20. D(H   4,C   3,C   0,H   2)     57.54  0.003260   -1.72     55.81   
    21. D(H   4,C   3,C   0,H   7)    179.56  0.001841   -1.15    178.41   
    22. D(F   5,C   3,C   0,H   1)    178.60 -0.002264    1.19    179.80   
    23. D(F   5,C   3,C   0,H   2)    -62.66 -0.001703    0.99    -61.67   
    24. D(F   5,C   3,C   0,H   7)     59.36 -0.003122    1.57     60.93   
    25. D(H   4,C   3,C   0,H   1)    -61.20  0.002699   -1.52    -62.72   
    ----------------------------------------------------------------------------

Geometry step timings:
Preparation and reading OPT file:      0.000 s ( 4.902 %)
Internal coordinates            :      0.000 s ( 0.380 %)
B/P matrices and projection     :      0.000 s ( 5.074 %)
Hessian update/contruction      :      0.004 s (73.662 %)
Making the step                 :      0.000 s ( 5.247 %)
Converting the step to Cartesian:      0.000 s ( 0.777 %)
Storing new data                :      0.000 s ( 1.260 %)
Checking convergence            :      0.000 s ( 0.259 %)
Final printing                  :      0.000 s ( 8.371 %)
Total time                      :      0.006 s

Time for energy+gradient        :      5.774 s
Time for complete geometry iter :      6.430 s

         *************************************************************
         *                GEOMETRY OPTIMIZATION CYCLE   3            *
         *************************************************************
---------------------------------
CARTESIAN COORDINATES (ANGSTROEM)
---------------------------------
  C     -3.225349   -0.176514   -1.349155
  H     -3.224154    0.931016   -1.259152
  H     -2.306189   -0.560581   -0.860979
  C     -4.458748   -0.685138   -0.686900
  H     -4.564451   -0.496004    0.400620
  F     -4.500099   -2.140335   -0.789055
  H     -5.373576   -0.396206   -1.172336
  H     -3.201831   -0.439066   -2.424992

----------------------------
CARTESIAN COORDINATES (A.U.)
----------------------------
  NO LB      ZA    FRAG     MASS         X           Y           Z
   0 C     6.0000    0    12.011   -6.095026   -0.333564   -2.549534
   1 H     1.0000    0     1.008   -6.092768    1.759365   -2.379453
   2 H     1.0000    0     1.008   -4.358066   -1.059344   -1.627015
   3 C     6.0000    0    12.011   -8.425814   -1.294724   -1.298052
   4 H     1.0000    0     1.008   -8.625562   -0.937311    0.757062
   5 F     9.0000    0    18.998   -8.503955   -4.044648   -1.491098
   6 H     1.0000    0     1.008  -10.154587   -0.748721   -2.215394
   7 H     1.0000    0     1.008   -6.050584   -0.829715   -4.582571

--------------------------------
INTERNAL COORDINATES (ANGSTROEM)
--------------------------------
 C      0   0   0     0.000000000000     0.00000000     0.00000000
 H      1   0   0     1.111181975407     0.00000000     0.00000000
 H      1   2   0     1.109359227110   107.97087167     0.00000000
 C      1   2   3     1.489481525855   107.77213311   120.99000980
 H      4   1   2     1.108893162305   117.17713433   297.31560491
 F      4   1   2     1.459364298673   109.44134834   179.76186568
 H      4   1   2     1.075192736219   114.33435834    65.76722371
 H      1   2   3     1.107660376019   108.35487917   241.92340427

---------------------------
INTERNAL COORDINATES (A.U.)
---------------------------
 C      0   0   0     0.000000000000     0.00000000     0.00000000
 H      1   0   0     2.099829618469     0.00000000     0.00000000
 H      1   2   0     2.096385123376   107.97087167     0.00000000
 C      1   2   3     2.814712165401   107.77213311   120.99000980
 H      4   1   2     2.095504388535   117.17713433   297.31560491
 F      4   1   2     2.757798854115   109.44134834   179.76186568
 H      4   1   2     2.031819812636   114.33435834    65.76722371
 H      1   2   3     2.093174760072   108.35487917   241.92340427



           ************************************************************
           *        Program running with 4 parallel MPI-processes     *
           *              working on a common directory               *
           ************************************************************
------------------------------------------------------------------------------
                   ___                                                        
                  /   \      - P O W E R E D   B Y -                         
                 /     \                                                     
                 |  |  |   _    _      __       _____    __    __             
                 |  |  |  | |  | |    /  \     |  _  \  |  |  /  |          
                  \  \/   | |  | |   /    \    | | | |  |  | /  /          
                 / \  \   | |__| |  /  /\  \   | |_| |  |  |/  /          
                |  |  |   |  __  | /  /__\  \  |    /   |      \           
                |  |  |   | |  | | |   __   |  |    \   |  |\   \          
                \     /   | |  | | |  |  |  |  | |\  \  |  | \   \       
                 \___/    |_|  |_| |__|  |__|  |_| \__\ |__|  \__/        
                                                                              
                      - O R C A' S   B I G   F R I E N D -                    
                                      &                                       
                       - I N T E G R A L  F E E D E R -                       
                                                                              
 v1 FN, 2020, v2 2021, v3 2022-2024                                           
------------------------------------------------------------------------------


----------------------
SHARK INTEGRAL PACKAGE
----------------------

Number of atoms                             ...      8
Number of basis functions                   ...     79
Number of shells                            ...     39
Maximum angular momentum                    ...      2
Integral batch strategy                     ... SHARK/LIBINT Hybrid
RI-J (if used) integral strategy            ... SPLIT-RIJ (Revised 2003 algorithm where possible)
Printlevel                                  ...      1
Contraction scheme used                     ... SEGMENTED contraction
Prescreening option                         ... SCHWARTZ
   Thresh                                   ... 2.500e-11
   Tcut                                     ... 2.500e-12
   Tpresel                                  ... 2.500e-12 
Coulomb Range Separation                    ... NOT USED
Exchange Range Separation                   ... NOT USED
Multipole approximations                    ... NOT USED
Finite Nucleus Model                        ... NOT USED
CABS basis                                  ... NOT available
Auxiliary Coulomb fitting basis             ... AVAILABLE
   # of basis functions in Aux-J            ...    202
   # of shells in Aux-J                     ...     70
   Maximum angular momentum in Aux-J        ...      4
Auxiliary J/K fitting basis                 ... NOT available
Auxiliary Correlation fitting basis         ... NOT available
Auxiliary 'external' fitting basis          ... NOT available

Checking pre-screening integrals            ... done (  0.0 sec) Dimension = 39
Check shell pair data                       ... done (  0.0 sec)
Shell pair information
Shell pair cut-off parameter TPreSel        ...   2.5e-12
Total number of shell pairs                 ...       780
Shell pairs after pre-screening             ...       778
Total number of primitive shell pairs       ...      2332
Primitive shell pairs kept                  ...      2062
          la=0 lb=0:    252 shell pairs
          la=1 lb=0:    307 shell pairs
          la=1 lb=1:    105 shell pairs
          la=2 lb=0:     66 shell pairs
          la=2 lb=1:     42 shell pairs
          la=2 lb=2:      6 shell pairs

Calculating one electron integrals          ... done (  0.0 sec)
Calculating RI/J V-Matrix + Cholesky decomp.... done (  0.0 sec)
Calculating Nuclear repulsion               ... done (  0.0 sec) ENN=     78.015512359598 Eh

Diagonalization of the overlap matrix:
Smallest eigenvalue                        ... 4.132e-04
Time for diagonalization                   ...    0.001 sec
Threshold for overlap eigenvalues          ... 1.000e-07
Number of eigenvalues below threshold      ... 0
Time for construction of square roots      ...    0.003 sec
Total time needed                          ...    0.006 sec

-------------------
DFT GRID GENERATION
-------------------

General Integration Accuracy     IntAcc      ... 4.388
Radial Grid Type                 RadialGrid  ... OptM3 with GC (2021)
Angular Grid (max. ang.)         AngularGrid ... 4 (Lebedev-302)
Angular grid pruning method      GridPruning ... 4 (adaptive)
Weight generation scheme         WeightScheme... mBecke (2022)
Basis function cutoff            BFCut       ... 1.0000e-11
Integration weight cutoff        WCut        ... 1.0000e-14
Partially contracted basis set               ... off
Rotationally invariant grid construction     ... off
Angular grids for H and He will be reduced by one unit
Diffuse basis detected: some atoms will have their outermost
                        angular grid increased by 1.

Total number of grid points                  ...    35443
Total number of batches                      ...      558
Average number of points per batch           ...       63
Average number of grid points per atom       ...     4430
Initializing property integral containers    ... done (  0.0 sec)

SHARK setup successfully completed in   0.4 seconds

Maximum memory used throughout the entire STARTUP-calculation: 11.8 MB


           ************************************************************
           *        Program running with 4 parallel MPI-processes     *
           *              working on a common directory               *
           ************************************************************
Occupation numbers will be reassigned to an Aufbau configuration
             **** ENERGY FILE WAS UPDATED (job.en.tmp) ****
Finished Guess after   0.4 sec
Maximum memory used throughout the entire GUESS-calculation: 6.4 MB


           ************************************************************
           *        Program running with 4 parallel MPI-processes     *
           *              working on a common directory               *
           ************************************************************
--------------------
CPCM SOLVATION MODEL
--------------------
CPCM parameters:
  Epsilon                                         ...      35.6880
  Refrac                                          ...       1.3442
  Rsolv                                           ...       1.3000
  Surface type                                    ... GAUSSIAN VDW
  Discretization scheme                           ... Constant charge density
    Threshold for H atoms                         ...       5.0000 (charges/Ang^2)
    Threshold for non-H atoms                     ...       5.0000 (charges/Ang^2)
  Epsilon function type                           ...         CPCM
Solvent:                                          ... ACETONITRILE
SMD-CDS solvent descriptors:
  Soln                                            ...       1.3442
  Soln25                                          ...       1.3416
  Sola                                            ...       0.0700
  Solb                                            ...       0.3200
  Solg                                            ...      41.2500
  Solc                                            ...       0.0000
  Solh                                            ...       0.0000
Radii:
  Scheme                                          ... Element-dependent radii
  Radius for C  used is    3.4960 Bohr (=   1.8500 Ang.)
  Radius for H  used is    2.2677 Bohr (=   1.2000 Ang.)
  Radius for F  used is    3.2692 Bohr (=   1.7300 Ang.)
Calculating surface                               ...        done! (  0.0s)
Cavity surface points                             ...          687
Cavity Volume                                     ...     398.2276
Cavity Surface-area                               ...     293.1753
Calculating surface distance matrix               ...        done! (  0.0s)
Performing Cholesky decomposition & store         ...        done! (  0.0s)
Overall time for CPCM initialization              ...                 0.0s

----------------------------------------D-I-I-S--------------------------------------------
Iteration    Energy (Eh)           Delta-E    RMSDP     MaxDP     DIISErr   Damp  Time(sec)
-------------------------------------------------------------------------------------------
               ***  Starting incremental Fock matrix formation  ***
    1    -178.7230490269207053     0.00e+00  8.29e-04  1.32e-02  2.61e-02  0.700   0.2
    2    -178.7246654570387818    -1.62e-03  7.10e-04  1.11e-02  1.88e-02  0.700   0.2
                               ***Turning on AO-DIIS***
    3    -178.7258388339241719    -1.17e-03  5.17e-04  7.78e-03  1.29e-02  0.700   0.1
    4    -178.7266520238214866    -8.13e-04  1.25e-03  1.98e-02  9.34e-03  0.000   0.1
                              *** Initializing SOSCF ***
---------------------------------------S-O-S-C-F--------------------------------------
Iteration    Energy (Eh)           Delta-E    RMSDP     MaxDP     MaxGrad    Time(sec)
--------------------------------------------------------------------------------------
    5    -178.7285472315638799    -1.90e-03  7.32e-05  1.63e-03  9.46e-04     0.2
               *** Restarting incremental Fock matrix formation ***
    6    -178.7285494525795571    -2.22e-06  6.35e-05  1.45e-03  1.84e-04     0.1
    7    -178.7285484995772435     9.53e-07  3.20e-05  7.13e-04  3.00e-04     0.1
    8    -178.7285502059293663    -1.71e-06  1.27e-05  1.99e-04  5.22e-05     0.1
    9    -178.7285501320936874     7.38e-08  8.21e-06  1.38e-04  8.69e-05     0.1
   10    -178.7285502442022107    -1.12e-07  3.41e-07  6.78e-06  8.50e-07     0.1
                  *** Gradient check signals convergence ***

               *****************************************************
               *                     SUCCESS                       *
               *           SCF CONVERGED AFTER  10 CYCLES          *
               *****************************************************


SMD CDS free energy correction energy :                 0.03538     Kcal/mol
Total Energy after SMD CDS correction =              -178.728493868 Eh
             **** ENERGY FILE WAS UPDATED (job.en.tmp) ****

----------------
TOTAL SCF ENERGY
----------------

Total Energy       :       -178.72849386816713 Eh           -4863.44957 eV

Components:
Nuclear Repulsion  :         78.01551235959761 Eh            2122.91002 eV
Electronic Energy  :       -256.73542121536207 Eh           -6986.12598 eV
One Electron Energy:       -399.28161726568220 Eh          -10865.00517 eV
Two Electron Energy:        142.54619605032011 Eh            3878.87919 eV
CPCM Dielectric    :         -0.00864138843775 Eh              -0.23514 eV
SMD CDS (Gcds)     :          0.00005637603507 Eh               0.00153 eV

Virial components:
Potential Energy   :       -355.84500094857344 Eh           -9683.03475 eV
Kinetic Energy     :        177.11650708040634 Eh            4819.58518 eV
Virial Ratio       :          2.00910127923327

DFT components:
N(Alpha)           :       13.000019955202 electrons
N(Beta)            :       13.000019955202 electrons
N(Total)           :       26.000039910405 electrons
E(X)               :      -22.029779202291 Eh       
E(C)               :       -0.851296072615 Eh       
E(XC)              :      -22.881075274907 Eh       

CPCM Solvation Model Properties:
Surface-charge          :         -0.02870901280999
Corrected charge        :         -0.00000000000000
Outlying charge corr.   :          0.00008459118561 Eh               0.00230 eV
Free-energy (cav+disp)  :          0.00005637603507 Eh               0.00153 eV

---------------
SCF CONVERGENCE
---------------

  Last Energy change         ...    1.1211e-07  Tolerance :   1.0000e-08
  Last MAX-Density change    ...    6.7799e-06  Tolerance :   1.0000e-07
  Last RMS-Density change    ...    3.4144e-07  Tolerance :   5.0000e-09
  Last DIIS Error            ...    9.4555e-04  Tolerance :   5.0000e-07
  Last Orbital Gradient      ...    8.5005e-07  Tolerance :   1.0000e-05
  Last Orbital Rotation      ...    1.7830e-06  Tolerance :   1.0000e-05


Total SCF time: 0 days 0 hours 0 min 1 sec 
Finished LeanSCF after   1.8 sec

Maximum memory used throughout the entire LEANSCF-calculation: 8.2 MB


           ************************************************************
           *        Program running with 4 parallel MPI-processes     *
           *              working on a common directory               *
           ************************************************************

------------------------------------------------------------------------------
                         ORCA PROPERTY INTEGRAL CALCULATIONS
------------------------------------------------------------------------------

GBWName                                   ... job.gbw
Number of atoms                           ...      8
Number of basis functions                 ...     79
Max core memory                           ...   3000 MB

Dipole integrals                          ... YES
Quadrupole integrals                      ...  NO
Linear momentum integrals                 ...  NO
Angular momentum integrals                ...  NO
Higher moments length integrals           ...  NO
Higher moments velocity integrals         ...  NO
Kinetic energy integrals                  ...  NO
GIAO right hand sides                     ...  NO
GIAO dipole derivative integrals          ...  NO
SOC integrals                             ...  NO
EPR diamagnetic integrals (GIAO)          ...  NO
EPR gauge integrals                       ...  NO
Field gradient integrals                  ...  NO (   0 nuclei)
Spin-dipole/Fermi contact integrals       ...  NO (   0 nuclei)
Contact density integrals                 ...  NO (   0 nuclei)
Nucleus-orbit integrals                   ...  NO (   0 nuclei)
Geometric perturbations                   ...  NO (   8 nuclei)

Choice of electric origin   ... Center of mass
Position of electric origin ... ( -7.7306, -2.0439, -1.7617) 
Choice of magnetic origin   ... GIAO
Position of magnetic origin ... (  0.0000,  0.0000,  0.0000) 

Calculating integrals                     ... Electric Dipole (Length)     done (  0.0 sec)

Property integrals calculated in   0.0 sec

Maximum memory used throughout the entire PROPINT-calculation: 6.5 MB

-------------------------   --------------------
FINAL SINGLE POINT ENERGY      -178.728493868167
-------------------------   --------------------



           ************************************************************
           *        Program running with 4 parallel MPI-processes     *
           *              working on a common directory               *
           ************************************************************
------------------------------------------------------------------------------
                         ORCA SCF GRADIENT CALCULATION
------------------------------------------------------------------------------

Nuc. rep. gradient        (SHARK) ... done (  0.0 sec)
HCore & Overlap gradient  (SHARK) ... done (  0.0 sec)
Split-RIJ-J gradient      (SHARK) ... done (  0.2 sec)
XC gradient                       ... done (  0.4 sec)
CPCM gradient                     ... done (  0.1 sec)
SMD gradient                      ... done (  0.0 sec)

------------------
CARTESIAN GRADIENT
------------------

   1   C   :   -0.005178078   -0.006121500   -0.001969656
   2   H   :   -0.001681588   -0.000078160    0.001290957
   3   H   :    0.000260831   -0.000458384   -0.000094864
   4   C   :   -0.003172102    0.028057087   -0.010211189
   5   H   :   -0.005527952   -0.004807796    0.000161033
   6   F   :   -0.002941671   -0.003770190   -0.000949425
   7   H   :    0.017720014   -0.012542768    0.011351645
   8   H   :    0.000520546   -0.000278289    0.000421498

Difference to translation invariance:
           :   -0.0000000000   -0.0000000000    0.0000000000

Difference to rotation invariance:
           :   -0.0000739216    0.0000013089   -0.0000168456

Norm of the Cartesian gradient     ...    0.0406528866
RMS gradient                       ...    0.0082982357
MAX gradient                       ...    0.0280570871

-------
TIMINGS
-------

Total SCF gradient time     ....        0.714 sec

Densities                   ....       0.000 sec  (  0.0%)
One electron gradient       ....       0.014 sec  (  1.9%)
RI-J Coulomb gradient       ....       0.150 sec  ( 21.0%)
XC gradient                 ....       0.359 sec  ( 50.3%)
CPCM gradient               ....       0.111 sec  ( 15.5%)
   A-Matrix (El+Nuc)        ....       0.034 sec  (  4.8%)
   Potential                ....       0.077 sec  ( 10.7%)
SMD gradient                ....       0.003 sec  (  0.4%)

Maximum memory used throughout the entire SCFGRAD-calculation: 10.4 MB
------------------------------------------------------------------------------
                         ORCA GEOMETRY RELAXATION STEP
------------------------------------------------------------------------------

Reading the OPT-File                    .... done
Getting information on internals        .... done
Copying old internal coords+grads       .... done
Making the new internal coordinates     .... (2022 redundants) done
Validating the new internal coordinates .... (2022 redundants) done
Calculating the B-matrix                .... done
Calculating the G,G- and P matrices     .... done
Transforming gradient to internals      .... done
Projecting the internal gradient        .... done
Number of atoms                         ....   8
Number of internal coordinates          ....  25
Current Energy                          ....  -178.728493868 Eh
Current gradient norm                   ....     0.040652887 Eh/bohr
Maximum allowed component of the step   ....  0.300
Current trust radius                    ....  0.450
Updating the Hessian (BFGS)             .... done
Forming the augmented Hessian           .... done
Diagonalizing the augmented Hessian     .... done
Last element of RFO vector              ....  0.993423869
Lowest eigenvalues of augmented Hessian:
 -0.003122838  0.014294949  0.082928749  0.130001180  0.133305145
Length of the computed step             ....  0.115252530
The final length of the internal step   ....  0.115252530
Converting the step to Cartesian space:
 Initial RMS(Int)=    0.0230505060
Transforming coordinates:
 Iter   0:  RMS(Cart)=    0.0233973812 RMS(Int)=    0.0231217628
done
Storing new coordinates                 .... done
The predicted energy change is          ....    -0.001582160
Previously predicted energy change      ....    -0.009832214
Actually observed energy change         ....    -0.007963719
Ratio of predicted to observed change   ....     0.809961928
New trust radius                        ....     0.675000000

                                .--------------------.
          ----------------------|Geometry convergence|-------------------------
          Item                value                   Tolerance       Converged
          ---------------------------------------------------------------------
          Energy change      -0.0079637193            0.0000050000      NO
          RMS gradient        0.0061892860            0.0001000000      NO
          MAX gradient        0.0235731476            0.0003000000      NO
          RMS step            0.0230505060            0.0020000000      NO
          MAX step            0.0657676662            0.0040000000      NO
          ........................................................
          Max(Bonds)      0.0348      Max(Angles)    3.14
          Max(Dihed)        0.60      Max(Improp)    0.00
          ---------------------------------------------------------------------

The optimization has not yet converged - more geometry cycles are needed


    ---------------------------------------------------------------------------
                         Redundant Internal Coordinates
                            (Angstroem and degrees)

        Definition                    Value    dE/dq     Step     New-Value
    ----------------------------------------------------------------------------
     1. B(H   1,C   0)                1.1112  0.000026 -0.0000    1.1112   
     2. B(H   2,C   0)                1.1094  0.000333  0.0000    1.1094   
     3. B(C   3,C   0)                1.4895 -0.007246  0.0070    1.4965   
     4. B(H   4,C   3)                1.1089 -0.000136  0.0081    1.1170   
     5. B(F   5,C   3)                1.4594  0.003911 -0.0301    1.4293   
     6. B(H   6,C   3)                1.0752 -0.023573  0.0348    1.1100   
     7. B(H   7,C   0)                1.1077 -0.000334  0.0006    1.1083   
     8. A(H   1,C   0,H   7)          108.35  0.001265   -0.28    108.08   
     9. A(H   1,C   0,C   3)          107.77 -0.003182    0.47    108.24   
    10. A(C   3,C   0,H   7)          111.62  0.000979   -0.15    111.47   
    11. A(H   2,C   0,H   7)          109.13 -0.000426    0.13    109.27   
    12. A(H   2,C   0,C   3)          111.85  0.000254    0.01    111.86   
    13. A(H   1,C   0,H   2)          107.97  0.001138   -0.20    107.77   
    14. A(C   0,C   3,H   6)          114.33  0.003699   -0.73    113.60   
    15. A(H   4,C   3,F   5)          103.65 -0.004610    0.79    104.44   
    16. A(C   0,C   3,F   5)          109.44 -0.002858    0.06    109.50   
    17. A(F   5,C   3,H   6)          102.25 -0.011464    3.14    105.40   
    18. A(H   4,C   3,H   6)          108.41 -0.000938    0.38    108.79   
    19. A(C   0,C   3,H   4)          117.18  0.012000   -2.22    114.96   
    20. D(H   4,C   3,C   0,H   2)     55.85 -0.000325   -0.55     55.30   
    21. D(H   4,C   3,C   0,H   7)    178.45  0.000020   -0.47    177.98   
    22. D(F   5,C   3,C   0,H   1)    179.76  0.000352    0.06    179.83   
    23. D(F   5,C   3,C   0,H   2)    -61.71 -0.000113    0.12    -61.59   
    24. D(F   5,C   3,C   0,H   7)     60.90  0.000233    0.20     61.09   
    25. D(H   4,C   3,C   0,H   1)    -62.68  0.000139   -0.60    -63.29   
    ----------------------------------------------------------------------------

Geometry step timings:
Preparation and reading OPT file:      0.000 s (17.305 %)
Internal coordinates            :      0.000 s ( 1.087 %)
B/P matrices and projection     :      0.000 s (14.090 %)
Hessian update/contruction      :      0.001 s (27.187 %)
Making the step                 :      0.000 s ( 8.322 %)
Converting the step to Cartesian:      0.000 s ( 1.797 %)
Storing new data                :      0.000 s ( 3.310 %)
Checking convergence            :      0.000 s ( 0.520 %)
Final printing                  :      0.001 s (26.194 %)
Total time                      :      0.002 s

Time for energy+gradient        :      5.868 s
Time for complete geometry iter :      6.525 s

         *************************************************************
         *                GEOMETRY OPTIMIZATION CYCLE   4            *
         *************************************************************
---------------------------------
CARTESIAN COORDINATES (ANGSTROEM)
---------------------------------
  C     -3.226764   -0.181759   -1.346904
  H     -3.231753    0.926271   -1.263557
  H     -2.307505   -0.554517   -0.850184
  C     -4.465912   -0.706441   -0.692111
  H     -4.539769   -0.502483    0.403653
  F     -4.486471   -2.132307   -0.789011
  H     -5.402494   -0.366032   -1.181015
  H     -3.193729   -0.445561   -2.422821

----------------------------
CARTESIAN COORDINATES (A.U.)
----------------------------
  NO LB      ZA    FRAG     MASS         X           Y           Z
   0 C     6.0000    0    12.011   -6.097701   -0.343475   -2.545280
   1 H     1.0000    0     1.008   -6.107129    1.750399   -2.387777
   2 H     1.0000    0     1.008   -4.360553   -1.047886   -1.606615
   3 C     6.0000    0    12.011   -8.439351   -1.334981   -1.307900
   4 H     1.0000    0     1.008   -8.578920   -0.949555    0.762794
   5 F     9.0000    0    18.998   -8.478202   -4.029476   -1.491015
   6 H     1.0000    0     1.008  -10.209233   -0.691700   -2.231794
   7 H     1.0000    0     1.008   -6.035274   -0.841988   -4.578468

--------------------------------
INTERNAL COORDINATES (ANGSTROEM)
--------------------------------
 C      0   0   0     0.000000000000     0.00000000     0.00000000
 H      1   0   0     1.111171509160     0.00000000     0.00000000
 H      1   2   0     1.109377050595   107.76974544     0.00000000
 C      1   2   3     1.496507351693   108.24469928   121.15887394
 H      4   1   2     1.117028639022   114.83138884   296.71108329
 F      4   1   2     1.429301979917   109.39070084   179.82483581
 H      4   1   2     1.109995487999   113.47954392    62.56892731
 H      1   2   3     1.108277811235   108.07778716   242.02194145

---------------------------
INTERNAL COORDINATES (A.U.)
---------------------------
 C      0   0   0     0.000000000000     0.00000000     0.00000000
 H      1   0   0     2.099809840129     0.00000000     0.00000000
 H      1   2   0     2.096418804883   107.76974544     0.00000000
 C      1   2   3     2.827989052099   108.24469928   121.15887394
 H      4   1   2     2.110878211499   114.83138884   296.71108329
 F      4   1   2     2.700989304715   109.39070084   179.82483581
 H      4   1   2     2.097587482207   113.47954392    62.56892731
 H      1   2   3     2.094341543536   108.07778716   242.02194145



           ************************************************************
           *        Program running with 4 parallel MPI-processes     *
           *              working on a common directory               *
           ************************************************************
------------------------------------------------------------------------------
                   ___                                                        
                  /   \      - P O W E R E D   B Y -                         
                 /     \                                                     
                 |  |  |   _    _      __       _____    __    __             
                 |  |  |  | |  | |    /  \     |  _  \  |  |  /  |          
                  \  \/   | |  | |   /    \    | | | |  |  | /  /          
                 / \  \   | |__| |  /  /\  \   | |_| |  |  |/  /          
                |  |  |   |  __  | /  /__\  \  |    /   |      \           
                |  |  |   | |  | | |   __   |  |    \   |  |\   \          
                \     /   | |  | | |  |  |  |  | |\  \  |  | \   \       
                 \___/    |_|  |_| |__|  |__|  |_| \__\ |__|  \__/        
                                                                              
                      - O R C A' S   B I G   F R I E N D -                    
                                      &                                       
                       - I N T E G R A L  F E E D E R -                       
                                                                              
 v1 FN, 2020, v2 2021, v3 2022-2024                                           
------------------------------------------------------------------------------


----------------------
SHARK INTEGRAL PACKAGE
----------------------

Number of atoms                             ...      8
Number of basis functions                   ...     79
Number of shells                            ...     39
Maximum angular momentum                    ...      2
Integral batch strategy                     ... SHARK/LIBINT Hybrid
RI-J (if used) integral strategy            ... SPLIT-RIJ (Revised 2003 algorithm where possible)
Printlevel                                  ...      1
Contraction scheme used                     ... SEGMENTED contraction
Prescreening option                         ... SCHWARTZ
   Thresh                                   ... 2.500e-11
   Tcut                                     ... 2.500e-12
   Tpresel                                  ... 2.500e-12 
Coulomb Range Separation                    ... NOT USED
Exchange Range Separation                   ... NOT USED
Multipole approximations                    ... NOT USED
Finite Nucleus Model                        ... NOT USED
CABS basis                                  ... NOT available
Auxiliary Coulomb fitting basis             ... AVAILABLE
   # of basis functions in Aux-J            ...    202
   # of shells in Aux-J                     ...     70
   Maximum angular momentum in Aux-J        ...      4
Auxiliary J/K fitting basis                 ... NOT available
Auxiliary Correlation fitting basis         ... NOT available
Auxiliary 'external' fitting basis          ... NOT available

Checking pre-screening integrals            ... done (  0.0 sec) Dimension = 39
Check shell pair data                       ... done (  0.0 sec)
Shell pair information
Shell pair cut-off parameter TPreSel        ...   2.5e-12
Total number of shell pairs                 ...       780
Shell pairs after pre-screening             ...       778
Total number of primitive shell pairs       ...      2332
Primitive shell pairs kept                  ...      2061
          la=0 lb=0:    252 shell pairs
          la=1 lb=0:    307 shell pairs
          la=1 lb=1:    105 shell pairs
          la=2 lb=0:     66 shell pairs
          la=2 lb=1:     42 shell pairs
          la=2 lb=2:      6 shell pairs

Calculating one electron integrals          ... done (  0.0 sec)
Calculating RI/J V-Matrix + Cholesky decomp.... done (  0.0 sec)
Calculating Nuclear repulsion               ... done (  0.0 sec) ENN=     78.309974763616 Eh

Diagonalization of the overlap matrix:
Smallest eigenvalue                        ... 4.203e-04
Time for diagonalization                   ...    0.001 sec
Threshold for overlap eigenvalues          ... 1.000e-07
Number of eigenvalues below threshold      ... 0
Time for construction of square roots      ...    0.003 sec
Total time needed                          ...    0.005 sec

-------------------
DFT GRID GENERATION
-------------------

General Integration Accuracy     IntAcc      ... 4.388
Radial Grid Type                 RadialGrid  ... OptM3 with GC (2021)
Angular Grid (max. ang.)         AngularGrid ... 4 (Lebedev-302)
Angular grid pruning method      GridPruning ... 4 (adaptive)
Weight generation scheme         WeightScheme... mBecke (2022)
Basis function cutoff            BFCut       ... 1.0000e-11
Integration weight cutoff        WCut        ... 1.0000e-14
Partially contracted basis set               ... off
Rotationally invariant grid construction     ... off
Angular grids for H and He will be reduced by one unit
Diffuse basis detected: some atoms will have their outermost
                        angular grid increased by 1.

Total number of grid points                  ...    35444
Total number of batches                      ...      558
Average number of points per batch           ...       63
Average number of grid points per atom       ...     4430
Initializing property integral containers    ... done (  0.0 sec)

SHARK setup successfully completed in   0.4 seconds

Maximum memory used throughout the entire STARTUP-calculation: 11.8 MB


           ************************************************************
           *        Program running with 4 parallel MPI-processes     *
           *              working on a common directory               *
           ************************************************************
Occupation numbers will be reassigned to an Aufbau configuration
             **** ENERGY FILE WAS UPDATED (job.en.tmp) ****
Finished Guess after   0.4 sec
Maximum memory used throughout the entire GUESS-calculation: 6.4 MB


           ************************************************************
           *        Program running with 4 parallel MPI-processes     *
           *              working on a common directory               *
           ************************************************************
--------------------
CPCM SOLVATION MODEL
--------------------
CPCM parameters:
  Epsilon                                         ...      35.6880
  Refrac                                          ...       1.3442
  Rsolv                                           ...       1.3000
  Surface type                                    ... GAUSSIAN VDW
  Discretization scheme                           ... Constant charge density
    Threshold for H atoms                         ...       5.0000 (charges/Ang^2)
    Threshold for non-H atoms                     ...       5.0000 (charges/Ang^2)
  Epsilon function type                           ...         CPCM
Solvent:                                          ... ACETONITRILE
SMD-CDS solvent descriptors:
  Soln                                            ...       1.3442
  Soln25                                          ...       1.3416
  Sola                                            ...       0.0700
  Solb                                            ...       0.3200
  Solg                                            ...      41.2500
  Solc                                            ...       0.0000
  Solh                                            ...       0.0000
Radii:
  Scheme                                          ... Element-dependent radii
  Radius for C  used is    3.4960 Bohr (=   1.8500 Ang.)
  Radius for H  used is    2.2677 Bohr (=   1.2000 Ang.)
  Radius for F  used is    3.2692 Bohr (=   1.7300 Ang.)
Calculating surface                               ...        done! (  0.0s)
Cavity surface points                             ...          688
Cavity Volume                                     ...     397.5878
Cavity Surface-area                               ...     292.7506
Calculating surface distance matrix               ...        done! (  0.0s)
Performing Cholesky decomposition & store         ...        done! (  0.0s)
Overall time for CPCM initialization              ...                 0.0s

----------------------------------------D-I-I-S--------------------------------------------
Iteration    Energy (Eh)           Delta-E    RMSDP     MaxDP     DIISErr   Damp  Time(sec)
-------------------------------------------------------------------------------------------
               ***  Starting incremental Fock matrix formation  ***
    1    -178.7294464257010418     0.00e+00  3.63e-04  5.82e-03  9.34e-03  0.700   0.2
    2    -178.7296809624446041    -2.35e-04  3.04e-04  4.40e-03  5.77e-03  0.700   0.1
                               ***Turning on AO-DIIS***
    3    -178.7298509000948457    -1.70e-04  2.22e-04  2.87e-03  4.03e-03  0.700   0.2
                              *** Initializing SOSCF ***
---------------------------------------S-O-S-C-F--------------------------------------
Iteration    Energy (Eh)           Delta-E    RMSDP     MaxDP     MaxGrad    Time(sec)
--------------------------------------------------------------------------------------
    4    -178.7299679680259032    -1.17e-04  5.34e-04  6.74e-03  3.11e-03     0.1
               *** Restarting incremental Fock matrix formation ***
    5    -178.7302438712717390    -2.76e-04  3.73e-05  6.58e-04  8.40e-05     0.1
    6    -178.7302438550792090     1.62e-08  1.52e-05  3.64e-04  1.09e-04     0.1
    7    -178.7302441654247218    -3.10e-07  4.46e-06  6.93e-05  1.85e-05     0.1
    8    -178.7302441644745272     9.50e-10  2.22e-06  4.68e-05  2.51e-05     0.1
                 **** Energy Check signals convergence ****

               *****************************************************
               *                     SUCCESS                       *
               *           SCF CONVERGED AFTER   8 CYCLES          *
               *****************************************************


SMD CDS free energy correction energy :                 0.02183     Kcal/mol
Total Energy after SMD CDS correction =              -178.730209382 Eh
             **** ENERGY FILE WAS UPDATED (job.en.tmp) ****

----------------
TOTAL SCF ENERGY
----------------

Total Energy       :       -178.73020938197644 Eh           -4863.49625 eV

Components:
Nuclear Repulsion  :         78.30997476361632 Eh            2130.92275 eV
Electronic Energy  :       -257.03247469246378 Eh           -6994.20922 eV
One Electron Energy:       -399.83827258808941 Eh          -10880.15253 eV
Two Electron Energy:        142.80579789562563 Eh            3885.94332 eV
CPCM Dielectric    :         -0.00774423562708 Eh              -0.21073 eV
SMD CDS (Gcds)     :          0.00003478249809 Eh               0.00095 eV

Virial components:
Potential Energy   :       -355.81965690521315 Eh           -9682.34511 eV
Kinetic Energy     :        177.08944752323669 Eh            4818.84885 eV
Virial Ratio       :          2.00926515883181

DFT components:
N(Alpha)           :       13.000017024671 electrons
N(Beta)            :       13.000017024671 electrons
N(Total)           :       26.000034049341 electrons
E(X)               :      -22.023141770173 Eh       
E(C)               :       -0.851607279096 Eh       
E(XC)              :      -22.874749049269 Eh       

CPCM Solvation Model Properties:
Surface-charge          :         -0.02924099506130
Corrected charge        :          0.00000000000000
Outlying charge corr.   :          0.00008775866138 Eh               0.00239 eV
Free-energy (cav+disp)  :          0.00003478249809 Eh               0.00095 eV

---------------
SCF CONVERGENCE
---------------

  Last Energy change         ...   -9.5019e-10  Tolerance :   1.0000e-08
  Last MAX-Density change    ...    4.6785e-05  Tolerance :   1.0000e-07
  Last RMS-Density change    ...    2.2201e-06  Tolerance :   5.0000e-09
  Last DIIS Error            ...    3.1119e-03  Tolerance :   5.0000e-07
  Last Orbital Gradient      ...    2.5084e-05  Tolerance :   1.0000e-05
  Last Orbital Rotation      ...    1.3190e-05  Tolerance :   1.0000e-05


Total SCF time: 0 days 0 hours 0 min 1 sec 
Finished LeanSCF after   1.6 sec

Maximum memory used throughout the entire LEANSCF-calculation: 8.3 MB


           ************************************************************
           *        Program running with 4 parallel MPI-processes     *
           *              working on a common directory               *
           ************************************************************

------------------------------------------------------------------------------
                         ORCA PROPERTY INTEGRAL CALCULATIONS
------------------------------------------------------------------------------

GBWName                                   ... job.gbw
Number of atoms                           ...      8
Number of basis functions                 ...     79
Max core memory                           ...   3000 MB

Dipole integrals                          ... YES
Quadrupole integrals                      ...  NO
Linear momentum integrals                 ...  NO
Angular momentum integrals                ...  NO
Higher moments length integrals           ...  NO
Higher moments velocity integrals         ...  NO
Kinetic energy integrals                  ...  NO
GIAO right hand sides                     ...  NO
GIAO dipole derivative integrals          ...  NO
SOC integrals                             ...  NO
EPR diamagnetic integrals (GIAO)          ...  NO
EPR gauge integrals                       ...  NO
Field gradient integrals                  ...  NO (   0 nuclei)
Spin-dipole/Fermi contact integrals       ...  NO (   0 nuclei)
Contact density integrals                 ...  NO (   0 nuclei)
Nucleus-orbit integrals                   ...  NO (   0 nuclei)
Geometric perturbations                   ...  NO (   8 nuclei)

Choice of electric origin   ... Center of mass
Position of electric origin ... ( -7.7247, -2.0497, -1.7630) 
Choice of magnetic origin   ... GIAO
Position of magnetic origin ... (  0.0000,  0.0000,  0.0000) 

Calculating integrals                     ... Electric Dipole (Length)     done (  0.0 sec)

Property integrals calculated in   0.0 sec

Maximum memory used throughout the entire PROPINT-calculation: 6.5 MB

-------------------------   --------------------
FINAL SINGLE POINT ENERGY      -178.730209381976
-------------------------   --------------------



           ************************************************************
           *        Program running with 4 parallel MPI-processes     *
           *              working on a common directory               *
           ************************************************************
------------------------------------------------------------------------------
                         ORCA SCF GRADIENT CALCULATION
------------------------------------------------------------------------------

Nuc. rep. gradient        (SHARK) ... done (  0.0 sec)
HCore & Overlap gradient  (SHARK) ... done (  0.0 sec)
Split-RIJ-J gradient      (SHARK) ... done (  0.1 sec)
XC gradient                       ... done (  0.4 sec)
CPCM gradient                     ... done (  0.1 sec)
SMD gradient                      ... done (  0.0 sec)

------------------
CARTESIAN GRADIENT
------------------

   1   C   :   -0.003083780   -0.006378275   -0.000693718
   2   H   :   -0.001183370    0.000108940    0.000976038
   3   H   :    0.000437441    0.000169745    0.000064116
   4   C   :    0.007032668    0.007589439   -0.007084841
   5   H   :   -0.002776729   -0.003684776    0.004663862
   6   F   :    0.000418839    0.004735290    0.001131357
   7   H   :   -0.000952658   -0.002488870    0.000680618
   8   H   :    0.000107590   -0.000051494    0.000262568

Difference to translation invariance:
           :   -0.0000000000   -0.0000000000    0.0000000000

Difference to rotation invariance:
           :   -0.0000362856    0.0000197109   -0.0000360291

Norm of the Cartesian gradient     ...    0.0168843620
RMS gradient                       ...    0.0034465060
MAX gradient                       ...    0.0075894393

-------
TIMINGS
-------

Total SCF gradient time     ....        0.689 sec

Densities                   ....       0.000 sec  (  0.0%)
One electron gradient       ....       0.013 sec  (  1.9%)
RI-J Coulomb gradient       ....       0.147 sec  ( 21.3%)
XC gradient                 ....       0.351 sec  ( 50.9%)
CPCM gradient               ....       0.100 sec  ( 14.5%)
   A-Matrix (El+Nuc)        ....       0.034 sec  (  5.0%)
   Potential                ....       0.065 sec  (  9.5%)
SMD gradient                ....       0.003 sec  (  0.5%)

Maximum memory used throughout the entire SCFGRAD-calculation: 10.4 MB
------------------------------------------------------------------------------
                         ORCA GEOMETRY RELAXATION STEP
------------------------------------------------------------------------------

Reading the OPT-File                    .... done
Getting information on internals        .... done
Copying old internal coords+grads       .... done
Making the new internal coordinates     .... (2022 redundants) done
Validating the new internal coordinates .... (2022 redundants) done
Calculating the B-matrix                .... done
Calculating the G,G- and P matrices     .... done
Transforming gradient to internals      .... done
Projecting the internal gradient        .... done
Number of atoms                         ....   8
Number of internal coordinates          ....  25
Current Energy                          ....  -178.730209382 Eh
Current gradient norm                   ....     0.016884362 Eh/bohr
Maximum allowed component of the step   ....  0.300
Current trust radius                    ....  0.675
Updating the Hessian (BFGS)             .... done
Forming the augmented Hessian           .... done
Diagonalizing the augmented Hessian     .... done
Last element of RFO vector              ....  0.997936919
Lowest eigenvalues of augmented Hessian:
 -0.000774373  0.014298143  0.085403399  0.127920479  0.131634306
Length of the computed step             ....  0.064334791
The final length of the internal step   ....  0.064334791
Converting the step to Cartesian space:
 Initial RMS(Int)=    0.0128669582
Transforming coordinates:
 Iter   0:  RMS(Cart)=    0.0159202870 RMS(Int)=    0.0128426490
done
Storing new coordinates                 .... done
The predicted energy change is          ....    -0.000388789
Previously predicted energy change      ....    -0.001582160
Actually observed energy change         ....    -0.001715514
Ratio of predicted to observed change   ....     1.084286063
New trust radius                        ....     0.700000000

                                .--------------------.
          ----------------------|Geometry convergence|-------------------------
          Item                value                   Tolerance       Converged
          ---------------------------------------------------------------------
          Energy change      -0.0017155138            0.0000050000      NO
          RMS gradient        0.0027216004            0.0001000000      NO
          MAX gradient        0.0073193240            0.0003000000      NO
          RMS step            0.0128669582            0.0020000000      NO
          MAX step            0.0305975556            0.0040000000      NO
          ........................................................
          Max(Bonds)      0.0087      Max(Angles)    1.75
          Max(Dihed)        0.87      Max(Improp)    0.00
          ---------------------------------------------------------------------

The optimization has not yet converged - more geometry cycles are needed


    ---------------------------------------------------------------------------
                         Redundant Internal Coordinates
                            (Angstroem and degrees)

        Definition                    Value    dE/dq     Step     New-Value
    ----------------------------------------------------------------------------
     1. B(H   1,C   0)                1.1112  0.000189 -0.0003    1.1108   
     2. B(H   2,C   0)                1.1094  0.000334 -0.0005    1.1089   
     3. B(C   3,C   0)                1.4965 -0.005506  0.0087    1.5053   
     4. B(H   4,C   3)                1.1170  0.004085 -0.0028    1.1142   
     5. B(F   5,C   3)                1.4293 -0.004805  0.0054    1.4347   
     6. B(H   6,C   3)                1.1100 -0.000259  0.0023    1.1123   
     7. B(H   7,C   0)                1.1083 -0.000241  0.0006    1.1088   
     8. A(H   1,C   0,H   7)          108.08  0.000896   -0.22    107.86   
     9. A(H   1,C   0,C   3)          108.24 -0.002452    0.62    108.86   
    10. A(C   3,C   0,H   7)          111.47  0.000454   -0.15    111.32   
    11. A(H   2,C   0,H   7)          109.27 -0.000146   -0.03    109.24   
    12. A(H   2,C   0,C   3)          111.86  0.000760   -0.15    111.71   
    13. A(H   1,C   0,H   2)          107.77  0.000482   -0.06    107.71   
    14. A(C   0,C   3,H   6)          113.48  0.002481   -0.98    112.50   
    15. A(H   4,C   3,F   5)          104.34 -0.003184    1.31    105.65   
    16. A(C   0,C   3,F   5)          109.39 -0.003700    0.87    110.27   
    17. A(F   5,C   3,H   6)          105.30 -0.004085    1.49    106.79   
    18. A(H   4,C   3,H   6)          108.68 -0.000347   -0.11    108.57   
    19. A(C   0,C   3,H   4)          114.83  0.007319   -1.75    113.08   
    20. D(H   4,C   3,C   0,H   2)     55.30 -0.001425    0.87     56.17   
    21. D(H   4,C   3,C   0,H   7)    177.98 -0.000733    0.61    178.59   
    22. D(F   5,C   3,C   0,H   1)    179.82  0.001105   -0.74    179.08   
    23. D(F   5,C   3,C   0,H   2)    -61.59  0.000589   -0.52    -62.11   
    24. D(F   5,C   3,C   0,H   7)     61.09  0.001281   -0.78     60.32   
    25. D(H   4,C   3,C   0,H   1)    -63.29 -0.000909    0.65    -62.64   
    ----------------------------------------------------------------------------

Geometry step timings:
Preparation and reading OPT file:      0.000 s ( 0.735 %)
Internal coordinates            :      0.000 s ( 0.035 %)
B/P matrices and projection     :      0.000 s ( 0.476 %)
Hessian update/contruction      :      0.060 s (96.244 %)
Making the step                 :      0.000 s ( 0.378 %)
Converting the step to Cartesian:      0.000 s ( 0.109 %)
Storing new data                :      0.000 s ( 0.156 %)
Checking convergence            :      0.000 s ( 0.023 %)
Final printing                  :      0.001 s ( 1.834 %)
Total time                      :      0.062 s

Time for energy+gradient        :      5.547 s
Time for complete geometry iter :      6.267 s

         *************************************************************
         *                GEOMETRY OPTIMIZATION CYCLE   5            *
         *************************************************************
---------------------------------
CARTESIAN COORDINATES (ANGSTROEM)
---------------------------------
  C     -3.227557   -0.179447   -1.344986
  H     -3.236826    0.928690   -1.268124
  H     -2.307897   -0.544552   -0.844416
  C     -4.470133   -0.722899   -0.691962
  H     -4.525963   -0.494244    0.397143
  F     -4.498395   -2.153826   -0.791845
  H     -5.399481   -0.351187   -1.177016
  H     -3.188147   -0.445364   -2.420743

----------------------------
CARTESIAN COORDINATES (A.U.)
----------------------------
  NO LB      ZA    FRAG     MASS         X           Y           Z
   0 C     6.0000    0    12.011   -6.099199   -0.339105   -2.541655
   1 H     1.0000    0     1.008   -6.116715    1.754969   -2.396408
   2 H     1.0000    0     1.008   -4.361292   -1.029054   -1.595716
   3 C     6.0000    0    12.011   -8.447328   -1.366082   -1.307618
   4 H     1.0000    0     1.008   -8.552831   -0.933987    0.750491
   5 F     9.0000    0    18.998   -8.500734   -4.070141   -1.496371
   6 H     1.0000    0     1.008  -10.203541   -0.663647   -2.224238
   7 H     1.0000    0     1.008   -6.024724   -0.841615   -4.574541

--------------------------------
INTERNAL COORDINATES (ANGSTROEM)
--------------------------------
 C      0   0   0     0.000000000000     0.00000000     0.00000000
 H      1   0   0     1.110837364407     0.00000000     0.00000000
 H      1   2   0     1.108894628263   107.70624115     0.00000000
 C      1   2   3     1.505250040672   108.85984336   121.29175132
 H      4   1   2     1.114248122606   113.03633141   297.28810682
 F      4   1   2     1.434686963081   110.25197757   179.14805891
 H      4   1   2     1.112266191704   112.32682721    60.35497106
 H      1   2   3     1.108836128687   107.85795919   242.20793239

---------------------------
INTERNAL COORDINATES (A.U.)
---------------------------
 C      0   0   0     0.000000000000     0.00000000     0.00000000
 H      1   0   0     2.099178398056     0.00000000     0.00000000
 H      1   2   0     2.095507158793   107.70624115     0.00000000
 C      1   2   3     2.844510339944   108.85984336   121.29175132
 H      4   1   2     2.105623796960   113.03633141   297.28810682
 F      4   1   2     2.711165448131   110.25197757   179.14805891
 H      4   1   2     2.101878490341   112.32682721    60.35497106
 H      1   2   3     2.095396610615   107.85795919   242.20793239



           ************************************************************
           *        Program running with 4 parallel MPI-processes     *
           *              working on a common directory               *
           ************************************************************
------------------------------------------------------------------------------
                   ___                                                        
                  /   \      - P O W E R E D   B Y -                         
                 /     \                                                     
                 |  |  |   _    _      __       _____    __    __             
                 |  |  |  | |  | |    /  \     |  _  \  |  |  /  |          
                  \  \/   | |  | |   /    \    | | | |  |  | /  /          
                 / \  \   | |__| |  /  /\  \   | |_| |  |  |/  /          
                |  |  |   |  __  | /  /__\  \  |    /   |      \           
                |  |  |   | |  | | |   __   |  |    \   |  |\   \          
                \     /   | |  | | |  |  |  |  | |\  \  |  | \   \       
                 \___/    |_|  |_| |__|  |__|  |_| \__\ |__|  \__/        
                                                                              
                      - O R C A' S   B I G   F R I E N D -                    
                                      &                                       
                       - I N T E G R A L  F E E D E R -                       
                                                                              
 v1 FN, 2020, v2 2021, v3 2022-2024                                           
------------------------------------------------------------------------------


----------------------
SHARK INTEGRAL PACKAGE
----------------------

Number of atoms                             ...      8
Number of basis functions                   ...     79
Number of shells                            ...     39
Maximum angular momentum                    ...      2
Integral batch strategy                     ... SHARK/LIBINT Hybrid
RI-J (if used) integral strategy            ... SPLIT-RIJ (Revised 2003 algorithm where possible)
Printlevel                                  ...      1
Contraction scheme used                     ... SEGMENTED contraction
Prescreening option                         ... SCHWARTZ
   Thresh                                   ... 2.500e-11
   Tcut                                     ... 2.500e-12
   Tpresel                                  ... 2.500e-12 
Coulomb Range Separation                    ... NOT USED
Exchange Range Separation                   ... NOT USED
Multipole approximations                    ... NOT USED
Finite Nucleus Model                        ... NOT USED
CABS basis                                  ... NOT available
Auxiliary Coulomb fitting basis             ... AVAILABLE
   # of basis functions in Aux-J            ...    202
   # of shells in Aux-J                     ...     70
   Maximum angular momentum in Aux-J        ...      4
Auxiliary J/K fitting basis                 ... NOT available
Auxiliary Correlation fitting basis         ... NOT available
Auxiliary 'external' fitting basis          ... NOT available

Checking pre-screening integrals            ... done (  0.0 sec) Dimension = 39
Check shell pair data                       ... done (  0.0 sec)
Shell pair information
Shell pair cut-off parameter TPreSel        ...   2.5e-12
Total number of shell pairs                 ...       780
Shell pairs after pre-screening             ...       778
Total number of primitive shell pairs       ...      2332
Primitive shell pairs kept                  ...      2058
          la=0 lb=0:    252 shell pairs
          la=1 lb=0:    307 shell pairs
          la=1 lb=1:    105 shell pairs
          la=2 lb=0:     66 shell pairs
          la=2 lb=1:     42 shell pairs
          la=2 lb=2:      6 shell pairs

Calculating one electron integrals          ... done (  0.0 sec)
Calculating RI/J V-Matrix + Cholesky decomp.... done (  0.0 sec)
Calculating Nuclear repulsion               ... done (  0.0 sec) ENN=     77.949900792410 Eh

Diagonalization of the overlap matrix:
Smallest eigenvalue                        ... 4.279e-04
Time for diagonalization                   ...    0.001 sec
Threshold for overlap eigenvalues          ... 1.000e-07
Number of eigenvalues below threshold      ... 0
Time for construction of square roots      ...    0.003 sec
Total time needed                          ...    0.005 sec

-------------------
DFT GRID GENERATION
-------------------

General Integration Accuracy     IntAcc      ... 4.388
Radial Grid Type                 RadialGrid  ... OptM3 with GC (2021)
Angular Grid (max. ang.)         AngularGrid ... 4 (Lebedev-302)
Angular grid pruning method      GridPruning ... 4 (adaptive)
Weight generation scheme         WeightScheme... mBecke (2022)
Basis function cutoff            BFCut       ... 1.0000e-11
Integration weight cutoff        WCut        ... 1.0000e-14
Partially contracted basis set               ... off
Rotationally invariant grid construction     ... off
Angular grids for H and He will be reduced by one unit
Diffuse basis detected: some atoms will have their outermost
                        angular grid increased by 1.

Total number of grid points                  ...    35453
Total number of batches                      ...      558
Average number of points per batch           ...       63
Average number of grid points per atom       ...     4432
Initializing property integral containers    ... done (  0.0 sec)

SHARK setup successfully completed in   0.3 seconds

Maximum memory used throughout the entire STARTUP-calculation: 11.8 MB


           ************************************************************
           *        Program running with 4 parallel MPI-processes     *
           *              working on a common directory               *
           ************************************************************
Occupation numbers will be reassigned to an Aufbau configuration
             **** ENERGY FILE WAS UPDATED (job.en.tmp) ****
Finished Guess after   0.4 sec
Maximum memory used throughout the entire GUESS-calculation: 6.4 MB


           ************************************************************
           *        Program running with 4 parallel MPI-processes     *
           *              working on a common directory               *
           ************************************************************
--------------------
CPCM SOLVATION MODEL
--------------------
CPCM parameters:
  Epsilon                                         ...      35.6880
  Refrac                                          ...       1.3442
  Rsolv                                           ...       1.3000
  Surface type                                    ... GAUSSIAN VDW
  Discretization scheme                           ... Constant charge density
    Threshold for H atoms                         ...       5.0000 (charges/Ang^2)
    Threshold for non-H atoms                     ...       5.0000 (charges/Ang^2)
  Epsilon function type                           ...         CPCM
Solvent:                                          ... ACETONITRILE
SMD-CDS solvent descriptors:
  Soln                                            ...       1.3442
  Soln25                                          ...       1.3416
  Sola                                            ...       0.0700
  Solb                                            ...       0.3200
  Solg                                            ...      41.2500
  Solc                                            ...       0.0000
  Solh                                            ...       0.0000
Radii:
  Scheme                                          ... Element-dependent radii
  Radius for C  used is    3.4960 Bohr (=   1.8500 Ang.)
  Radius for H  used is    2.2677 Bohr (=   1.2000 Ang.)
  Radius for F  used is    3.2692 Bohr (=   1.7300 Ang.)
Calculating surface                               ...        done! (  0.0s)
Cavity surface points                             ...          688
Cavity Volume                                     ...     397.9307
Cavity Surface-area                               ...     293.0613
Calculating surface distance matrix               ...        done! (  0.0s)
Performing Cholesky decomposition & store         ...        done! (  0.0s)
Overall time for CPCM initialization              ...                 0.0s

----------------------------------------D-I-I-S--------------------------------------------
Iteration    Energy (Eh)           Delta-E    RMSDP     MaxDP     DIISErr   Damp  Time(sec)
-------------------------------------------------------------------------------------------
               ***  Starting incremental Fock matrix formation  ***
    1    -178.7305253923822193     0.00e+00  1.38e-04  1.28e-03  3.38e-03  0.700   0.1
                              *** Initializing SOSCF ***
---------------------------------------S-O-S-C-F--------------------------------------
Iteration    Energy (Eh)           Delta-E    RMSDP     MaxDP     MaxGrad    Time(sec)
--------------------------------------------------------------------------------------
    2    -178.7305628624877158    -3.75e-05  4.11e-04  4.24e-03  2.45e-03     0.2
               *** Restarting incremental Fock matrix formation ***
    3    -178.7306513691743817    -8.85e-05  1.05e-04  1.94e-03  3.15e-04     0.1
    4    -178.7306471731022839     4.20e-06  5.86e-05  1.27e-03  5.96e-04     0.1
    5    -178.7306539137103982    -6.74e-06  1.42e-05  1.84e-04  4.61e-05     0.1
    6    -178.7306538894744676     2.42e-08  7.53e-06  1.25e-04  5.66e-05     0.1
    7    -178.7306539722860634    -8.28e-08  1.73e-06  1.86e-05  6.78e-06     0.1
    8    -178.7306539727956078    -5.10e-10  6.77e-07  8.20e-06  5.20e-06     0.1
                 **** Energy Check signals convergence ****

               *****************************************************
               *                     SUCCESS                       *
               *           SCF CONVERGED AFTER   8 CYCLES          *
               *****************************************************


SMD CDS free energy correction energy :                 0.02843     Kcal/mol
Total Energy after SMD CDS correction =              -178.730608661 Eh
             **** ENERGY FILE WAS UPDATED (job.en.tmp) ****

----------------
TOTAL SCF ENERGY
----------------

Total Energy       :       -178.73060866107920 Eh           -4863.50712 eV

Components:
Nuclear Repulsion  :         77.94990079241016 Eh            2121.12464 eV
Electronic Energy  :       -256.67279347462352 Eh           -6984.42179 eV
One Electron Energy:       -399.11825159139613 Eh          -10860.55977 eV
Two Electron Energy:        142.44545811677264 Eh            3876.13797 eV
CPCM Dielectric    :         -0.00776129058227 Eh              -0.21120 eV
SMD CDS (Gcds)     :          0.00004531171641 Eh               0.00123 eV

Virial components:
Potential Energy   :       -355.78918009898132 Eh           -9681.51579 eV
Kinetic Energy     :        177.05857143790215 Eh            4818.00867 eV
Virial Ratio       :          2.00944341304461

DFT components:
N(Alpha)           :       13.000015927956 electrons
N(Beta)            :       13.000015927956 electrons
N(Total)           :       26.000031855911 electrons
E(X)               :      -22.016525733866 Eh       
E(C)               :       -0.850983468279 Eh       
E(XC)              :      -22.867509202145 Eh       

CPCM Solvation Model Properties:
Surface-charge          :         -0.02923372916656
Corrected charge        :         -0.00000000000000
Outlying charge corr.   :          0.00008759850554 Eh               0.00238 eV
Free-energy (cav+disp)  :          0.00004531171641 Eh               0.00123 eV

---------------
SCF CONVERGENCE
---------------

  Last Energy change         ...    5.0954e-10  Tolerance :   1.0000e-08
  Last MAX-Density change    ...    8.1982e-06  Tolerance :   1.0000e-07
  Last RMS-Density change    ...    6.7687e-07  Tolerance :   5.0000e-09
  Last DIIS Error            ...    2.4497e-03  Tolerance :   5.0000e-07
  Last Orbital Gradient      ...    5.2049e-06  Tolerance :   1.0000e-05
  Last Orbital Rotation      ...    2.5012e-06  Tolerance :   1.0000e-05


Total SCF time: 0 days 0 hours 0 min 1 sec 
Finished LeanSCF after   1.6 sec

Maximum memory used throughout the entire LEANSCF-calculation: 8.5 MB


           ************************************************************
           *        Program running with 4 parallel MPI-processes     *
           *              working on a common directory               *
           ************************************************************

------------------------------------------------------------------------------
                         ORCA PROPERTY INTEGRAL CALCULATIONS
------------------------------------------------------------------------------

GBWName                                   ... job.gbw
Number of atoms                           ...      8
Number of basis functions                 ...     79
Max core memory                           ...   3000 MB

Dipole integrals                          ... YES
Quadrupole integrals                      ...  NO
Linear momentum integrals                 ...  NO
Angular momentum integrals                ...  NO
Higher moments length integrals           ...  NO
Higher moments velocity integrals         ...  NO
Kinetic energy integrals                  ...  NO
GIAO right hand sides                     ...  NO
GIAO dipole derivative integrals          ...  NO
SOC integrals                             ...  NO
EPR diamagnetic integrals (GIAO)          ...  NO
EPR gauge integrals                       ...  NO
Field gradient integrals                  ...  NO (   0 nuclei)
Spin-dipole/Fermi contact integrals       ...  NO (   0 nuclei)
Contact density integrals                 ...  NO (   0 nuclei)
Nucleus-orbit integrals                   ...  NO (   0 nuclei)
Geometric perturbations                   ...  NO (   8 nuclei)

Choice of electric origin   ... Center of mass
Position of electric origin ... ( -7.7353, -2.0710, -1.7641) 
Choice of magnetic origin   ... GIAO
Position of magnetic origin ... (  0.0000,  0.0000,  0.0000) 

Calculating integrals                     ... Electric Dipole (Length)     done (  0.0 sec)

Property integrals calculated in   0.0 sec

Maximum memory used throughout the entire PROPINT-calculation: 6.5 MB

-------------------------   --------------------
FINAL SINGLE POINT ENERGY      -178.730608661079
-------------------------   --------------------



           ************************************************************
           *        Program running with 4 parallel MPI-processes     *
           *              working on a common directory               *
           ************************************************************
------------------------------------------------------------------------------
                         ORCA SCF GRADIENT CALCULATION
------------------------------------------------------------------------------

Nuc. rep. gradient        (SHARK) ... done (  0.0 sec)
HCore & Overlap gradient  (SHARK) ... done (  0.0 sec)
Split-RIJ-J gradient      (SHARK) ... done (  0.1 sec)
XC gradient                       ... done (  0.4 sec)
CPCM gradient                     ... done (  0.1 sec)
SMD gradient                      ... done (  0.0 sec)

------------------
CARTESIAN GRADIENT
------------------

   1   C   :   -0.000727810   -0.001145250   -0.000290780
   2   H   :    0.000005659    0.000307957    0.000155788
   3   H   :   -0.000030137    0.000331144    0.000121784
   4   C   :    0.002987586    0.002088612   -0.003414543
   5   H   :   -0.001254950   -0.000195761    0.002533925
   6   F   :    0.000288176   -0.002641052    0.000545100
   7   H   :   -0.001096024    0.001322902    0.000220274
   8   H   :   -0.000172500   -0.000068553    0.000128452

Difference to translation invariance:
           :   -0.0000000000    0.0000000000   -0.0000000000

Difference to rotation invariance:
           :   -0.0000178885    0.0000258359   -0.0000242735

Norm of the Cartesian gradient     ...    0.0067496382
RMS gradient                       ...    0.0013777641
MAX gradient                       ...    0.0034145430

-------
TIMINGS
-------

Total SCF gradient time     ....        0.692 sec

Densities                   ....       0.000 sec  (  0.0%)
One electron gradient       ....       0.013 sec  (  1.8%)
RI-J Coulomb gradient       ....       0.147 sec  ( 21.3%)
XC gradient                 ....       0.353 sec  ( 51.1%)
CPCM gradient               ....       0.100 sec  ( 14.5%)
   A-Matrix (El+Nuc)        ....       0.034 sec  (  4.9%)
   Potential                ....       0.066 sec  (  9.5%)
SMD gradient                ....       0.003 sec  (  0.4%)

Maximum memory used throughout the entire SCFGRAD-calculation: 10.4 MB
------------------------------------------------------------------------------
                         ORCA GEOMETRY RELAXATION STEP
------------------------------------------------------------------------------

Reading the OPT-File                    .... done
Getting information on internals        .... done
Copying old internal coords+grads       .... done
Making the new internal coordinates     .... (2022 redundants) done
Validating the new internal coordinates .... (2022 redundants) done
Calculating the B-matrix                .... done
Calculating the G,G- and P matrices     .... done
Transforming gradient to internals      .... done
Projecting the internal gradient        .... done
Number of atoms                         ....   8
Number of internal coordinates          ....  25
Current Energy                          ....  -178.730608661 Eh
Current gradient norm                   ....     0.006749638 Eh/bohr
Maximum allowed component of the step   ....  0.300
Current trust radius                    ....  0.700
Updating the Hessian (BFGS)             .... done
Forming the augmented Hessian           .... done
Diagonalizing the augmented Hessian     .... done
Last element of RFO vector              ....  0.999604778
Lowest eigenvalues of augmented Hessian:
 -0.000101197  0.014293775  0.078338272  0.116032758  0.131629673
Length of the computed step             ....  0.028123158
The final length of the internal step   ....  0.028123158
Converting the step to Cartesian space:
 Initial RMS(Int)=    0.0056246316
Transforming coordinates:
 Iter   0:  RMS(Cart)=    0.0046140640 RMS(Int)=    0.0056165885
done
Storing new coordinates                 .... done
The predicted energy change is          ....    -0.000050638
Previously predicted energy change      ....    -0.000388789
Actually observed energy change         ....    -0.000399279
Ratio of predicted to observed change   ....     1.026981124
New trust radius                        ....     0.700000000

                                .--------------------.
          ----------------------|Geometry convergence|-------------------------
          Item                value                   Tolerance       Converged
          ---------------------------------------------------------------------
          Energy change      -0.0003992791            0.0000050000      NO
          RMS gradient        0.0009703469            0.0001000000      NO
          MAX gradient        0.0025913839            0.0003000000      NO
          RMS step            0.0056246316            0.0020000000      NO
          MAX step            0.0154130995            0.0040000000      NO
          ........................................................
          Max(Bonds)      0.0082      Max(Angles)    0.61
          Max(Dihed)        0.55      Max(Improp)    0.00
          ---------------------------------------------------------------------

The optimization has not yet converged - more geometry cycles are needed


    ---------------------------------------------------------------------------
                         Redundant Internal Coordinates
                            (Angstroem and degrees)

        Definition                    Value    dE/dq     Step     New-Value
    ----------------------------------------------------------------------------
     1. B(H   1,C   0)                1.1108  0.000319 -0.0006    1.1103   
     2. B(H   2,C   0)                1.1089 -0.000079  0.0001    1.1090   
     3. B(C   3,C   0)                1.5053 -0.001021  0.0029    1.5081   
     4. B(H   4,C   3)                1.1142  0.002498 -0.0029    1.1114   
     5. B(F   5,C   3)                1.4347  0.002591 -0.0082    1.4265   
     6. B(H   6,C   3)                1.1123  0.001262 -0.0022    1.1101   
     7. B(H   7,C   0)                1.1088 -0.000115  0.0003    1.1091   
     8. A(H   1,C   0,H   7)          107.86  0.000166   -0.07    107.78   
     9. A(H   1,C   0,C   3)          108.86 -0.000126    0.15    109.01   
    10. A(C   3,C   0,H   7)          111.32 -0.000224    0.00    111.32   
    11. A(H   2,C   0,H   7)          109.24  0.000176   -0.06    109.17   
    12. A(H   2,C   0,C   3)          111.71  0.000175   -0.05    111.66   
    13. A(H   1,C   0,H   2)          107.71 -0.000167    0.05    107.75   
    14. A(C   0,C   3,H   6)          112.33 -0.000222   -0.23    112.10   
    15. A(H   4,C   3,F   5)          105.77 -0.001035    0.53    106.30   
    16. A(C   0,C   3,F   5)          110.25  0.000289    0.09    110.34   
    17. A(F   5,C   3,H   6)          106.65  0.001296    0.02    106.67   
    18. A(H   4,C   3,H   6)          108.41 -0.001691    0.29    108.70   
    19. A(C   0,C   3,H   4)          113.04  0.001310   -0.61    112.43   
    20. D(H   4,C   3,C   0,H   2)     56.10 -0.000327    0.55     56.65   
    21. D(H   4,C   3,C   0,H   7)    178.52 -0.000136    0.43    178.95   
    22. D(F   5,C   3,C   0,H   1)    179.15  0.000119    0.08    179.23   
    23. D(F   5,C   3,C   0,H   2)    -62.04 -0.000061    0.20    -61.84   
    24. D(F   5,C   3,C   0,H   7)     60.38  0.000130    0.08     60.47   
    25. D(H   4,C   3,C   0,H   1)    -62.71 -0.000147    0.43    -62.28   
    ----------------------------------------------------------------------------

Geometry step timings:
Preparation and reading OPT file:      0.001 s (12.730 %)
Internal coordinates            :      0.000 s ( 0.484 %)
B/P matrices and projection     :      0.000 s ( 6.840 %)
Hessian update/contruction      :      0.003 s (54.079 %)
Making the step                 :      0.000 s ( 3.488 %)
Converting the step to Cartesian:      0.000 s ( 0.698 %)
Storing new data                :      0.000 s ( 1.240 %)
Checking convergence            :      0.000 s ( 0.194 %)
Final printing                  :      0.001 s (20.171 %)
Total time                      :      0.005 s

Time for energy+gradient        :      5.957 s
Time for complete geometry iter :      6.623 s

         *************************************************************
         *                GEOMETRY OPTIMIZATION CYCLE   6            *
         *************************************************************
---------------------------------
CARTESIAN COORDINATES (ANGSTROEM)
---------------------------------
  C     -3.228392   -0.179267   -1.343854
  H     -3.236604    0.928202   -1.265540
  H     -2.308662   -0.546697   -0.844943
  C     -4.472534   -0.727088   -0.690877
  H     -4.521821   -0.489704    0.393709
  F     -4.499610   -2.149836   -0.791093
  H     -5.398065   -0.355996   -1.178766
  H     -3.188710   -0.442443   -2.420586

----------------------------
CARTESIAN COORDINATES (A.U.)
----------------------------
  NO LB      ZA    FRAG     MASS         X           Y           Z
   0 C     6.0000    0    12.011   -6.100777   -0.338766   -2.539516
   1 H     1.0000    0     1.008   -6.116296    1.754048   -2.391524
   2 H     1.0000    0     1.008   -4.362739   -1.033107   -1.596710
   3 C     6.0000    0    12.011   -8.451865   -1.373997   -1.305569
   4 H     1.0000    0     1.008   -8.545003   -0.925407    0.744002
   5 F     9.0000    0    18.998   -8.503030   -4.062602   -1.494948
   6 H     1.0000    0     1.008  -10.200865   -0.672735   -2.227545
   7 H     1.0000    0     1.008   -6.025789   -0.836096   -4.574244

--------------------------------
INTERNAL COORDINATES (ANGSTROEM)
--------------------------------
 C      0   0   0     0.000000000000     0.00000000     0.00000000
 H      1   0   0     1.110265416569     0.00000000     0.00000000
 H      1   2   0     1.108972570773   107.75161417     0.00000000
 C      1   2   3     1.508103408829   109.00762177   121.34048749
 H      4   1   2     1.111353682640   112.42948196   297.71808700
 F      4   1   2     1.426530702098   110.33624367   179.23481696
 H      4   1   2     1.110113436819   112.09108519    60.52258031
 H      1   2   3     1.109138271337   107.78355663   242.29874608

---------------------------
INTERNAL COORDINATES (A.U.)
---------------------------
 C      0   0   0     0.000000000000     0.00000000     0.00000000
 H      1   0   0     2.098097573280     0.00000000     0.00000000
 H      1   2   0     2.095654448791   107.75161417     0.00000000
 C      1   2   3     2.849902424320   109.00762177   121.34048749
 H      4   1   2     2.100154098115   112.42948196   297.71808700
 F      4   1   2     2.695752348596   110.33624367   179.23481696
 H      4   1   2     2.097810373175   112.09108519    60.52258031
 H      1   2   3     2.095967577477   107.78355663   242.29874608



           ************************************************************
           *        Program running with 4 parallel MPI-processes     *
           *              working on a common directory               *
           ************************************************************
------------------------------------------------------------------------------
                   ___                                                        
                  /   \      - P O W E R E D   B Y -                         
                 /     \                                                     
                 |  |  |   _    _      __       _____    __    __             
                 |  |  |  | |  | |    /  \     |  _  \  |  |  /  |          
                  \  \/   | |  | |   /    \    | | | |  |  | /  /          
                 / \  \   | |__| |  /  /\  \   | |_| |  |  |/  /          
                |  |  |   |  __  | /  /__\  \  |    /   |      \           
                |  |  |   | |  | | |   __   |  |    \   |  |\   \          
                \     /   | |  | | |  |  |  |  | |\  \  |  | \   \       
                 \___/    |_|  |_| |__|  |__|  |_| \__\ |__|  \__/        
                                                                              
                      - O R C A' S   B I G   F R I E N D -                    
                                      &                                       
                       - I N T E G R A L  F E E D E R -                       
                                                                              
 v1 FN, 2020, v2 2021, v3 2022-2024                                           
------------------------------------------------------------------------------


----------------------
SHARK INTEGRAL PACKAGE
----------------------

Number of atoms                             ...      8
Number of basis functions                   ...     79
Number of shells                            ...     39
Maximum angular momentum                    ...      2
Integral batch strategy                     ... SHARK/LIBINT Hybrid
RI-J (if used) integral strategy            ... SPLIT-RIJ (Revised 2003 algorithm where possible)
Printlevel                                  ...      1
Contraction scheme used                     ... SEGMENTED contraction
Prescreening option                         ... SCHWARTZ
   Thresh                                   ... 2.500e-11
   Tcut                                     ... 2.500e-12
   Tpresel                                  ... 2.500e-12 
Coulomb Range Separation                    ... NOT USED
Exchange Range Separation                   ... NOT USED
Multipole approximations                    ... NOT USED
Finite Nucleus Model                        ... NOT USED
CABS basis                                  ... NOT available
Auxiliary Coulomb fitting basis             ... AVAILABLE
   # of basis functions in Aux-J            ...    202
   # of shells in Aux-J                     ...     70
   Maximum angular momentum in Aux-J        ...      4
Auxiliary J/K fitting basis                 ... NOT available
Auxiliary Correlation fitting basis         ... NOT available
Auxiliary 'external' fitting basis          ... NOT available

Checking pre-screening integrals            ... done (  0.0 sec) Dimension = 39
Check shell pair data                       ... done (  0.0 sec)
Shell pair information
Shell pair cut-off parameter TPreSel        ...   2.5e-12
Total number of shell pairs                 ...       780
Shell pairs after pre-screening             ...       778
Total number of primitive shell pairs       ...      2332
Primitive shell pairs kept                  ...      2058
          la=0 lb=0:    252 shell pairs
          la=1 lb=0:    307 shell pairs
          la=1 lb=1:    105 shell pairs
          la=2 lb=0:     66 shell pairs
          la=2 lb=1:     42 shell pairs
          la=2 lb=2:      6 shell pairs

Calculating one electron integrals          ... done (  0.0 sec)
Calculating RI/J V-Matrix + Cholesky decomp.... done (  0.0 sec)
Calculating Nuclear repulsion               ... done (  0.0 sec) ENN=     78.086008151806 Eh

Diagonalization of the overlap matrix:
Smallest eigenvalue                        ... 4.306e-04
Time for diagonalization                   ...    0.001 sec
Threshold for overlap eigenvalues          ... 1.000e-07
Number of eigenvalues below threshold      ... 0
Time for construction of square roots      ...    0.003 sec
Total time needed                          ...    0.005 sec

-------------------
DFT GRID GENERATION
-------------------

General Integration Accuracy     IntAcc      ... 4.388
Radial Grid Type                 RadialGrid  ... OptM3 with GC (2021)
Angular Grid (max. ang.)         AngularGrid ... 4 (Lebedev-302)
Angular grid pruning method      GridPruning ... 4 (adaptive)
Weight generation scheme         WeightScheme... mBecke (2022)
Basis function cutoff            BFCut       ... 1.0000e-11
Integration weight cutoff        WCut        ... 1.0000e-14
Partially contracted basis set               ... off
Rotationally invariant grid construction     ... off
Angular grids for H and He will be reduced by one unit
Diffuse basis detected: some atoms will have their outermost
                        angular grid increased by 1.

Total number of grid points                  ...    35454
Total number of batches                      ...      558
Average number of points per batch           ...       63
Average number of grid points per atom       ...     4432
Initializing property integral containers    ... done (  0.0 sec)

SHARK setup successfully completed in   0.4 seconds

Maximum memory used throughout the entire STARTUP-calculation: 11.8 MB


           ************************************************************
           *        Program running with 4 parallel MPI-processes     *
           *              working on a common directory               *
           ************************************************************
Occupation numbers will be reassigned to an Aufbau configuration
             **** ENERGY FILE WAS UPDATED (job.en.tmp) ****
Finished Guess after   0.3 sec
Maximum memory used throughout the entire GUESS-calculation: 6.4 MB


           ************************************************************
           *        Program running with 4 parallel MPI-processes     *
           *              working on a common directory               *
           ************************************************************
--------------------
CPCM SOLVATION MODEL
--------------------
CPCM parameters:
  Epsilon                                         ...      35.6880
  Refrac                                          ...       1.3442
  Rsolv                                           ...       1.3000
  Surface type                                    ... GAUSSIAN VDW
  Discretization scheme                           ... Constant charge density
    Threshold for H atoms                         ...       5.0000 (charges/Ang^2)
    Threshold for non-H atoms                     ...       5.0000 (charges/Ang^2)
  Epsilon function type                           ...         CPCM
Solvent:                                          ... ACETONITRILE
SMD-CDS solvent descriptors:
  Soln                                            ...       1.3442
  Soln25                                          ...       1.3416
  Sola                                            ...       0.0700
  Solb                                            ...       0.3200
  Solg                                            ...      41.2500
  Solc                                            ...       0.0000
  Solh                                            ...       0.0000
Radii:
  Scheme                                          ... Element-dependent radii
  Radius for C  used is    3.4960 Bohr (=   1.8500 Ang.)
  Radius for H  used is    2.2677 Bohr (=   1.2000 Ang.)
  Radius for F  used is    3.2692 Bohr (=   1.7300 Ang.)
Calculating surface                               ...        done! (  0.0s)
Cavity surface points                             ...          687
Cavity Volume                                     ...     397.4360
Cavity Surface-area                               ...     292.6849
Calculating surface distance matrix               ...        done! (  0.0s)
Performing Cholesky decomposition & store         ...        done! (  0.0s)
Overall time for CPCM initialization              ...                 0.0s

----------------------------------------D-I-I-S--------------------------------------------
Iteration    Energy (Eh)           Delta-E    RMSDP     MaxDP     DIISErr   Damp  Time(sec)
-------------------------------------------------------------------------------------------
               ***  Starting incremental Fock matrix formation  ***
                              *** Initializing SOSCF ***
---------------------------------------S-O-S-C-F--------------------------------------
Iteration    Energy (Eh)           Delta-E    RMSDP     MaxDP     MaxGrad    Time(sec)
--------------------------------------------------------------------------------------
    1    -178.7306705499983082     0.00e+00  2.32e-04  3.34e-03  1.59e-04     0.2
               *** Restarting incremental Fock matrix formation ***
    2    -178.7307065263871664    -3.60e-05  8.89e-05  1.27e-03  2.68e-04     0.1
    3    -178.7307073607945540    -8.34e-07  3.96e-05  5.83e-04  3.29e-04     0.1
    4    -178.7307090308466400    -1.67e-06  2.27e-05  3.44e-04  8.33e-05     0.1
    5    -178.7307090710201578    -4.02e-08  1.12e-05  2.63e-04  9.14e-05     0.1
    6    -178.7307092060751756    -1.35e-07  6.21e-06  8.41e-05  2.51e-05     0.1
    7    -178.7307092182436463    -1.22e-08  1.86e-06  2.72e-05  8.26e-06     0.1
    8    -178.7307092204117680    -2.17e-09  6.91e-07  1.13e-05  2.49e-06     0.1
                 **** Energy Check signals convergence ****

               *****************************************************
               *                     SUCCESS                       *
               *           SCF CONVERGED AFTER   8 CYCLES          *
               *****************************************************


SMD CDS free energy correction energy :                 0.03043     Kcal/mol
Total Energy after SMD CDS correction =              -178.730660720 Eh
             **** ENERGY FILE WAS UPDATED (job.en.tmp) ****

----------------
TOTAL SCF ENERGY
----------------

Total Energy       :       -178.73066072004809 Eh           -4863.50853 eV

Components:
Nuclear Repulsion  :         78.08600815180613 Eh            2124.82831 eV
Electronic Energy  :       -256.80916777439626 Eh           -6988.13272 eV
One Electron Energy:       -399.37488263081286 Eh          -10867.54305 eV
Two Electron Energy:        142.56571485641661 Eh            3879.41033 eV
CPCM Dielectric    :         -0.00754959782163 Eh              -0.20544 eV
SMD CDS (Gcds)     :          0.00004850036367 Eh               0.00132 eV

Virial components:
Potential Energy   :       -355.80301145517501 Eh           -9681.89216 eV
Kinetic Energy     :        177.07235073512695 Eh            4818.38363 eV
Virial Ratio       :          2.00936515485358

DFT components:
N(Alpha)           :       13.000015466314 electrons
N(Beta)            :       13.000015466314 electrons
N(Total)           :       26.000030932628 electrons
E(X)               :      -22.020256066489 Eh       
E(C)               :       -0.851301543939 Eh       
E(XC)              :      -22.871557610428 Eh       

CPCM Solvation Model Properties:
Surface-charge          :         -0.02925928216462
Corrected charge        :         -0.00000000000000
Outlying charge corr.   :          0.00008779239646 Eh               0.00239 eV
Free-energy (cav+disp)  :          0.00004850036367 Eh               0.00132 eV

---------------
SCF CONVERGENCE
---------------

  Last Energy change         ...    2.1681e-09  Tolerance :   1.0000e-08
  Last MAX-Density change    ...    1.1341e-05  Tolerance :   1.0000e-07
  Last RMS-Density change    ...    6.9108e-07  Tolerance :   5.0000e-09
  Last DIIS Error            ...    2.3660e-03  Tolerance :   5.0000e-07
  Last Orbital Gradient      ...    2.4885e-06  Tolerance :   1.0000e-05
  Last Orbital Rotation      ...    4.0455e-06  Tolerance :   1.0000e-05


Total SCF time: 0 days 0 hours 0 min 1 sec 
Finished LeanSCF after   1.6 sec

Maximum memory used throughout the entire LEANSCF-calculation: 8.6 MB


           ************************************************************
           *        Program running with 4 parallel MPI-processes     *
           *              working on a common directory               *
           ************************************************************

------------------------------------------------------------------------------
                         ORCA PROPERTY INTEGRAL CALCULATIONS
------------------------------------------------------------------------------

GBWName                                   ... job.gbw
Number of atoms                           ...      8
Number of basis functions                 ...     79
Max core memory                           ...   3000 MB

Dipole integrals                          ... YES
Quadrupole integrals                      ...  NO
Linear momentum integrals                 ...  NO
Angular momentum integrals                ...  NO
Higher moments length integrals           ...  NO
Higher moments velocity integrals         ...  NO
Kinetic energy integrals                  ...  NO
GIAO right hand sides                     ...  NO
GIAO dipole derivative integrals          ...  NO
SOC integrals                             ...  NO
EPR diamagnetic integrals (GIAO)          ...  NO
EPR gauge integrals                       ...  NO
Field gradient integrals                  ...  NO (   0 nuclei)
Spin-dipole/Fermi contact integrals       ...  NO (   0 nuclei)
Contact density integrals                 ...  NO (   0 nuclei)
Nucleus-orbit integrals                   ...  NO (   0 nuclei)
Geometric perturbations                   ...  NO (   8 nuclei)

Choice of electric origin   ... Center of mass
Position of electric origin ... ( -7.7375, -2.0699, -1.7626) 
Choice of magnetic origin   ... GIAO
Position of magnetic origin ... (  0.0000,  0.0000,  0.0000) 

Calculating integrals                     ... Electric Dipole (Length)     done (  0.0 sec)

Property integrals calculated in   0.0 sec

Maximum memory used throughout the entire PROPINT-calculation: 6.5 MB

-------------------------   --------------------
FINAL SINGLE POINT ENERGY      -178.730660720048
-------------------------   --------------------



           ************************************************************
           *        Program running with 4 parallel MPI-processes     *
           *              working on a common directory               *
           ************************************************************
------------------------------------------------------------------------------
                         ORCA SCF GRADIENT CALCULATION
------------------------------------------------------------------------------

Nuc. rep. gradient        (SHARK) ... done (  0.0 sec)
HCore & Overlap gradient  (SHARK) ... done (  0.0 sec)
Split-RIJ-J gradient      (SHARK) ... done (  0.1 sec)
XC gradient                       ... done (  0.4 sec)
CPCM gradient                     ... done (  0.1 sec)
SMD gradient                      ... done (  0.0 sec)

------------------
CARTESIAN GRADIENT
------------------

   1   C   :   -0.000114414   -0.000318047    0.000019468
   2   H   :    0.000108064    0.000036535   -0.000033918
   3   H   :   -0.000000608    0.000279411    0.000068782
   4   C   :    0.000252169   -0.001266593   -0.001335358
   5   H   :   -0.000436351    0.000018261    0.000620741
   6   F   :    0.000190757    0.000742835    0.000285007
   7   H   :    0.000175091    0.000517676    0.000384565
   8   H   :   -0.000174708   -0.000010078   -0.000009287

Difference to translation invariance:
           :    0.0000000000   -0.0000000000   -0.0000000000

Difference to rotation invariance:
           :   -0.0000094594    0.0000228998   -0.0000290284

Norm of the Cartesian gradient     ...    0.0023206331
RMS gradient                       ...    0.0004736973
MAX gradient                       ...    0.0013353577

-------
TIMINGS
-------

Total SCF gradient time     ....        0.692 sec

Densities                   ....       0.000 sec  (  0.0%)
One electron gradient       ....       0.013 sec  (  1.9%)
RI-J Coulomb gradient       ....       0.149 sec  ( 21.5%)
XC gradient                 ....       0.352 sec  ( 50.8%)
CPCM gradient               ....       0.100 sec  ( 14.4%)
   A-Matrix (El+Nuc)        ....       0.034 sec  (  4.9%)
   Potential                ....       0.066 sec  (  9.5%)
SMD gradient                ....       0.003 sec  (  0.4%)

Maximum memory used throughout the entire SCFGRAD-calculation: 10.4 MB
------------------------------------------------------------------------------
                         ORCA GEOMETRY RELAXATION STEP
------------------------------------------------------------------------------

Reading the OPT-File                    .... done
Getting information on internals        .... done
Copying old internal coords+grads       .... done
Making the new internal coordinates     .... (2022 redundants) done
Validating the new internal coordinates .... (2022 redundants) done
Calculating the B-matrix                .... done
Calculating the G,G- and P matrices     .... done
Transforming gradient to internals      .... done
Projecting the internal gradient        .... done
Number of atoms                         ....   8
Number of internal coordinates          ....  25
Current Energy                          ....  -178.730660720 Eh
Current gradient norm                   ....     0.002320633 Eh/bohr
Maximum allowed component of the step   ....  0.300
Current trust radius                    ....  0.700
Updating the Hessian (BFGS)             .... done
Forming the augmented Hessian           .... done
Diagonalizing the augmented Hessian     .... done
Last element of RFO vector              ....  0.999906777
Lowest eigenvalues of augmented Hessian:
 -0.000014625  0.013780628  0.081427606  0.125868055  0.137094244
Length of the computed step             ....  0.013655473
The final length of the internal step   ....  0.013655473
Converting the step to Cartesian space:
 Initial RMS(Int)=    0.0027310947
Transforming coordinates:
 Iter   0:  RMS(Cart)=    0.0034763365 RMS(Int)=    0.0027281328
done
Storing new coordinates                 .... done
The predicted energy change is          ....    -0.000007314
Previously predicted energy change      ....    -0.000050638
Actually observed energy change         ....    -0.000052059
Ratio of predicted to observed change   ....     1.028051977
New trust radius                        ....     0.700000000

                                .--------------------.
          ----------------------|Geometry convergence|-------------------------
          Item                value                   Tolerance       Converged
          ---------------------------------------------------------------------
          Energy change      -0.0000520590            0.0000050000      NO
          RMS gradient        0.0003337534            0.0001000000      NO
          MAX gradient        0.0008305451            0.0003000000      NO
          RMS step            0.0027310947            0.0020000000      NO
          MAX step            0.0052569635            0.0040000000      NO
          ........................................................
          Max(Bonds)      0.0017      Max(Angles)    0.29
          Max(Dihed)        0.30      Max(Improp)    0.00
          ---------------------------------------------------------------------

The optimization has not yet converged - more geometry cycles are needed


    ---------------------------------------------------------------------------
                         Redundant Internal Coordinates
                            (Angstroem and degrees)

        Definition                    Value    dE/dq     Step     New-Value
    ----------------------------------------------------------------------------
     1. B(H   1,C   0)                1.1103  0.000034 -0.0001    1.1101   
     2. B(H   2,C   0)                1.1090 -0.000062  0.0001    1.1091   
     3. B(C   3,C   0)                1.5081 -0.000174  0.0004    1.5085   
     4. B(H   4,C   3)                1.1114  0.000628 -0.0014    1.1099   
     5. B(F   5,C   3)                1.4265 -0.000764  0.0017    1.4283   
     6. B(H   6,C   3)                1.1101 -0.000142  0.0002    1.1103   
     7. B(H   7,C   0)                1.1091  0.000004  0.0000    1.1092   
     8. A(H   1,C   0,H   7)          107.78 -0.000006    0.01    107.80   
     9. A(H   1,C   0,C   3)          109.01  0.000122   -0.01    109.00   
    10. A(C   3,C   0,H   7)          111.32 -0.000248    0.05    111.37   
    11. A(H   2,C   0,H   7)          109.17  0.000142   -0.06    109.11   
    12. A(H   2,C   0,C   3)          111.66  0.000189   -0.05    111.61   
    13. A(H   1,C   0,H   2)          107.75 -0.000205    0.06    107.81   
    14. A(C   0,C   3,H   6)          112.09 -0.000266    0.05    112.14   
    15. A(H   4,C   3,F   5)          106.30 -0.000264    0.08    106.38   
    16. A(C   0,C   3,F   5)          110.34  0.000184   -0.03    110.30   
    17. A(F   5,C   3,H   6)          106.66  0.000831   -0.29    106.37   
    18. A(H   4,C   3,H   6)          108.70 -0.000765    0.20    108.89   
    19. A(C   0,C   3,H   4)          112.43  0.000302   -0.06    112.37   
    20. D(H   4,C   3,C   0,H   2)     56.65 -0.000127    0.30     56.95   
    21. D(H   4,C   3,C   0,H   7)    178.95  0.000013    0.22    179.17   
    22. D(F   5,C   3,C   0,H   1)    179.23 -0.000053    0.25    179.49   
    23. D(F   5,C   3,C   0,H   2)    -61.83 -0.000113    0.29    -61.54   
    24. D(F   5,C   3,C   0,H   7)     60.47  0.000027    0.22     60.68   
    25. D(H   4,C   3,C   0,H   1)    -62.28 -0.000068    0.26    -62.02   
    ----------------------------------------------------------------------------

Geometry step timings:
Preparation and reading OPT file:      0.001 s (11.909 %)
Internal coordinates            :      0.000 s ( 0.465 %)
B/P matrices and projection     :      0.000 s ( 6.429 %)
Hessian update/contruction      :      0.003 s (60.573 %)
Making the step                 :      0.000 s ( 3.505 %)
Converting the step to Cartesian:      0.000 s ( 0.697 %)
Storing new data                :      0.000 s ( 1.356 %)
Checking convergence            :      0.000 s ( 0.213 %)
Final printing                  :      0.001 s (14.795 %)
Total time                      :      0.005 s

Time for energy+gradient        :      5.536 s
Time for complete geometry iter :      6.194 s

         *************************************************************
         *                GEOMETRY OPTIMIZATION CYCLE   7            *
         *************************************************************
---------------------------------
CARTESIAN COORDINATES (ANGSTROEM)
---------------------------------
  C     -3.228382   -0.178603   -1.343692
  H     -3.234673    0.928555   -1.262709
  H     -2.308998   -0.549955   -0.846795
  C     -4.472877   -0.725846   -0.690067
  H     -4.521453   -0.486606    0.392684
  F     -4.499234   -2.150444   -0.789101
  H     -5.399164   -0.360462   -1.181237
  H     -3.189618   -0.439468   -2.421032

----------------------------
CARTESIAN COORDINATES (A.U.)
----------------------------
  NO LB      ZA    FRAG     MASS         X           Y           Z
   0 C     6.0000    0    12.011   -6.100757   -0.337512   -2.539209
   1 H     1.0000    0     1.008   -6.112646    1.754714   -2.386175
   2 H     1.0000    0     1.008   -4.363373   -1.039264   -1.600210
   3 C     6.0000    0    12.011   -8.452513   -1.371650   -1.304038
   4 H     1.0000    0     1.008   -8.544307   -0.919553    0.742065
   5 F     9.0000    0    18.998   -8.502320   -4.063749   -1.491185
   6 H     1.0000    0     1.008  -10.202942   -0.681174   -2.232215
   7 H     1.0000    0     1.008   -6.027504   -0.830474   -4.575088

--------------------------------
INTERNAL COORDINATES (ANGSTROEM)
--------------------------------
 C      0   0   0     0.000000000000     0.00000000     0.00000000
 H      1   0   0     1.110133963469     0.00000000     0.00000000
 H      1   2   0     1.109087624337   107.81494229     0.00000000
 C      1   2   3     1.508465658478   108.99733556   121.31633128
 H      4   1   2     1.109930077507   112.37111679   297.98370520
 F      4   1   2     1.428279094748   110.30549572   179.47806372
 H      4   1   2     1.110297706680   112.16087199    61.08141601
 H      1   2   3     1.109150572572   107.79527300   242.33018375

---------------------------
INTERNAL COORDINATES (A.U.)
---------------------------
 C      0   0   0     0.000000000000     0.00000000     0.00000000
 H      1   0   0     2.097849162921     0.00000000     0.00000000
 H      1   2   0     2.095871868519   107.81494229     0.00000000
 C      1   2   3     2.850586976949   108.99733556   121.31633128
 H      4   1   2     2.097463874289   112.37111679   297.98370520
 F      4   1   2     2.699056331878   110.30549572   179.47806372
 H      4   1   2     2.098158592745   112.16087199    61.08141601
 H      1   2   3     2.095990823443   107.79527300   242.33018375



           ************************************************************
           *        Program running with 4 parallel MPI-processes     *
           *              working on a common directory               *
           ************************************************************
------------------------------------------------------------------------------
                   ___                                                        
                  /   \      - P O W E R E D   B Y -                         
                 /     \                                                     
                 |  |  |   _    _      __       _____    __    __             
                 |  |  |  | |  | |    /  \     |  _  \  |  |  /  |          
                  \  \/   | |  | |   /    \    | | | |  |  | /  /          
                 / \  \   | |__| |  /  /\  \   | |_| |  |  |/  /          
                |  |  |   |  __  | /  /__\  \  |    /   |      \           
                |  |  |   | |  | | |   __   |  |    \   |  |\   \          
                \     /   | |  | | |  |  |  |  | |\  \  |  | \   \       
                 \___/    |_|  |_| |__|  |__|  |_| \__\ |__|  \__/        
                                                                              
                      - O R C A' S   B I G   F R I E N D -                    
                                      &                                       
                       - I N T E G R A L  F E E D E R -                       
                                                                              
 v1 FN, 2020, v2 2021, v3 2022-2024                                           
------------------------------------------------------------------------------


----------------------
SHARK INTEGRAL PACKAGE
----------------------

Number of atoms                             ...      8
Number of basis functions                   ...     79
Number of shells                            ...     39
Maximum angular momentum                    ...      2
Integral batch strategy                     ... SHARK/LIBINT Hybrid
RI-J (if used) integral strategy            ... SPLIT-RIJ (Revised 2003 algorithm where possible)
Printlevel                                  ...      1
Contraction scheme used                     ... SEGMENTED contraction
Prescreening option                         ... SCHWARTZ
   Thresh                                   ... 2.500e-11
   Tcut                                     ... 2.500e-12
   Tpresel                                  ... 2.500e-12 
Coulomb Range Separation                    ... NOT USED
Exchange Range Separation                   ... NOT USED
Multipole approximations                    ... NOT USED
Finite Nucleus Model                        ... NOT USED
CABS basis                                  ... NOT available
Auxiliary Coulomb fitting basis             ... AVAILABLE
   # of basis functions in Aux-J            ...    202
   # of shells in Aux-J                     ...     70
   Maximum angular momentum in Aux-J        ...      4
Auxiliary J/K fitting basis                 ... NOT available
Auxiliary Correlation fitting basis         ... NOT available
Auxiliary 'external' fitting basis          ... NOT available

Checking pre-screening integrals            ... done (  0.0 sec) Dimension = 39
Check shell pair data                       ... done (  0.0 sec)
Shell pair information
Shell pair cut-off parameter TPreSel        ...   2.5e-12
Total number of shell pairs                 ...       780
Shell pairs after pre-screening             ...       778
Total number of primitive shell pairs       ...      2332
Primitive shell pairs kept                  ...      2058
          la=0 lb=0:    252 shell pairs
          la=1 lb=0:    307 shell pairs
          la=1 lb=1:    105 shell pairs
          la=2 lb=0:     66 shell pairs
          la=2 lb=1:     42 shell pairs
          la=2 lb=2:      6 shell pairs

Calculating one electron integrals          ... done (  0.0 sec)
Calculating RI/J V-Matrix + Cholesky decomp.... done (  0.0 sec)
Calculating Nuclear repulsion               ... done (  0.0 sec) ENN=     78.054124315214 Eh

Diagonalization of the overlap matrix:
Smallest eigenvalue                        ... 4.310e-04
Time for diagonalization                   ...    0.001 sec
Threshold for overlap eigenvalues          ... 1.000e-07
Number of eigenvalues below threshold      ... 0
Time for construction of square roots      ...    0.003 sec
Total time needed                          ...    0.005 sec

-------------------
DFT GRID GENERATION
-------------------

General Integration Accuracy     IntAcc      ... 4.388
Radial Grid Type                 RadialGrid  ... OptM3 with GC (2021)
Angular Grid (max. ang.)         AngularGrid ... 4 (Lebedev-302)
Angular grid pruning method      GridPruning ... 4 (adaptive)
Weight generation scheme         WeightScheme... mBecke (2022)
Basis function cutoff            BFCut       ... 1.0000e-11
Integration weight cutoff        WCut        ... 1.0000e-14
Partially contracted basis set               ... off
Rotationally invariant grid construction     ... off
Angular grids for H and He will be reduced by one unit
Diffuse basis detected: some atoms will have their outermost
                        angular grid increased by 1.

Total number of grid points                  ...    35454
Total number of batches                      ...      559
Average number of points per batch           ...       63
Average number of grid points per atom       ...     4432
Initializing property integral containers    ... done (  0.0 sec)

SHARK setup successfully completed in   0.3 seconds

Maximum memory used throughout the entire STARTUP-calculation: 11.8 MB


           ************************************************************
           *        Program running with 4 parallel MPI-processes     *
           *              working on a common directory               *
           ************************************************************
Occupation numbers will be reassigned to an Aufbau configuration
             **** ENERGY FILE WAS UPDATED (job.en.tmp) ****
Finished Guess after   0.4 sec
Maximum memory used throughout the entire GUESS-calculation: 6.4 MB


           ************************************************************
           *        Program running with 4 parallel MPI-processes     *
           *              working on a common directory               *
           ************************************************************
--------------------
CPCM SOLVATION MODEL
--------------------
CPCM parameters:
  Epsilon                                         ...      35.6880
  Refrac                                          ...       1.3442
  Rsolv                                           ...       1.3000
  Surface type                                    ... GAUSSIAN VDW
  Discretization scheme                           ... Constant charge density
    Threshold for H atoms                         ...       5.0000 (charges/Ang^2)
    Threshold for non-H atoms                     ...       5.0000 (charges/Ang^2)
  Epsilon function type                           ...         CPCM
Solvent:                                          ... ACETONITRILE
SMD-CDS solvent descriptors:
  Soln                                            ...       1.3442
  Soln25                                          ...       1.3416
  Sola                                            ...       0.0700
  Solb                                            ...       0.3200
  Solg                                            ...      41.2500
  Solc                                            ...       0.0000
  Solh                                            ...       0.0000
Radii:
  Scheme                                          ... Element-dependent radii
  Radius for C  used is    3.4960 Bohr (=   1.8500 Ang.)
  Radius for H  used is    2.2677 Bohr (=   1.2000 Ang.)
  Radius for F  used is    3.2692 Bohr (=   1.7300 Ang.)
Calculating surface                               ...        done! (  0.0s)
Cavity surface points                             ...          687
Cavity Volume                                     ...     397.5587
Cavity Surface-area                               ...     292.7606
Calculating surface distance matrix               ...        done! (  0.0s)
Performing Cholesky decomposition & store         ...        done! (  0.0s)
Overall time for CPCM initialization              ...                 0.0s

----------------------------------------D-I-I-S--------------------------------------------
Iteration    Energy (Eh)           Delta-E    RMSDP     MaxDP     DIISErr   Damp  Time(sec)
-------------------------------------------------------------------------------------------
               ***  Starting incremental Fock matrix formation  ***
                              *** Initializing SOSCF ***
---------------------------------------S-O-S-C-F--------------------------------------
Iteration    Energy (Eh)           Delta-E    RMSDP     MaxDP     MaxGrad    Time(sec)
--------------------------------------------------------------------------------------
    1    -178.7307142508247750     0.00e+00  7.32e-05  9.51e-04  8.76e-05     0.1
               *** Restarting incremental Fock matrix formation ***
    2    -178.7307201646783312    -5.91e-06  3.05e-05  3.57e-04  8.43e-05     0.1
    3    -178.7307205008926587    -3.36e-07  1.63e-05  3.06e-04  1.00e-04     0.1
    4    -178.7307205250455411    -2.42e-08  1.12e-05  1.30e-04  6.94e-05     0.1
    5    -178.7307206394018806    -1.14e-07  2.17e-06  4.32e-05  7.39e-06     0.1
    6    -178.7307206392764272     1.25e-10  1.20e-06  2.50e-05  9.16e-06     0.1
                 **** Energy Check signals convergence ****

               *****************************************************
               *                     SUCCESS                       *
               *           SCF CONVERGED AFTER   6 CYCLES          *
               *****************************************************


SMD CDS free energy correction energy :                 0.03199     Kcal/mol
Total Energy after SMD CDS correction =              -178.730669662 Eh
             **** ENERGY FILE WAS UPDATED (job.en.tmp) ****

----------------
TOTAL SCF ENERGY
----------------

Total Energy       :       -178.73066966214012 Eh           -4863.50878 eV

Components:
Nuclear Repulsion  :         78.05412431521384 Eh            2123.96070 eV
Electronic Energy  :       -256.77724780619343 Eh           -6987.26414 eV
One Electron Energy:       -399.31467047157014 Eh          -10865.90460 eV
Two Electron Energy:        142.53742266537671 Eh            3878.64046 eV
CPCM Dielectric    :         -0.00759714829682 Eh              -0.20673 eV
SMD CDS (Gcds)     :          0.00005097713630 Eh               0.00139 eV

Virial components:
Potential Energy   :       -355.80174879815439 Eh           -9681.85780 eV
Kinetic Energy     :        177.07107913601428 Eh            4818.34902 eV
Virial Ratio       :          2.00937245389944

DFT components:
N(Alpha)           :       13.000015887526 electrons
N(Beta)            :       13.000015887526 electrons
N(Total)           :       26.000031775052 electrons
E(X)               :      -22.019942879185 Eh       
E(C)               :       -0.851237523308 Eh       
E(XC)              :      -22.871180402493 Eh       

CPCM Solvation Model Properties:
Surface-charge          :         -0.02923416118736
Corrected charge        :          0.00000000000000
Outlying charge corr.   :          0.00008763514039 Eh               0.00238 eV
Free-energy (cav+disp)  :          0.00005097713630 Eh               0.00139 eV

---------------
SCF CONVERGENCE
---------------

  Last Energy change         ...   -1.2545e-10  Tolerance :   1.0000e-08
  Last MAX-Density change    ...    2.4981e-05  Tolerance :   1.0000e-07
  Last RMS-Density change    ...    1.1962e-06  Tolerance :   5.0000e-09
  Last DIIS Error            ...    8.3362e-04  Tolerance :   5.0000e-07
  Last Orbital Gradient      ...    9.1625e-06  Tolerance :   1.0000e-05
  Last Orbital Rotation      ...    7.2853e-06  Tolerance :   1.0000e-05


Total SCF time: 0 days 0 hours 0 min 1 sec 
Finished LeanSCF after   1.2 sec

Maximum memory used throughout the entire LEANSCF-calculation: 8.7 MB


           ************************************************************
           *        Program running with 4 parallel MPI-processes     *
           *              working on a common directory               *
           ************************************************************

------------------------------------------------------------------------------
                         ORCA PROPERTY INTEGRAL CALCULATIONS
------------------------------------------------------------------------------

GBWName                                   ... job.gbw
Number of atoms                           ...      8
Number of basis functions                 ...     79
Max core memory                           ...   3000 MB

Dipole integrals                          ... YES
Quadrupole integrals                      ...  NO
Linear momentum integrals                 ...  NO
Angular momentum integrals                ...  NO
Higher moments length integrals           ...  NO
Higher moments velocity integrals         ...  NO
Kinetic energy integrals                  ...  NO
GIAO right hand sides                     ...  NO
GIAO dipole derivative integrals          ...  NO
SOC integrals                             ...  NO
EPR diamagnetic integrals (GIAO)          ...  NO
EPR gauge integrals                       ...  NO
Field gradient integrals                  ...  NO (   0 nuclei)
Spin-dipole/Fermi contact integrals       ...  NO (   0 nuclei)
Contact density integrals                 ...  NO (   0 nuclei)
Nucleus-orbit integrals                   ...  NO (   0 nuclei)
Geometric perturbations                   ...  NO (   8 nuclei)

Choice of electric origin   ... Center of mass
Position of electric origin ... ( -7.7374, -2.0695, -1.7608) 
Choice of magnetic origin   ... GIAO
Position of magnetic origin ... (  0.0000,  0.0000,  0.0000) 

Calculating integrals                     ... Electric Dipole (Length)     done (  0.0 sec)

Property integrals calculated in   0.0 sec

Maximum memory used throughout the entire PROPINT-calculation: 6.5 MB

-------------------------   --------------------
FINAL SINGLE POINT ENERGY      -178.730669662140
-------------------------   --------------------



           ************************************************************
           *        Program running with 4 parallel MPI-processes     *
           *              working on a common directory               *
           ************************************************************
------------------------------------------------------------------------------
                         ORCA SCF GRADIENT CALCULATION
------------------------------------------------------------------------------

Nuc. rep. gradient        (SHARK) ... done (  0.0 sec)
HCore & Overlap gradient  (SHARK) ... done (  0.0 sec)
Split-RIJ-J gradient      (SHARK) ... done (  0.1 sec)
XC gradient                       ... done (  0.4 sec)
CPCM gradient                     ... done (  0.1 sec)
SMD gradient                      ... done (  0.0 sec)

------------------
CARTESIAN GRADIENT
------------------

   1   C   :    0.000045704   -0.000014904    0.000038963
   2   H   :    0.000061829   -0.000035069   -0.000061586
   3   H   :    0.000055226    0.000135865    0.000015704
   4   C   :    0.000222037   -0.000319349    0.000123921
   5   H   :   -0.000200092   -0.000020974   -0.000160961
   6   F   :   -0.000038702    0.000129780   -0.000012115
   7   H   :   -0.000037651    0.000137628    0.000080410
   8   H   :   -0.000108351   -0.000012978   -0.000024337

Difference to translation invariance:
           :    0.0000000000    0.0000000000    0.0000000000

Difference to rotation invariance:
           :   -0.0000084567    0.0000201335   -0.0000264672

Norm of the Cartesian gradient     ...    0.0005703240
RMS gradient                       ...    0.0001164169
MAX gradient                       ...    0.0003193490

-------
TIMINGS
-------

Total SCF gradient time     ....        0.695 sec

Densities                   ....       0.000 sec  (  0.0%)
One electron gradient       ....       0.013 sec  (  1.8%)
RI-J Coulomb gradient       ....       0.149 sec  ( 21.4%)
XC gradient                 ....       0.356 sec  ( 51.2%)
CPCM gradient               ....       0.100 sec  ( 14.4%)
   A-Matrix (El+Nuc)        ....       0.034 sec  (  5.0%)
   Potential                ....       0.065 sec  (  9.4%)
SMD gradient                ....       0.002 sec  (  0.2%)

Maximum memory used throughout the entire SCFGRAD-calculation: 10.4 MB
------------------------------------------------------------------------------
                         ORCA GEOMETRY RELAXATION STEP
------------------------------------------------------------------------------

Reading the OPT-File                    .... done
Getting information on internals        .... done
Copying old internal coords+grads       .... done
Making the new internal coordinates     .... (2022 redundants) done
Validating the new internal coordinates .... (2022 redundants) done
Calculating the B-matrix                .... done
Calculating the G,G- and P matrices     .... done
Transforming gradient to internals      .... done
Projecting the internal gradient        .... done
Number of atoms                         ....   8
Number of internal coordinates          ....  25
Current Energy                          ....  -178.730669662 Eh
Current gradient norm                   ....     0.000570324 Eh/bohr
Maximum allowed component of the step   ....  0.300
Current trust radius                    ....  0.700
Updating the Hessian (BFGS)             .... done
Forming the augmented Hessian           .... done
Diagonalizing the augmented Hessian     .... done
Last element of RFO vector              ....  0.999957592
Lowest eigenvalues of augmented Hessian:
 -0.000002545  0.012180590  0.080868705  0.121715840  0.135935658
Length of the computed step             ....  0.009209863
The final length of the internal step   ....  0.009209863
Converting the step to Cartesian space:
 Initial RMS(Int)=    0.0018419726
Transforming coordinates:
 Iter   0:  RMS(Cart)=    0.0022760208 RMS(Int)=    0.0018413994
done
Storing new coordinates                 .... done
The predicted energy change is          ....    -0.000001273
Previously predicted energy change      ....    -0.000007314
Actually observed energy change         ....    -0.000008942
Ratio of predicted to observed change   ....     1.222619461
New trust radius                        ....     0.700000000

                                .--------------------.
          ----------------------|Geometry convergence|-------------------------
          Item                value                   Tolerance       Converged
          ---------------------------------------------------------------------
          Energy change      -0.0000089421            0.0000050000      NO
          RMS gradient        0.0001111390            0.0001000000      NO
          MAX gradient        0.0002654392            0.0003000000      YES
          RMS step            0.0018419726            0.0020000000      YES
          MAX step            0.0044516852            0.0040000000      NO
          ........................................................
          Max(Bonds)      0.0005      Max(Angles)    0.13
          Max(Dihed)        0.26      Max(Improp)    0.00
          ---------------------------------------------------------------------

The optimization has not yet converged - more geometry cycles are needed


    ---------------------------------------------------------------------------
                         Redundant Internal Coordinates
                            (Angstroem and degrees)

        Definition                    Value    dE/dq     Step     New-Value
    ----------------------------------------------------------------------------
     1. B(H   1,C   0)                1.1101 -0.000039  0.0000    1.1102   
     2. B(H   2,C   0)                1.1091  0.000007 -0.0000    1.1091   
     3. B(C   3,C   0)                1.5085  0.000085 -0.0000    1.5084   
     4. B(H   4,C   3)                1.1099 -0.000154 -0.0001    1.1099   
     5. B(F   5,C   3)                1.4283 -0.000127  0.0005    1.4288   
     6. B(H   6,C   3)                1.1103  0.000041 -0.0001    1.1102   
     7. B(H   7,C   0)                1.1092  0.000022 -0.0000    1.1091   
     8. A(H   1,C   0,H   7)          107.80 -0.000022    0.02    107.82   
     9. A(H   1,C   0,C   3)          109.00  0.000097   -0.01    108.98   
    10. A(C   3,C   0,H   7)          111.37 -0.000183    0.05    111.42   
    11. A(H   2,C   0,H   7)          109.11  0.000057   -0.04    109.08   
    12. A(H   2,C   0,C   3)          111.61  0.000165   -0.05    111.56   
    13. A(H   1,C   0,H   2)          107.81 -0.000119    0.04    107.85   
    14. A(C   0,C   3,H   6)          112.16 -0.000086    0.05    112.21   
    15. A(H   4,C   3,F   5)          106.37 -0.000063   -0.00    106.37   
    16. A(C   0,C   3,F   5)          110.31  0.000098   -0.04    110.27   
    17. A(F   5,C   3,H   6)          106.39  0.000128   -0.06    106.33   
    18. A(H   4,C   3,H   6)          108.91 -0.000265    0.13    109.04   
    19. A(C   0,C   3,H   4)          112.37  0.000185   -0.07    112.31   
    20. D(H   4,C   3,C   0,H   2)     56.96  0.000008    0.17     57.13   
    21. D(H   4,C   3,C   0,H   7)    179.18  0.000068    0.12    179.30   
    22. D(F   5,C   3,C   0,H   1)    179.48 -0.000114    0.25    179.73   
    23. D(F   5,C   3,C   0,H   2)    -61.55 -0.000097    0.26    -61.29   
    24. D(F   5,C   3,C   0,H   7)     60.68 -0.000037    0.21     60.88   
    25. D(H   4,C   3,C   0,H   1)    -62.02 -0.000008    0.16    -61.85   
    ----------------------------------------------------------------------------

Geometry step timings:
Preparation and reading OPT file:      0.001 s ( 2.173 %)
Internal coordinates            :      0.000 s ( 0.079 %)
B/P matrices and projection     :      0.000 s ( 1.076 %)
Hessian update/contruction      :      0.026 s (91.977 %)
Making the step                 :      0.000 s ( 0.789 %)
Converting the step to Cartesian:      0.000 s ( 0.154 %)
Storing new data                :      0.000 s ( 0.276 %)
Checking convergence            :      0.000 s ( 0.050 %)
Final printing                  :      0.001 s ( 3.407 %)
Total time                      :      0.028 s

Time for energy+gradient        :      5.222 s
Time for complete geometry iter :      5.882 s

         *************************************************************
         *                GEOMETRY OPTIMIZATION CYCLE   8            *
         *************************************************************
---------------------------------
CARTESIAN COORDINATES (ANGSTROEM)
---------------------------------
  C     -3.228672   -0.178397   -1.343817
  H     -3.233666    0.928651   -1.260625
  H     -2.309931   -0.552488   -0.847792
  C     -4.473352   -0.725200   -0.690212
  H     -4.520981   -0.484761    0.392248
  F     -4.497990   -2.150461   -0.787374
  H     -5.399854   -0.362654   -1.182835
  H     -3.189954   -0.437519   -2.421543

----------------------------
CARTESIAN COORDINATES (A.U.)
----------------------------
  NO LB      ZA    FRAG     MASS         X           Y           Z
   0 C     6.0000    0    12.011   -6.101306   -0.337122   -2.539447
   1 H     1.0000    0     1.008   -6.110742    1.754897   -2.382235
   2 H     1.0000    0     1.008   -4.365137   -1.044052   -1.602094
   3 C     6.0000    0    12.011   -8.453409   -1.370429   -1.304313
   4 H     1.0000    0     1.008   -8.543416   -0.916065    0.741240
   5 F     9.0000    0    18.998   -8.499968   -4.063783   -1.487921
   6 H     1.0000    0     1.008  -10.204244   -0.685316   -2.235233
   7 H     1.0000    0     1.008   -6.028140   -0.826791   -4.576053

--------------------------------
INTERNAL COORDINATES (ANGSTROEM)
--------------------------------
 C      0   0   0     0.000000000000     0.00000000     0.00000000
 H      1   0   0     1.110181084813     0.00000000     0.00000000
 H      1   2   0     1.109085611773   107.85187245     0.00000000
 C      1   2   3     1.508449630782   108.98310388   121.26868256
 H      4   1   2     1.109864551286   112.30131581   298.14940983
 F      4   1   2     1.428781630144   110.26505163   179.72566244
 H      4   1   2     1.110190119259   112.20812290    61.39887469
 H      1   2   3     1.109114742182   107.81489931   242.34247971

---------------------------
INTERNAL COORDINATES (A.U.)
---------------------------
 C      0   0   0     0.000000000000     0.00000000     0.00000000
 H      1   0   0     2.097938209356     0.00000000     0.00000000
 H      1   2   0     2.095868065324   107.85187245     0.00000000
 C      1   2   3     2.850556688992   108.98310388   121.26868256
 H      4   1   2     2.097340047678   112.30131581   298.14940983
 F      4   1   2     2.700005986149   110.26505163   179.72566244
 H      4   1   2     2.097955281984   112.20812290    61.39887469
 H      1   2   3     2.095923113818   107.81489931   242.34247971



           ************************************************************
           *        Program running with 4 parallel MPI-processes     *
           *              working on a common directory               *
           ************************************************************
------------------------------------------------------------------------------
                   ___                                                        
                  /   \      - P O W E R E D   B Y -                         
                 /     \                                                     
                 |  |  |   _    _      __       _____    __    __             
                 |  |  |  | |  | |    /  \     |  _  \  |  |  /  |          
                  \  \/   | |  | |   /    \    | | | |  |  | /  /          
                 / \  \   | |__| |  /  /\  \   | |_| |  |  |/  /          
                |  |  |   |  __  | /  /__\  \  |    /   |      \           
                |  |  |   | |  | | |   __   |  |    \   |  |\   \          
                \     /   | |  | | |  |  |  |  | |\  \  |  | \   \       
                 \___/    |_|  |_| |__|  |__|  |_| \__\ |__|  \__/        
                                                                              
                      - O R C A' S   B I G   F R I E N D -                    
                                      &                                       
                       - I N T E G R A L  F E E D E R -                       
                                                                              
 v1 FN, 2020, v2 2021, v3 2022-2024                                           
------------------------------------------------------------------------------


----------------------
SHARK INTEGRAL PACKAGE
----------------------

Number of atoms                             ...      8
Number of basis functions                   ...     79
Number of shells                            ...     39
Maximum angular momentum                    ...      2
Integral batch strategy                     ... SHARK/LIBINT Hybrid
RI-J (if used) integral strategy            ... SPLIT-RIJ (Revised 2003 algorithm where possible)
Printlevel                                  ...      1
Contraction scheme used                     ... SEGMENTED contraction
Prescreening option                         ... SCHWARTZ
   Thresh                                   ... 2.500e-11
   Tcut                                     ... 2.500e-12
   Tpresel                                  ... 2.500e-12 
Coulomb Range Separation                    ... NOT USED
Exchange Range Separation                   ... NOT USED
Multipole approximations                    ... NOT USED
Finite Nucleus Model                        ... NOT USED
CABS basis                                  ... NOT available
Auxiliary Coulomb fitting basis             ... AVAILABLE
   # of basis functions in Aux-J            ...    202
   # of shells in Aux-J                     ...     70
   Maximum angular momentum in Aux-J        ...      4
Auxiliary J/K fitting basis                 ... NOT available
Auxiliary Correlation fitting basis         ... NOT available
Auxiliary 'external' fitting basis          ... NOT available

Checking pre-screening integrals            ... done (  0.0 sec) Dimension = 39
Check shell pair data                       ... done (  0.0 sec)
Shell pair information
Shell pair cut-off parameter TPreSel        ...   2.5e-12
Total number of shell pairs                 ...       780
Shell pairs after pre-screening             ...       778
Total number of primitive shell pairs       ...      2332
Primitive shell pairs kept                  ...      2058
          la=0 lb=0:    252 shell pairs
          la=1 lb=0:    307 shell pairs
          la=1 lb=1:    105 shell pairs
          la=2 lb=0:     66 shell pairs
          la=2 lb=1:     42 shell pairs
          la=2 lb=2:      6 shell pairs

Calculating one electron integrals          ... done (  0.0 sec)
Calculating RI/J V-Matrix + Cholesky decomp.... done (  0.0 sec)
Calculating Nuclear repulsion               ... done (  0.0 sec) ENN=     78.049981925828 Eh

Diagonalization of the overlap matrix:
Smallest eigenvalue                        ... 4.311e-04
Time for diagonalization                   ...    0.001 sec
Threshold for overlap eigenvalues          ... 1.000e-07
Number of eigenvalues below threshold      ... 0
Time for construction of square roots      ...    0.003 sec
Total time needed                          ...    0.005 sec

-------------------
DFT GRID GENERATION
-------------------

General Integration Accuracy     IntAcc      ... 4.388
Radial Grid Type                 RadialGrid  ... OptM3 with GC (2021)
Angular Grid (max. ang.)         AngularGrid ... 4 (Lebedev-302)
Angular grid pruning method      GridPruning ... 4 (adaptive)
Weight generation scheme         WeightScheme... mBecke (2022)
Basis function cutoff            BFCut       ... 1.0000e-11
Integration weight cutoff        WCut        ... 1.0000e-14
Partially contracted basis set               ... off
Rotationally invariant grid construction     ... off
Angular grids for H and He will be reduced by one unit
Diffuse basis detected: some atoms will have their outermost
                        angular grid increased by 1.

Total number of grid points                  ...    35453
Total number of batches                      ...      558
Average number of points per batch           ...       63
Average number of grid points per atom       ...     4432
Initializing property integral containers    ... done (  0.0 sec)

SHARK setup successfully completed in   0.3 seconds

Maximum memory used throughout the entire STARTUP-calculation: 11.8 MB


           ************************************************************
           *        Program running with 4 parallel MPI-processes     *
           *              working on a common directory               *
           ************************************************************
Occupation numbers will be reassigned to an Aufbau configuration
             **** ENERGY FILE WAS UPDATED (job.en.tmp) ****
Finished Guess after   0.4 sec
Maximum memory used throughout the entire GUESS-calculation: 6.4 MB


           ************************************************************
           *        Program running with 4 parallel MPI-processes     *
           *              working on a common directory               *
           ************************************************************
--------------------
CPCM SOLVATION MODEL
--------------------
CPCM parameters:
  Epsilon                                         ...      35.6880
  Refrac                                          ...       1.3442
  Rsolv                                           ...       1.3000
  Surface type                                    ... GAUSSIAN VDW
  Discretization scheme                           ... Constant charge density
    Threshold for H atoms                         ...       5.0000 (charges/Ang^2)
    Threshold for non-H atoms                     ...       5.0000 (charges/Ang^2)
  Epsilon function type                           ...         CPCM
Solvent:                                          ... ACETONITRILE
SMD-CDS solvent descriptors:
  Soln                                            ...       1.3442
  Soln25                                          ...       1.3416
  Sola                                            ...       0.0700
  Solb                                            ...       0.3200
  Solg                                            ...      41.2500
  Solc                                            ...       0.0000
  Solh                                            ...       0.0000
Radii:
  Scheme                                          ... Element-dependent radii
  Radius for C  used is    3.4960 Bohr (=   1.8500 Ang.)
  Radius for H  used is    2.2677 Bohr (=   1.2000 Ang.)
  Radius for F  used is    3.2692 Bohr (=   1.7300 Ang.)
Calculating surface                               ...        done! (  0.0s)
Cavity surface points                             ...          687
Cavity Volume                                     ...     397.5825
Cavity Surface-area                               ...     292.7742
Calculating surface distance matrix               ...        done! (  0.0s)
Performing Cholesky decomposition & store         ...        done! (  0.0s)
Overall time for CPCM initialization              ...                 0.0s

----------------------------------------D-I-I-S--------------------------------------------
Iteration    Energy (Eh)           Delta-E    RMSDP     MaxDP     DIISErr   Damp  Time(sec)
-------------------------------------------------------------------------------------------
               ***  Starting incremental Fock matrix formation  ***
                              *** Initializing SOSCF ***
---------------------------------------S-O-S-C-F--------------------------------------
Iteration    Energy (Eh)           Delta-E    RMSDP     MaxDP     MaxGrad    Time(sec)
--------------------------------------------------------------------------------------
    1    -178.7307200994363825     0.00e+00  4.51e-05  6.08e-04  6.37e-05     0.2
               *** Restarting incremental Fock matrix formation ***
    2    -178.7307228368861161    -2.74e-06  1.93e-05  1.95e-04  6.03e-05     0.1
    3    -178.7307230296461853    -1.93e-07  7.83e-06  1.60e-04  3.64e-05     0.2
    4    -178.7307230059538483     2.37e-08  5.44e-06  9.51e-05  4.96e-05     0.1
    5    -178.7307230488743812    -4.29e-08  6.47e-07  1.23e-05  1.92e-06     0.1
                  *** Gradient check signals convergence ***

               *****************************************************
               *                     SUCCESS                       *
               *           SCF CONVERGED AFTER   5 CYCLES          *
               *****************************************************


SMD CDS free energy correction energy :                 0.03249     Kcal/mol
Total Energy after SMD CDS correction =              -178.730671277 Eh
             **** ENERGY FILE WAS UPDATED (job.en.tmp) ****

----------------
TOTAL SCF ENERGY
----------------

Total Energy       :       -178.73067127705207 Eh           -4863.50882 eV

Components:
Nuclear Repulsion  :         78.04998192582839 Eh            2123.84798 eV
Electronic Energy  :       -256.77309373321020 Eh           -6987.15110 eV
One Electron Energy:       -399.30682900425955 Eh          -10865.69122 eV
Two Electron Energy:        142.53373527104932 Eh            3878.54012 eV
CPCM Dielectric    :         -0.00761124149252 Eh              -0.20711 eV
SMD CDS (Gcds)     :          0.00005177182232 Eh               0.00141 eV

Virial components:
Potential Energy   :       -355.80158816681171 Eh           -9681.85343 eV
Kinetic Energy     :        177.07091688975964 Eh            4818.34461 eV
Virial Ratio       :          2.00937338788575

DFT components:
N(Alpha)           :       13.000016176627 electrons
N(Beta)            :       13.000016176627 electrons
N(Total)           :       26.000032353254 electrons
E(X)               :      -22.019802112335 Eh       
E(C)               :       -0.851220166128 Eh       
E(XC)              :      -22.871022278462 Eh       

CPCM Solvation Model Properties:
Surface-charge          :         -0.02923048356853
Corrected charge        :          0.00000000000000
Outlying charge corr.   :          0.00008761287589 Eh               0.00238 eV
Free-energy (cav+disp)  :          0.00005177182232 Eh               0.00141 eV

---------------
SCF CONVERGENCE
---------------

  Last Energy change         ...    4.2921e-08  Tolerance :   1.0000e-08
  Last MAX-Density change    ...    1.2312e-05  Tolerance :   1.0000e-07
  Last RMS-Density change    ...    6.4685e-07  Tolerance :   5.0000e-09
  Last DIIS Error            ...    6.2258e-04  Tolerance :   5.0000e-07
  Last Orbital Gradient      ...    1.9195e-06  Tolerance :   1.0000e-05
  Last Orbital Rotation      ...    3.4801e-06  Tolerance :   1.0000e-05


Total SCF time: 0 days 0 hours 0 min 1 sec 
Finished LeanSCF after   1.2 sec

Maximum memory used throughout the entire LEANSCF-calculation: 8.8 MB


           ************************************************************
           *        Program running with 4 parallel MPI-processes     *
           *              working on a common directory               *
           ************************************************************

------------------------------------------------------------------------------
                         ORCA PROPERTY INTEGRAL CALCULATIONS
------------------------------------------------------------------------------

GBWName                                   ... job.gbw
Number of atoms                           ...      8
Number of basis functions                 ...     79
Max core memory                           ...   3000 MB

Dipole integrals                          ... YES
Quadrupole integrals                      ...  NO
Linear momentum integrals                 ...  NO
Angular momentum integrals                ...  NO
Higher moments length integrals           ...  NO
Higher moments velocity integrals         ...  NO
Kinetic energy integrals                  ...  NO
GIAO right hand sides                     ...  NO
GIAO dipole derivative integrals          ...  NO
SOC integrals                             ...  NO
EPR diamagnetic integrals (GIAO)          ...  NO
EPR gauge integrals                       ...  NO
Field gradient integrals                  ...  NO (   0 nuclei)
Spin-dipole/Fermi contact integrals       ...  NO (   0 nuclei)
Contact density integrals                 ...  NO (   0 nuclei)
Nucleus-orbit integrals                   ...  NO (   0 nuclei)
Geometric perturbations                   ...  NO (   8 nuclei)

Choice of electric origin   ... Center of mass
Position of electric origin ... ( -7.7368, -2.0692, -1.7597) 
Choice of magnetic origin   ... GIAO
Position of magnetic origin ... (  0.0000,  0.0000,  0.0000) 

Calculating integrals                     ... Electric Dipole (Length)     done (  0.0 sec)

Property integrals calculated in   0.0 sec

Maximum memory used throughout the entire PROPINT-calculation: 6.5 MB

-------------------------   --------------------
FINAL SINGLE POINT ENERGY      -178.730671277052
-------------------------   --------------------



           ************************************************************
           *        Program running with 4 parallel MPI-processes     *
           *              working on a common directory               *
           ************************************************************
------------------------------------------------------------------------------
                         ORCA SCF GRADIENT CALCULATION
------------------------------------------------------------------------------

Nuc. rep. gradient        (SHARK) ... done (  0.0 sec)
HCore & Overlap gradient  (SHARK) ... done (  0.0 sec)
Split-RIJ-J gradient      (SHARK) ... done (  0.1 sec)
XC gradient                       ... done (  0.4 sec)
CPCM gradient                     ... done (  0.1 sec)
SMD gradient                      ... done (  0.0 sec)

------------------
CARTESIAN GRADIENT
------------------

   1   C   :    0.000059496   -0.000036220    0.000068887
   2   H   :    0.000015510   -0.000005775   -0.000044481
   3   H   :    0.000036323    0.000051899   -0.000020541
   4   C   :    0.000008844    0.000040242    0.000234572
   5   H   :   -0.000032421   -0.000035260   -0.000164994
   6   F   :   -0.000020585    0.000001353   -0.000057941
   7   H   :   -0.000012532   -0.000005254   -0.000012923
   8   H   :   -0.000054635   -0.000010985   -0.000002579

Difference to translation invariance:
           :   -0.0000000000    0.0000000000    0.0000000000

Difference to rotation invariance:
           :   -0.0000076699    0.0000190914   -0.0000251076

Norm of the Cartesian gradient     ...    0.0003313157
RMS gradient                       ...    0.0000676295
MAX gradient                       ...    0.0002345720

-------
TIMINGS
-------

Total SCF gradient time     ....        0.700 sec

Densities                   ....       0.000 sec  (  0.0%)
One electron gradient       ....       0.013 sec  (  1.9%)
RI-J Coulomb gradient       ....       0.149 sec  ( 21.3%)
XC gradient                 ....       0.360 sec  ( 51.5%)
CPCM gradient               ....       0.100 sec  ( 14.2%)
   A-Matrix (El+Nuc)        ....       0.034 sec  (  4.9%)
   Potential                ....       0.066 sec  (  9.4%)
SMD gradient                ....       0.002 sec  (  0.3%)

Maximum memory used throughout the entire SCFGRAD-calculation: 10.4 MB
------------------------------------------------------------------------------
                         ORCA GEOMETRY RELAXATION STEP
------------------------------------------------------------------------------

Reading the OPT-File                    .... done
Getting information on internals        .... done
Copying old internal coords+grads       .... done
Making the new internal coordinates     .... (2022 redundants) done
Validating the new internal coordinates .... (2022 redundants) done
Calculating the B-matrix                .... done
Calculating the G,G- and P matrices     .... done
Transforming gradient to internals      .... done
Projecting the internal gradient        .... done
Number of atoms                         ....   8
Number of internal coordinates          ....  25
Current Energy                          ....  -178.730671277 Eh
Current gradient norm                   ....     0.000331316 Eh/bohr
Maximum allowed component of the step   ....  0.300
Current trust radius                    ....  0.700
Updating the Hessian (BFGS)             .... done
Forming the augmented Hessian           .... done
Diagonalizing the augmented Hessian     .... done
Last element of RFO vector              ....  0.999985422
Lowest eigenvalues of augmented Hessian:
 -0.000000568  0.009737268  0.075508350  0.118464438  0.134817465
Length of the computed step             ....  0.005399711
The final length of the internal step   ....  0.005399711
Converting the step to Cartesian space:
 Initial RMS(Int)=    0.0010799422
Transforming coordinates:
 Iter   0:  RMS(Cart)=    0.0012287810 RMS(Int)=    0.0010798454
done
Storing new coordinates                 .... done
The predicted energy change is          ....    -0.000000284
Previously predicted energy change      ....    -0.000001273
Actually observed energy change         ....    -0.000001615
Ratio of predicted to observed change   ....     1.268880599
New trust radius                        ....     0.700000000

                                .--------------------.
          ----------------------|Geometry convergence|-------------------------
          Item                value                   Tolerance       Converged
          ---------------------------------------------------------------------
          Energy change      -0.0000016149            0.0000050000      YES
          RMS gradient        0.0000551197            0.0001000000      YES
          MAX gradient        0.0001679012            0.0003000000      YES
          RMS step            0.0010799422            0.0020000000      YES
          MAX step            0.0027460149            0.0040000000      YES
          ........................................................
          Max(Bonds)      0.0002      Max(Angles)    0.04
          Max(Dihed)        0.16      Max(Improp)    0.00
          ---------------------------------------------------------------------

                    ***********************HURRAY********************
                    ***        THE OPTIMIZATION HAS CONVERGED     ***
                    *************************************************


    ---------------------------------------------------------------------------
                         Redundant Internal Coordinates

                          --- Optimized Parameters ---  
                            (Angstroem and degrees)

        Definition                    OldVal   dE/dq     Step     FinalVal
    ----------------------------------------------------------------------------
     1. B(H   1,C   0)                1.1102 -0.000008  0.0000    1.1102   
     2. B(H   2,C   0)                1.1091  0.000003 -0.0000    1.1091   
     3. B(C   3,C   0)                1.5084  0.000046 -0.0000    1.5084   
     4. B(H   4,C   3)                1.1099 -0.000168  0.0002    1.1101   
     5. B(F   5,C   3)                1.4288  0.000004  0.0001    1.4289   
     6. B(H   6,C   3)                1.1102  0.000015 -0.0000    1.1101   
     7. B(H   7,C   0)                1.1091  0.000002 -0.0000    1.1091   
     8. A(H   1,C   0,H   7)          107.81 -0.000011    0.02    107.83   
     9. A(H   1,C   0,C   3)          108.98  0.000041   -0.01    108.97   
    10. A(C   3,C   0,H   7)          111.42 -0.000107    0.04    111.45   
    11. A(H   2,C   0,H   7)          109.08  0.000010   -0.01    109.06   
    12. A(H   2,C   0,C   3)          111.56  0.000110   -0.04    111.52   
    13. A(H   1,C   0,H   2)          107.85 -0.000045    0.01    107.86   
    14. A(C   0,C   3,H   6)          112.21 -0.000018    0.02    112.23   
    15. A(H   4,C   3,F   5)          106.36  0.000017   -0.01    106.35   
    16. A(C   0,C   3,F   5)          110.27 -0.000043   -0.00    110.26   
    17. A(F   5,C   3,H   6)          106.33 -0.000038    0.00    106.34   
    18. A(H   4,C   3,H   6)          109.04 -0.000003    0.04    109.08   
    19. A(C   0,C   3,H   4)          112.30  0.000081   -0.04    112.26   
    20. D(H   4,C   3,C   0,H   2)     57.13  0.000016    0.10     57.23   
    21. D(H   4,C   3,C   0,H   7)    179.30  0.000031    0.08    179.38   
    22. D(F   5,C   3,C   0,H   1)    179.73 -0.000067    0.16    179.88   
    23. D(F   5,C   3,C   0,H   2)    -61.29 -0.000029    0.14    -61.15   
    24. D(F   5,C   3,C   0,H   7)     60.88 -0.000013    0.12     61.00   
    25. D(H   4,C   3,C   0,H   1)    -61.85 -0.000022    0.11    -61.74   
    ----------------------------------------------------------------------------

Geometry step timings:
Preparation and reading OPT file:      0.001 s ( 0.833 %)
Internal coordinates            :      0.000 s ( 0.029 %)
B/P matrices and projection     :      0.000 s ( 0.420 %)
Hessian update/contruction      :      0.069 s (96.440 %)
Making the step                 :      0.000 s ( 0.346 %)
Converting the step to Cartesian:      0.000 s ( 0.066 %)
Storing new data                :      0.000 s ( 0.156 %)
Checking convergence            :      0.000 s ( 0.020 %)
Final printing                  :      0.001 s ( 1.683 %)
Total time                      :      0.072 s
                 *******************************************************
                 *** FINAL ENERGY EVALUATION AT THE STATIONARY POINT ***
                 ***               (AFTER    8 CYCLES)               ***
                 *******************************************************
---------------------------------
CARTESIAN COORDINATES (ANGSTROEM)
---------------------------------
  C     -3.228866   -0.178318   -1.344037
  H     -3.233239    0.928640   -1.259413
  H     -2.310571   -0.553817   -0.848253
  C     -4.473560   -0.725084   -0.690493
  H     -4.520741   -0.483784    0.391999
  F     -4.497322   -2.150533   -0.786202
  H     -5.400177   -0.363565   -1.183547
  H     -3.189921   -0.436367   -2.422004

----------------------------
CARTESIAN COORDINATES (A.U.)
----------------------------
  NO LB      ZA    FRAG     MASS         X           Y           Z
   0 C     6.0000    0    12.011   -6.101673   -0.336973   -2.539861
   1 H     1.0000    0     1.008   -6.109936    1.754875   -2.379945
   2 H     1.0000    0     1.008   -4.366347   -1.046563   -1.602967
   3 C     6.0000    0    12.011   -8.453803   -1.370210   -1.304842
   4 H     1.0000    0     1.008   -8.542963   -0.914219    0.740770
   5 F     9.0000    0    18.998   -8.498707   -4.063919   -1.485706
   6 H     1.0000    0     1.008  -10.204856   -0.687038   -2.236579
   7 H     1.0000    0     1.008   -6.028077   -0.824614   -4.576925

--------------------------------
INTERNAL COORDINATES (ANGSTROEM)
--------------------------------
 C      0   0   0     0.000000000000     0.00000000     0.00000000
 H      1   0   0     1.110196823565     0.00000000     0.00000000
 H      1   2   0     1.109083314461   107.86446097     0.00000000
 C      1   2   3     1.508420841490   108.97423801   121.22221490
 H      4   1   2     1.110062716035   112.25822740   298.26100925
 F      4   1   2     1.428856594953   110.26194623   179.88342672
 H      4   1   2     1.110143098108   112.22726599    61.54255782
 H      1   2   3     1.109108038647   107.83079469   242.34423327

---------------------------
INTERNAL COORDINATES (A.U.)
---------------------------
 C      0   0   0     0.000000000000     0.00000000     0.00000000
 H      1   0   0     2.097967951287     0.00000000     0.00000000
 H      1   2   0     2.095863724033   107.86446097     0.00000000
 C      1   2   3     2.850502285116   108.97423801   121.22221490
 H      4   1   2     2.097714524783   112.25822740   298.26100925
 F      4   1   2     2.700147649108   110.26194623   179.88342672
 H      4   1   2     2.097866424887   112.22726599    61.54255782
 H      1   2   3     2.095910445973   107.83079469   242.34423327

---------------------
BASIS SET INFORMATION
---------------------
There are 3 groups of distinct atoms

 Group   1 Type C   : 8s5p1d contracted to 4s3p1d pattern {5111/311/1}
 Group   2 Type H   : 4s1p contracted to 2s1p pattern {31/1}
 Group   3 Type F   : 8s5p1d contracted to 4s3p1d pattern {5111/311/1}

Atom   0C    basis set group =>   1
Atom   1H    basis set group =>   2
Atom   2H    basis set group =>   2
Atom   3C    basis set group =>   1
Atom   4H    basis set group =>   2
Atom   5F    basis set group =>   3
Atom   6H    basis set group =>   2
Atom   7H    basis set group =>   2
---------------------------------
AUXILIARY/J BASIS SET INFORMATION
---------------------------------
There are 3 groups of distinct atoms

 Group   1 Type C   : 12s5p4d2f1g contracted to 6s4p3d1f1g pattern {711111/2111/211/2/1}
 Group   2 Type H   : 5s2p1d contracted to 3s1p1d pattern {311/2/1}
 Group   3 Type F   : 12s5p4d2f1g contracted to 6s4p3d1f1g pattern {711111/2111/211/2/1}

Atom   0C    basis set group =>   1
Atom   1H    basis set group =>   2
Atom   2H    basis set group =>   2
Atom   3C    basis set group =>   1
Atom   4H    basis set group =>   2
Atom   5F    basis set group =>   3
Atom   6H    basis set group =>   2
Atom   7H    basis set group =>   2


           ************************************************************
           *        Program running with 4 parallel MPI-processes     *
           *              working on a common directory               *
           ************************************************************
------------------------------------------------------------------------------
                             ORCA STARTUP CALCULATIONS
                           -- RI-GTO INTEGRALS CHOSEN --
------------------------------------------------------------------------------
------------------------------------------------------------------------------
                   ___                                                        
                  /   \      - P O W E R E D   B Y -                         
                 /     \                                                     
                 |  |  |   _    _      __       _____    __    __             
                 |  |  |  | |  | |    /  \     |  _  \  |  |  /  |          
                  \  \/   | |  | |   /    \    | | | |  |  | /  /          
                 / \  \   | |__| |  /  /\  \   | |_| |  |  |/  /          
                |  |  |   |  __  | /  /__\  \  |    /   |      \           
                |  |  |   | |  | | |   __   |  |    \   |  |\   \          
                \     /   | |  | | |  |  |  |  | |\  \  |  | \   \       
                 \___/    |_|  |_| |__|  |__|  |_| \__\ |__|  \__/        
                                                                              
                      - O R C A' S   B I G   F R I E N D -                    
                                      &                                       
                       - I N T E G R A L  F E E D E R -                       
                                                                              
 v1 FN, 2020, v2 2021, v3 2022-2024                                           
------------------------------------------------------------------------------


----------------------
SHARK INTEGRAL PACKAGE
----------------------

Number of atoms                             ...      8
Number of basis functions                   ...     79
Number of shells                            ...     39
Maximum angular momentum                    ...      2
Integral batch strategy                     ... SHARK/LIBINT Hybrid
RI-J (if used) integral strategy            ... SPLIT-RIJ (Revised 2003 algorithm where possible)
Printlevel                                  ...      1
Contraction scheme used                     ... SEGMENTED contraction
Prescreening option                         ... SCHWARTZ
   Thresh                                   ... 2.500e-11
   Tcut                                     ... 2.500e-12
   Tpresel                                  ... 2.500e-12 
Coulomb Range Separation                    ... NOT USED
Exchange Range Separation                   ... NOT USED
Multipole approximations                    ... NOT USED
Finite Nucleus Model                        ... NOT USED
CABS basis                                  ... NOT available
Auxiliary Coulomb fitting basis             ... AVAILABLE
   # of basis functions in Aux-J            ...    202
   # of shells in Aux-J                     ...     70
   Maximum angular momentum in Aux-J        ...      4
Auxiliary J/K fitting basis                 ... NOT available
Auxiliary Correlation fitting basis         ... NOT available
Auxiliary 'external' fitting basis          ... NOT available

Checking pre-screening integrals            ... done (  0.0 sec) Dimension = 39
Check shell pair data                       ... done (  0.0 sec)
Shell pair information
Shell pair cut-off parameter TPreSel        ...   2.5e-12
Total number of shell pairs                 ...       780
Shell pairs after pre-screening             ...       778
Total number of primitive shell pairs       ...      2332
Primitive shell pairs kept                  ...      2058
          la=0 lb=0:    252 shell pairs
          la=1 lb=0:    307 shell pairs
          la=1 lb=1:    105 shell pairs
          la=2 lb=0:     66 shell pairs
          la=2 lb=1:     42 shell pairs
          la=2 lb=2:      6 shell pairs

Calculating one electron integrals          ... done (  0.0 sec)
Calculating RI/J V-Matrix + Cholesky decomp.... done (  0.0 sec)
Calculating Nuclear repulsion               ... done (  0.0 sec) ENN=     78.049167594642 Eh

Diagonalization of the overlap matrix:
Smallest eigenvalue                        ... 4.310e-04
Time for diagonalization                   ...    0.001 sec
Threshold for overlap eigenvalues          ... 1.000e-07
Number of eigenvalues below threshold      ... 0
Time for construction of square roots      ...    0.003 sec
Total time needed                          ...    0.005 sec

-------------------
DFT GRID GENERATION
-------------------

General Integration Accuracy     IntAcc      ... 4.388
Radial Grid Type                 RadialGrid  ... OptM3 with GC (2021)
Angular Grid (max. ang.)         AngularGrid ... 4 (Lebedev-302)
Angular grid pruning method      GridPruning ... 4 (adaptive)
Weight generation scheme         WeightScheme... mBecke (2022)
Basis function cutoff            BFCut       ... 1.0000e-11
Integration weight cutoff        WCut        ... 1.0000e-14
Partially contracted basis set               ... off
Rotationally invariant grid construction     ... off
Angular grids for H and He will be reduced by one unit
Diffuse basis detected: some atoms will have their outermost
                        angular grid increased by 1.

Total number of grid points                  ...    35453
Total number of batches                      ...      558
Average number of points per batch           ...       63
Average number of grid points per atom       ...     4432
Initializing property integral containers    ... done (  0.0 sec)

SHARK setup successfully completed in   0.4 seconds

Maximum memory used throughout the entire STARTUP-calculation: 11.8 MB


           ************************************************************
           *        Program running with 4 parallel MPI-processes     *
           *              working on a common directory               *
           ************************************************************
-------------------------------------------------------------------------------
                                 ORCA GUESS
                   Start orbitals & Density for SCF / CASSCF
-------------------------------------------------------------------------------

------------
SCF SETTINGS
------------
Hamiltonian:
 Density Functional     Method          .... DFT(GTOs)
 Exchange Functional    Exchange        .... PBE
   PBE kappa parameter   XKappa         ....  0.804000
   PBE mue parameter    XMuePBE         ....  0.219520
 Correlation Functional Correlation     .... PBE
   PBE beta parameter  CBetaPBE         ....  0.066725
 LDA part of GGA corr.  LDAOpt          .... PW91-LDA
 Gradients option       PostSCFGGA      .... off
   NL short-range parameter             ....  6.400000
 RI-approximation to the Coulomb term is turned on
   Number of AuxJ basis functions       .... 202


General Settings:
 Integral files         IntName         .... job
 Hartree-Fock type      HFTyp           .... RHF
 Total Charge           Charge          ....    0
 Multiplicity           Mult            ....    1
 Number of Electrons    NEL             ....   26
 Basis Dimension        Dim             ....   79
 Nuclear Repulsion      ENuc            ....     78.0491675946 Eh

Convergence Acceleration:
 AO-DIIS                CNVDIIS         .... on
   Start iteration      DIISMaxIt       ....    12
   Startup error        DIISStart       ....  0.200000
   # of expansion vecs  DIISMaxEq       ....     5
   Bias factor          DIISBfac        ....   1.050
   Max. coefficient     DIISMaxC        ....  10.000
 MO-DIIS                CNVKDIIS        .... off
 Trust-Rad. Augm. Hess. CNVTRAH         .... auto
   Auto Start mean grad. ratio tolernc. ....  1.125000
   Auto Start start iteration           ....     1
   Auto Start num. interpolation iter.  ....    10
   Max. Number of Micro iterations      ....    24
   Max. Number of Macro iterations      .... Maxiter - #DIIS iter
   Number of Davidson start vectors     ....     2
   Converg. threshold    (grad. norm)   ....   1.000e-05
   Grad. Scal. Fac. for Micro threshold ....   0.100
   Minimum threshold for Micro iter.    ....   1.000e-02
   NR start threshold (gradient norm)   ....   1.000e-04
   Initial trust radius                 ....   0.400
   Minimum AH scaling param. (alpha)    ....   1.000
   Maximum AH scaling param. (alpha)    .... 1000.000
   Quad. conv. algorithm                .... NR
   White noise on init. David. guess    .... on
   Maximum white noise                  ....   0.010
   Pseudo random numbers                .... off
   Inactive MOs                         .... canonical
   Orbital update algorithm             .... Taylor
   Preconditioner                       .... Diag
   Full preconditioner red. dimension   ....   250
 SOSCF                  CNVSOSCF        .... on
   Start iteration      SOSCFMaxIt      ....   150
   Startup grad/error   SOSCFStart      ....  0.003300
   Hessian update       SOSCFHessUp     .... L-BFGS
 Level Shifting         CNVShift        .... on
   Level shift para.    LevelShift      ....    0.2500
   Turn off err/grad.   ShiftErr        ....    0.0010
 Zerner damping         CNVZerner       .... off
 Static damping         CNVDamp         .... on
   Fraction old density DampFac         ....    0.7000
   Max. Damping (<1)    DampMax         ....    0.9800
   Min. Damping (>=0)   DampMin         ....    0.0000
   Turn off err/grad.   DampErr         ....    0.1000

SCF Procedure:
 Maximum # iterations   MaxIter         ....   125
 SCF integral mode      SCFMode         .... Direct
   Integral package                     .... SHARK and LIBINT hybrid scheme
 Reset frequency        DirectResetFreq ....    20
 Integral Threshold     Thresh          ....  2.500e-11 Eh
 Primitive CutOff       TCut            ....  2.500e-12 Eh

Convergence Tolerance:
 Convergence Check Mode ConvCheckMode   .... Total+1el-Energy
 Convergence forced     ConvForced      .... 0
 Energy Change          TolE            ....  1.000e-08 Eh
 1-El. energy change                    ....  1.000e-05 Eh
 Orbital Gradient       TolG            ....  1.000e-05
 Orbital Rotation angle TolX            ....  1.000e-05
 DIIS Error             TolErr          ....  5.000e-07

---------------------
INITIAL GUESS: MOREAD
---------------------
Guess MOs are being read from file: job.gbw
Input Geometry matches current geometry (good)
Input basis set matches current basis set (good)
Occupation numbers will be reassigned to an Aufbau configuration
MOs were renormalized
MOs were reorthogonalized (Cholesky)
                      ------------------
                      INITIAL GUESS DONE (   0.0 sec)
                      ------------------
             **** ENERGY FILE WAS UPDATED (job.en.tmp) ****
Finished Guess after   0.4 sec
Maximum memory used throughout the entire GUESS-calculation: 6.4 MB


           ************************************************************
           *        Program running with 4 parallel MPI-processes     *
           *              working on a common directory               *
           ************************************************************

-------------------------------------------------------------------------------------------
                                      ORCA LEAN-SCF
                              memory conserving SCF solver
-------------------------------------------------------------------------------------------

--------------------
CPCM SOLVATION MODEL
--------------------
CPCM parameters:
  Epsilon                                         ...      35.6880
  Refrac                                          ...       1.3442
  Rsolv                                           ...       1.3000
  Surface type                                    ... GAUSSIAN VDW
  Discretization scheme                           ... Constant charge density
    Threshold for H atoms                         ...       5.0000 (charges/Ang^2)
    Threshold for non-H atoms                     ...       5.0000 (charges/Ang^2)
  Epsilon function type                           ...         CPCM
Solvent:                                          ... ACETONITRILE
SMD-CDS solvent descriptors:
  Soln                                            ...       1.3442
  Soln25                                          ...       1.3416
  Sola                                            ...       0.0700
  Solb                                            ...       0.3200
  Solg                                            ...      41.2500
  Solc                                            ...       0.0000
  Solh                                            ...       0.0000
Radii:
  Scheme                                          ... Element-dependent radii
  Radius for C  used is    3.4960 Bohr (=   1.8500 Ang.)
  Radius for H  used is    2.2677 Bohr (=   1.2000 Ang.)
  Radius for F  used is    3.2692 Bohr (=   1.7300 Ang.)
Calculating surface                               ...        done! (  0.0s)
Cavity surface points                             ...          687
Cavity Volume                                     ...     397.5861
Cavity Surface-area                               ...     292.7790
Calculating surface distance matrix               ...        done! (  0.0s)
Performing Cholesky decomposition & store         ...        done! (  0.0s)
Overall time for CPCM initialization              ...                 0.0s

----------------------------------------D-I-I-S--------------------------------------------
Iteration    Energy (Eh)           Delta-E    RMSDP     MaxDP     DIISErr   Damp  Time(sec)
-------------------------------------------------------------------------------------------
               ***  Starting incremental Fock matrix formation  ***
                              *** Initializing SOSCF ***
---------------------------------------S-O-S-C-F--------------------------------------
Iteration    Energy (Eh)           Delta-E    RMSDP     MaxDP     MaxGrad    Time(sec)
--------------------------------------------------------------------------------------
    1    -178.7307225996362661     0.00e+00  2.55e-05  3.35e-04  3.88e-05     0.2
               *** Restarting incremental Fock matrix formation ***
    2    -178.7307234926682611    -8.93e-07  1.10e-05  1.06e-04  3.66e-05     0.1
    3    -178.7307235588697552    -6.62e-08  1.71e-06  3.65e-05  5.45e-06     0.1
    4    -178.7307235588108085     5.89e-11  9.70e-07  1.99e-05  7.43e-06     0.1
                 **** Energy Check signals convergence ****

               *****************************************************
               *                     SUCCESS                       *
               *           SCF CONVERGED AFTER   4 CYCLES          *
               *****************************************************


SMD CDS free energy correction energy :                 0.03258     Kcal/mol
Total Energy after SMD CDS correction =              -178.730671634 Eh
             **** ENERGY FILE WAS UPDATED (job.en.tmp) ****

----------------
TOTAL SCF ENERGY
----------------

Total Energy       :       -178.73067163350586 Eh           -4863.50883 eV

Components:
Nuclear Repulsion  :         78.04916759464223 Eh            2123.82582 eV
Electronic Energy  :       -256.77227833928816 Eh           -6987.12891 eV
One Electron Energy:       -399.30506488886044 Eh          -10865.64321 eV
Two Electron Energy:        142.53278654957228 Eh            3878.51430 eV
CPCM Dielectric    :         -0.00761281416486 Eh              -0.20716 eV
SMD CDS (Gcds)     :          0.00005192530493 Eh               0.00141 eV

Virial components:
Potential Energy   :       -355.80132726465831 Eh           -9681.84633 eV
Kinetic Energy     :        177.07065563115248 Eh            4818.33750 eV
Virial Ratio       :          2.00937487917711

DFT components:
N(Alpha)           :       13.000016326455 electrons
N(Beta)            :       13.000016326455 electrons
N(Total)           :       26.000032652910 electrons
E(X)               :      -22.019713199249 Eh       
E(C)               :       -0.851215303483 Eh       
E(XC)              :      -22.870928502733 Eh       

CPCM Solvation Model Properties:
Surface-charge          :         -0.02923166756058
Corrected charge        :         -0.00000000000000
Outlying charge corr.   :          0.00008761971060 Eh               0.00238 eV
Free-energy (cav+disp)  :          0.00005192530493 Eh               0.00141 eV

---------------
SCF CONVERGENCE
---------------

  Last Energy change         ...   -5.8947e-11  Tolerance :   1.0000e-08
  Last MAX-Density change    ...    1.9880e-05  Tolerance :   1.0000e-07
  Last RMS-Density change    ...    9.7007e-07  Tolerance :   5.0000e-09
  Last DIIS Error            ...    3.7807e-04  Tolerance :   5.0000e-07
  Last Orbital Gradient      ...    7.4257e-06  Tolerance :   1.0000e-05
  Last Orbital Rotation      ...    7.0060e-06  Tolerance :   1.0000e-05


----------------
ORBITAL ENERGIES
----------------

  NO   OCC          E(Eh)            E(eV) 
   0   2.0000     -24.252492      -659.9439 
   1   2.0000      -9.965157      -271.1657 
   2   2.0000      -9.892610      -269.1916 
   3   2.0000      -1.063987       -28.9525 
   4   2.0000      -0.677721       -18.4417 
   5   2.0000      -0.551015       -14.9939 
   6   2.0000      -0.438396       -11.9294 
   7   2.0000      -0.429821       -11.6960 
   8   2.0000      -0.393087       -10.6964 
   9   2.0000      -0.338945        -9.2232 
  10   2.0000      -0.335686        -9.1345 
  11   2.0000      -0.292629        -7.9628 
  12   2.0000      -0.280322        -7.6279 
  13   0.0000       0.006643         0.1808 
  14   0.0000       0.023668         0.6441 
  15   0.0000       0.036673         0.9979 
  16   0.0000       0.049290         1.3413 
  17   0.0000       0.067301         1.8314 
  18   0.0000       0.085107         2.3159 
  19   0.0000       0.093920         2.5557 
  20   0.0000       0.116306         3.1648 
  21   0.0000       0.142958         3.8901 
  22   0.0000       0.146578         3.9886 
  23   0.0000       0.151623         4.1259 
*Only the first 10 virtual orbitals were printed.

                    ********************************
                    * MULLIKEN POPULATION ANALYSIS *
                    ********************************

-----------------------
MULLIKEN ATOMIC CHARGES
-----------------------
   0 C :   -0.281349
   1 H :    0.127534
   2 H :    0.119196
   3 C :    0.044279
   4 H :    0.116315
   5 F :   -0.361344
   6 H :    0.116281
   7 H :    0.119088
Sum of atomic charges:   -0.0000000

--------------------------------
MULLIKEN REDUCED ORBITAL CHARGES
--------------------------------
  0 C s       :     3.111627  s :     3.111627
      pz      :     1.060344  p :     3.146450
      px      :     1.004230
      py      :     1.081876
      dz2     :     0.006948  d :     0.023272
      dxz     :     0.005003
      dyz     :     0.001814
      dx2y2   :     0.006516
      dxy     :     0.002992

  1 H s       :     0.849515  s :     0.849515
      pz      :     0.005106  p :     0.022951
      px      :     0.004588
      py      :     0.013258

  2 H s       :     0.858331  s :     0.858331
      pz      :     0.006401  p :     0.022472
      px      :     0.010151
      py      :     0.005921

  3 C s       :     3.100793  s :     3.100793
      pz      :     1.116138  p :     2.793890
      px      :     1.072239
      py      :     0.605513
      dz2     :     0.012122  d :     0.061038
      dxz     :     0.005497
      dyz     :     0.010910
      dx2y2   :     0.019444
      dxy     :     0.013064

  4 H s       :     0.863320  s :     0.863320
      pz      :     0.013215  p :     0.020365
      px      :     0.004397
      py      :     0.002753

  5 F s       :     3.979859  s :     3.979859
      pz      :     1.942706  p :     5.375887
      px      :     1.945816
      py      :     1.487365
      dz2     :     0.000771  d :     0.005599
      dxz     :     0.000011
      dyz     :     0.001313
      dx2y2   :     0.002228
      dxy     :     0.001276

  6 H s       :     0.863358  s :     0.863358
      pz      :     0.006441  p :     0.020361
      px      :     0.010505
      py      :     0.003415

  7 H s       :     0.858434  s :     0.858434
      pz      :     0.012685  p :     0.022478
      px      :     0.004356
      py      :     0.005437



                     *******************************
                     * LOEWDIN POPULATION ANALYSIS *
                     *******************************

----------------------
LOEWDIN ATOMIC CHARGES
----------------------
   0 C :   -0.228279
   1 H :    0.109765
   2 H :    0.098873
   3 C :    0.070875
   4 H :    0.099382
   5 F :   -0.348950
   6 H :    0.099421
   7 H :    0.098914

-------------------------------
LOEWDIN REDUCED ORBITAL CHARGES
-------------------------------
  0 C s       :     2.889793  s :     2.889793
      pz      :     1.103016  p :     3.274345
      px      :     1.076447
      py      :     1.094882
      dz2     :     0.018361  d :     0.064141
      dxz     :     0.014086
      dyz     :     0.004848
      dx2y2   :     0.018131
      dxy     :     0.008715

  1 H s       :     0.824285  s :     0.824285
      pz      :     0.012209  p :     0.065950
      px      :     0.011976
      py      :     0.041765

  2 H s       :     0.835751  s :     0.835751
      pz      :     0.017734  p :     0.065376
      px      :     0.032435
      py      :     0.015207

  3 C s       :     2.867792  s :     2.867792
      pz      :     1.110581  p :     2.926571
      px      :     1.105777
      py      :     0.710214
      dz2     :     0.028280  d :     0.134761
      dxz     :     0.014206
      dyz     :     0.022066
      dx2y2   :     0.042431
      dxy     :     0.027778

  4 H s       :     0.836565  s :     0.836565
      pz      :     0.043549  p :     0.064053
      px      :     0.012150
      py      :     0.008354

  5 F s       :     3.804714  s :     3.804714
      pz      :     1.966338  p :     5.535266
      px      :     1.963231
      py      :     1.605698
      dz2     :     0.001331  d :     0.008971
      dxz     :     0.000010
      dyz     :     0.001888
      dx2y2   :     0.003876
      dxy     :     0.001866

  6 H s       :     0.836543  s :     0.836543
      pz      :     0.018529  p :     0.064036
      px      :     0.035010
      py      :     0.010497

  7 H s       :     0.835714  s :     0.835714
      pz      :     0.040290  p :     0.065373
      px      :     0.011706
      py      :     0.013376



                      *****************************
                      * MAYER POPULATION ANALYSIS *
                      *****************************

  NA   - Mulliken gross atomic population
  ZA   - Total nuclear charge
  QA   - Mulliken gross atomic charge
  VA   - Mayer's total valence
  BVA  - Mayer's bonded valence
  FA   - Mayer's free valence

  ATOM       NA         ZA         QA         VA         BVA        FA
  0 C      6.2813     6.0000    -0.2813     3.9820     3.9820     0.0000
  1 H      0.8725     1.0000     0.1275     0.9792     0.9792     0.0000
  2 H      0.8808     1.0000     0.1192     0.9764     0.9764    -0.0000
  3 C      5.9557     6.0000     0.0443     3.9203     3.9203    -0.0000
  4 H      0.8837     1.0000     0.1163     0.9591     0.9591    -0.0000
  5 F      9.3613     9.0000    -0.3613     0.8013     0.8013    -0.0000
  6 H      0.8837     1.0000     0.1163     0.9591     0.9591    -0.0000
  7 H      0.8809     1.0000     0.1191     0.9765     0.9765     0.0000

  Mayer bond orders larger than 0.100000
B(  0-C ,  1-H ) :   0.9475 B(  0-C ,  2-H ) :   0.9558 B(  0-C ,  3-C ) :   1.1498 
B(  0-C ,  7-H ) :   0.9559 B(  3-C ,  4-H ) :   0.9542 B(  3-C ,  5-F ) :   0.8106 
B(  3-C ,  6-H ) :   0.9543 

-------
TIMINGS
-------

Total SCF time: 0 days 0 hours 0 min 1 sec 

Total time                  ....       1.022 sec
Sum of individual times     ....       0.966 sec  ( 94.5%)

SCF preparation             ....       0.399 sec  ( 39.1%)
Fock matrix formation       ....       0.481 sec  ( 47.0%)
  Startup                   ....       0.009 sec  (  1.8% of F)
  Split-RI-J                ....       0.066 sec  ( 13.8% of F)
  XC integration            ....       0.270 sec  ( 56.2% of F)
    XC Preparation          ....       0.000 sec  (  0.0% of XC)
    Basis function eval.    ....       0.100 sec  ( 37.1% of XC)
    Density eval.           ....       0.046 sec  ( 17.0% of XC)
    XC-Functional eval.     ....       0.026 sec  (  9.8% of XC)
    XC-Potential eval.      ....       0.054 sec  ( 20.1% of XC)
  CPCM terms                ....       0.118 sec  ( 24.5% of F)
Diagonalization             ....       0.000 sec  (  0.0%)
Density matrix formation    ....       0.010 sec  (  0.9%)
Total Energy calculation    ....       0.008 sec  (  0.8%)
Population analysis         ....       0.029 sec  (  2.8%)
Orbital Transformation      ....       0.007 sec  (  0.7%)
Orbital Orthonormalization  ....       0.000 sec  (  0.0%)
DIIS solution               ....       0.012 sec  (  1.2%)
SOSCF solution              ....       0.021 sec  (  2.1%)
Finished LeanSCF after   1.1 sec

Maximum memory used throughout the entire LEANSCF-calculation: 8.9 MB


           ************************************************************
           *        Program running with 4 parallel MPI-processes     *
           *              working on a common directory               *
           ************************************************************

------------------------------------------------------------------------------
                         ORCA PROPERTY INTEGRAL CALCULATIONS
------------------------------------------------------------------------------

GBWName                                   ... job.gbw
Number of atoms                           ...      8
Number of basis functions                 ...     79
Max core memory                           ...   3000 MB

Dipole integrals                          ... YES
Quadrupole integrals                      ...  NO
Linear momentum integrals                 ...  NO
Angular momentum integrals                ...  NO
Higher moments length integrals           ...  NO
Higher moments velocity integrals         ...  NO
Kinetic energy integrals                  ...  NO
GIAO right hand sides                     ...  NO
GIAO dipole derivative integrals          ...  NO
SOC integrals                             ...  NO
EPR diamagnetic integrals (GIAO)          ...  NO
EPR gauge integrals                       ...  NO
Field gradient integrals                  ...  NO (   0 nuclei)
Spin-dipole/Fermi contact integrals       ...  NO (   0 nuclei)
Contact density integrals                 ...  NO (   0 nuclei)
Nucleus-orbit integrals                   ...  NO (   0 nuclei)
Geometric perturbations                   ... YES (   8 nuclei)

Choice of electric origin   ... Center of mass
Position of electric origin ... ( -7.7365, -2.0691, -1.7591) 
Choice of magnetic origin   ... GIAO
Position of magnetic origin ... (  0.0000,  0.0000,  0.0000) 

Calculating integrals                     ... Electric Dipole (Length)     done (  0.0 sec)
Calculating integrals                     ... Geometrical perturbation right hand sides

-----------------------
GEOMETRIC PERTURBATIONS (8 nuclei)
-----------------------

MaxCore                            ...   3000 MB
Number of batches                  ...      1

BATCH   0: Atoms    0 -    7 ( 24 perturbations)
   => H(core) and overlap derivative integrals     ... done (     0.0 sec)
   => Making and storing internal U-coefficients   ... done (     0.0 sec)
   => RI-J derivative integrals                    ... done (     0.2 sec)
   => RI-J response operators                      ... done (     0.0 sec)
   => XC derivative integrals                      ... done (     2.6 sec)
   => XC response operators                        ... done (     0.4 sec)
   => CPCM derivative integrals                    ... done (     0.4 sec)
   => CPCM response operators                      ... done (     0.5 sec)
   => Completing and storing right hand sides      ... done (     0.0 sec)
   => Total time for right hand sides =   4.2 sec

  geometrical perturbations done (  4.2 sec)

Property integrals calculated in   4.2 sec

Maximum memory used throughout the entire PROPINT-calculation: 15.1 MB

-------------------------   --------------------
FINAL SINGLE POINT ENERGY      -178.730671633506
-------------------------   --------------------

                                *** OPTIMIZATION RUN DONE ***



           ************************************************************
           *        Program running with 4 parallel MPI-processes     *
           *              working on a common directory               *
           ************************************************************
------------------------------------------------------------------------------
                            ORCA SCF RESPONSE CALCULATION
------------------------------------------------------------------------------

GBWName                                 ... job.gbw
Number of atoms                         ...      8
Number of basis functions               ...     79
Max core memory                         ...   3000 MB

Electric field perturbation             ...  NO
Quadrupolar field perturbation          ...  NO
Magnetic field perturbation (no GIAO)   ...  NO
Magnetic field perturbation (with GIAO) ...  NO
Linear momentum (velocity) perturbation ...  NO
Spin-orbit coupling perturbation        ...  NO
Choice of electric origin               ... Center of mass
Position of electric origin             ...    -7.736547    -2.069135    -1.759057
Choice of magnetic origin               ... GIAO
Position of magnetic origin             ...     0.000000     0.000000     0.000000
Nuclear geometric perturbations         ... YES (  24 perturbations)
Nucleus-orbit perturbations             ...  NO (   0 perturbations)
Spin-dipole/Fermi contact perturbations ...  NO (   0 perturbations)

Total number of real perturbations      ...     24
Total number of imaginary perturbations ...      0
Total number of triplet perturbations   ...      0
Total number of SOC perturbations       ...      0

Using XC Grid                  ... (job.grid_cpscf.tmp) 
Recalculating density on grid  ... (job.grho_cpscf0.tmp) done
Calculating the xc-kernel      ... (job.fxc_cpscf0.tmp) done

                                **********************
                                * REAL PERTURBATIONS *
                                **********************



-------------------
SHARK CP-SCF DRIVER
-------------------

Dimension of the orbital basis          ...     79
Dimension of the CPSCF-problem          ...    858
Number of operators                     ...      1
Max. number of iterations               ...    128
Convergence Tolerance                   ... 1.0e-04
Number of perturbations                 ...     24
Perturbation type                       ... REAL

----------------------------
POPLE LINEAR EQUATION SOLVER
----------------------------

  ITERATION   0:   ||err||_max =   1.4748e-01 (   0.5 sec   0/ 24 done)
  ITERATION   1:   ||err||_max =   2.2286e-02 (   0.5 sec   0/ 24 done)
  ITERATION   2:   ||err||_max =   5.9652e-03 (   0.5 sec   0/ 24 done)
  ITERATION   3:   ||err||_max =   1.1892e-03 (   0.4 sec   0/ 24 done)
  ITERATION   4:   ||err||_max =   2.2589e-04 (   0.5 sec  12/ 24 done)
  ITERATION   5:   ||err||_max =   7.0902e-05 (   0.3 sec  24/ 24 done)

CP-SCF equations solved in   2.7 sec
Response densities calculated in   0.0 sec

Maximum memory used throughout the entire SCFRESP-calculation: 8.0 MB


           ************************************************************
           *        Program running with 4 parallel MPI-processes     *
           *              working on a common directory               *
           ************************************************************

------------------------------------------------------------------------------
                              ORCA PROPERTY CALCULATIONS
------------------------------------------------------------------------------

GBWName                                 ... job.gbw
Number of atoms                         ...      8
Number of basis functions               ...     79
Max core memory                         ...   3000 MB

Electric properties:
Dipole moment                           ... YES
Quadrupole moment                       ...  NO
Static polarizability (Dipole/Dipole)   ...  NO
Static polarizability (Dipole/Quad.)    ...  NO
Static polarizability (Quad./Quad.)     ...  NO
Static polarizability (Velocity)        ...  NO

Atomic electric properties:
Dipole moment                           ...  NO
Quadrupole moment                       ...  NO
Static polarizability                   ...  NO

Choice of electric origin               ... Center of mass
Position of electric origin             ...    -7.736547    -2.069135    -1.759057

General magnetic properties:
Magnetizability                         ...  NO

EPR properties:
g-Tensor (aka g-matrix)                 ...  NO
Zero-Field splitting spin-orbit         ...  NO
Zero-field splitting spin-spin          ...  NO
Hyperfine couplings                     ...  NO (   0 nuclei)
Quadrupole couplings                    ...  NO (   0 nuclei)
Contact density                         ...  NO (   0 nuclei)

NMR properties:
Chemical shifts                         ...  NO (   0 nuclei)
Spin-rotation constants                 ...  NO (   0 nuclei)
Spin-spin couplings                     ...  NO (   0 nuclei,    0 pairs)

Choice of magnetic origin               ... GIAO
Position of magnetic origin             ...     0.000000     0.000000     0.000000

Properties with geometric perturbations:
SCF Hessian                             ... YES
IR spectrum                             ... YES
VCD spectrum                            ...  NO
X-ray spectroscopy properties:
SCF XES/XAS/RIXS spectra                ...  NO


-------------
DIPOLE MOMENT
-------------

Method             : SCF
Type of density    : Electron Density
Multiplicity       :   1
Irrep              :   0
Energy             :  -178.7306716335058638 Eh
Relativity type    : 
Basis              : AO
                                X                 Y                 Z
Electronic contribution:     -1.977991555      -4.188309708       0.786178575
Nuclear contribution   :      2.076827078       5.261570972      -0.759745563
                        -----------------------------------------
Total Dipole Moment    :      0.098835523       1.073261264       0.026433012
                        -----------------------------------------
Magnitude (a.u.)       :      1.078126573
Magnitude (Debye)      :      2.740379966



--------------------
Rotational spectrum 
--------------------
 
Rotational constants in cm-1:             1.186170             0.303313             0.266718 
Rotational constants in MHz :         35560.477311          9093.085948          7995.998735 

Dipole components along the rotational axes: 
x,y,z [a.u.] :    -0.925494    -0.553008     0.000299 
x,y,z [Debye]:    -2.352419    -1.405634     0.000761 

 

Dipole moment calculation done in   0.0 sec 

-----------
SCF HESSIAN
-----------

Occupied/Occupied contributions to the Hessian:
   => Occupied/Occupied contributions              ... done (  0.0 sec)
Perturbed density contributions to the Hessian:
   => Perturbed density contributions              ... done (  0.0 sec)
Explicit contributions to the Hessian:
   => Nuclear repulsion Hessian                    ... done (  0.0 sec)
   => HCore and overlap Hessian                    ... done (  0.2 sec)
   => RI-J Hessian                                 ... done (  0.4 sec)
   => XC-Hessian                                   ... done (  2.2 sec)
   => CPCM-Hessian                                 ... done (  0.4 sec)
   => SMD-Hessian                                  ... done (  0.0 sec)
   => Explicit contributions done
Dipole derivatives                                 ... done (  0.0 sec)
Mass weighting the Hessian           ... done
Calculating normal modes             ... done
Scaling frequencies                  ... done

-----------------------
VIBRATIONAL FREQUENCIES
-----------------------

Scaling factor for frequencies =  1.000000000  (already applied!)

     0:       0.00 cm**-1
     1:       0.00 cm**-1
     2:       0.00 cm**-1
     3:       0.00 cm**-1
     4:       0.00 cm**-1
     5:       0.00 cm**-1
     6:     262.58 cm**-1
     7:     402.08 cm**-1
     8:     781.40 cm**-1
     9:     831.26 cm**-1
    10:     984.46 cm**-1
    11:    1079.23 cm**-1
    12:    1123.32 cm**-1
    13:    1241.50 cm**-1
    14:    1316.54 cm**-1
    15:    1348.32 cm**-1
    16:    1378.53 cm**-1
    17:    1397.39 cm**-1
    18:    1420.53 cm**-1
    19:    2974.75 cm**-1
    20:    2992.21 cm**-1
    21:    3052.09 cm**-1
    22:    3067.57 cm**-1
    23:    3077.87 cm**-1


------------
NORMAL MODES
------------

These modes are the Cartesian displacements weighted by the diagonal matrix
M(i,i)=1/sqrt(m[i]) where m[i] is the mass of the displaced atom
Thus, these vectors are normalized but *not* orthogonal

                  0          1          2          3          4          5    
      0       0.000000   0.000000   0.000000   0.000000   0.000000   0.000000
      1       0.000000   0.000000   0.000000   0.000000   0.000000   0.000000
      2       0.000000   0.000000   0.000000   0.000000   0.000000   0.000000
      3       0.000000   0.000000   0.000000   0.000000   0.000000   0.000000
      4       0.000000   0.000000   0.000000   0.000000   0.000000   0.000000
      5       0.000000   0.000000   0.000000   0.000000   0.000000   0.000000
      6       0.000000   0.000000   0.000000   0.000000   0.000000   0.000000
      7       0.000000   0.000000   0.000000   0.000000   0.000000   0.000000
      8       0.000000   0.000000   0.000000   0.000000   0.000000   0.000000
      9       0.000000   0.000000   0.000000   0.000000   0.000000   0.000000
     10       0.000000   0.000000   0.000000   0.000000   0.000000   0.000000
     11       0.000000   0.000000   0.000000   0.000000   0.000000   0.000000
     12       0.000000   0.000000   0.000000   0.000000   0.000000   0.000000
     13       0.000000   0.000000   0.000000   0.000000   0.000000   0.000000
     14       0.000000   0.000000   0.000000   0.000000   0.000000   0.000000
     15       0.000000   0.000000   0.000000   0.000000   0.000000   0.000000
     16       0.000000   0.000000   0.000000   0.000000   0.000000   0.000000
     17       0.000000   0.000000   0.000000   0.000000   0.000000   0.000000
     18       0.000000   0.000000   0.000000   0.000000   0.000000   0.000000
     19       0.000000   0.000000   0.000000   0.000000   0.000000   0.000000
     20       0.000000   0.000000   0.000000   0.000000   0.000000   0.000000
     21       0.000000   0.000000   0.000000   0.000000   0.000000   0.000000
     22       0.000000   0.000000   0.000000   0.000000   0.000000   0.000000
     23       0.000000   0.000000   0.000000   0.000000   0.000000   0.000000
                  6          7          8          9         10         11    
      0      -0.001796  -0.090088  -0.021666  -0.074775  -0.081977   0.167857
      1      -0.000069  -0.195054   0.003062  -0.165130  -0.154988  -0.077230
      2      -0.002895   0.035429  -0.038991   0.029101   0.033672  -0.099640
      3       0.296185   0.352636   0.090227  -0.715887  -0.591779  -0.198823
      4      -0.039620  -0.180043  -0.011728  -0.192130  -0.167064  -0.075485
      5       0.529335  -0.213917   0.160051   0.386247   0.319480   0.106752
      6      -0.044895  -0.229550  -0.286395   0.088352  -0.010995   0.393371
      7      -0.459613  -0.479642  -0.105899   0.224986   0.183769   0.406197
      8      -0.268576   0.079259   0.375109   0.016570   0.132804  -0.143603
      9      -0.037707  -0.148210  -0.031631   0.071722   0.073377  -0.209444
     10       0.005205   0.090980   0.004414  -0.201964   0.285950   0.021514
     11      -0.066876   0.090024  -0.056642  -0.055529  -0.018735   0.118560
     12      -0.113066  -0.161947   0.494736   0.133556   0.190272  -0.251251
     13       0.077820   0.032587  -0.025561   0.028934   0.321989   0.009026
     14      -0.086602   0.104159  -0.026160  -0.093840  -0.033306   0.129436
     15       0.027984   0.173398   0.007586   0.017537   0.024938   0.023283
     16      -0.003573   0.122962  -0.001142   0.215275  -0.128400  -0.004962
     17       0.049402  -0.087722   0.013702   0.006620  -0.023868  -0.013373
     18      -0.019383  -0.171656  -0.281363   0.150817   0.149395  -0.241656
     19      -0.059339   0.034995  -0.004241   0.024887   0.324501   0.007386
     20      -0.149373   0.089231   0.408855  -0.060594  -0.107961   0.147012
     21      -0.175563  -0.218069   0.474892   0.049014  -0.104430   0.355075
     22       0.486905  -0.485284   0.079872   0.230161   0.196293   0.410297
     23      -0.124498   0.099742  -0.036578  -0.058258  -0.039160  -0.212998
                 12         13         14         15         16         17    
      0       0.061264   0.037556  -0.113130   0.052507  -0.019289   0.055681
      1      -0.008718  -0.004862  -0.032840   0.077950   0.002774  -0.008306
      2       0.110054   0.067775   0.060477  -0.023508  -0.035199  -0.031272
      3      -0.136966  -0.046141   0.485115  -0.320415   0.336810   0.162271
      4       0.017422   0.006542  -0.000986   0.054424  -0.044107   0.006437
      5      -0.241842  -0.086080  -0.272839   0.179734   0.598229  -0.097519
      6       0.269226   0.168262   0.200149  -0.057426   0.179612  -0.169635
      7       0.026235   0.031209   0.267347  -0.343812   0.475753   0.187493
      8      -0.268160  -0.147382  -0.272155  -0.129725  -0.020067   0.518465
      9      -0.085736  -0.007732  -0.021892  -0.078084  -0.015120  -0.062783
     10       0.012375   0.000273  -0.042300  -0.073288   0.001225  -0.040632
     11      -0.154045  -0.013170   0.009056   0.037872  -0.025414   0.032287
     12       0.308665   0.294793   0.226557   0.171327   0.052112   0.373707
     13      -0.443328   0.587681   0.300228   0.493878  -0.022699   0.046897
     14      -0.042682  -0.121501  -0.059047  -0.068700  -0.020455   0.025356
     15       0.020753  -0.014067   0.007918   0.014203   0.001507   0.002849
     16      -0.002910   0.001720  -0.012368  -0.021459  -0.000297   0.001378
     17       0.037242  -0.025464  -0.005162  -0.009339   0.002543  -0.001507
     18      -0.170017  -0.293867   0.191686   0.183196  -0.037979   0.179149
     19       0.421437  -0.578053   0.311754   0.500297   0.027289   0.073150
     20       0.288923   0.120940  -0.127372  -0.052505   0.029627  -0.325159
     21      -0.370445  -0.213311   0.356129   0.060406  -0.148938  -0.514569
     22      -0.010507  -0.025107   0.250109  -0.355895  -0.478294   0.243189
     23       0.086026   0.063293   0.000178   0.076051   0.086983  -0.104836
                 18         19         20         21         22         23    
      0       0.008843  -0.041372   0.005689  -0.019559   0.028108  -0.041907
      1      -0.013077  -0.020987  -0.004071   0.002501  -0.084940   0.006283
      2      -0.006028   0.021804  -0.003437  -0.034964  -0.022856  -0.074124
      3       0.132650  -0.006543  -0.004004  -0.004062   0.001428  -0.005873
      4      -0.007216   0.578357   0.019151   0.002090   0.807070  -0.005408
      5      -0.074755   0.046626   0.003695  -0.007128   0.058943  -0.010990
      6      -0.077526   0.468176  -0.044755   0.248784  -0.332407   0.531152
      7       0.123937  -0.198099   0.017683  -0.106257   0.126762  -0.221559
      8       0.250281   0.262255  -0.027542   0.134000  -0.187786   0.283564
      9       0.053405  -0.000895  -0.052765   0.042428   0.003491  -0.020408
     10      -0.049307   0.002274   0.028121  -0.005720  -0.003560   0.002797
     11      -0.033804   0.000605   0.031126   0.076537  -0.002720  -0.036647
     12      -0.494756  -0.000400   0.016238   0.028798  -0.002733  -0.013426
     13       0.369129  -0.008891  -0.143036  -0.131358   0.010572   0.058555
     14      -0.136073  -0.036215  -0.684989  -0.624818   0.046793   0.294214
     15       0.003304   0.000021   0.000387  -0.000247   0.000019   0.000193
     16      -0.011265   0.000140   0.001611   0.000046   0.000544  -0.000037
     17      -0.002521   0.000002  -0.000096  -0.000445   0.000035   0.000345
     18      -0.119657   0.030565   0.585285  -0.530924  -0.035177   0.251654
     19       0.323141  -0.013307  -0.222150   0.198803   0.013818  -0.090926
     20       0.532645   0.018401   0.327244  -0.280800  -0.017891   0.133525
     21      -0.244712   0.011444   0.000888  -0.010440  -0.008004  -0.024636
     22       0.146674  -0.137713   0.011416   0.074215   0.086050   0.151839
     23      -0.049957  -0.558128   0.053476   0.291780   0.404041   0.613090


-----------
IR SPECTRUM
-----------

 Mode   freq       eps      Int      T**2         TX        TY        TZ
       cm**-1   L/(mol*cm) km/mol    a.u.
----------------------------------------------------------------------------
  6:    262.58   0.000078    0.39  0.000092  (-0.005000  0.000605 -0.008189)
  7:    402.08   0.002349   11.87  0.001823  (-0.031330 -0.024415  0.015663)
  8:    781.40   0.001047    5.29  0.000418  ( 0.010097 -0.001329  0.017727)
  9:    831.26   0.014359   72.56  0.005391  (-0.011388 -0.072527  0.000861)
 10:    984.46   0.030046  151.84  0.009524  ( 0.009049  0.097139  0.002522)
 11:   1079.23   0.002893   14.62  0.000837  (-0.023892  0.008154  0.014113)
 12:   1123.32   0.002430   12.28  0.000675  (-0.012530  0.001878 -0.022683)
 13:   1241.50   0.000279    1.41  0.000070  ( 0.003983 -0.000640  0.007335)
 14:   1316.54   0.001044    5.28  0.000248  ( 0.013245  0.004268 -0.007338)
 15:   1348.32   0.009169   46.34  0.002122  (-0.024507 -0.037565  0.010508)
 16:   1378.53   0.003113   15.73  0.000705  ( 0.012834 -0.001900  0.023161)
 17:   1397.39   0.000529    2.68  0.000118  (-0.009201  0.002606  0.005174)
 18:   1420.53   0.001289    6.51  0.000283  (-0.012949  0.007322  0.007864)
 19:   2974.75   0.002194   11.09  0.000230  (-0.013181 -0.000837  0.007463)
 20:   2992.21   0.007821   39.52  0.000816  (-0.020433  0.015518  0.012544)
 21:   3052.09   0.002027   10.24  0.000207  ( 0.006879 -0.000862  0.012617)
 22:   3067.57   0.002803   14.17  0.000285  ( 0.009414 -0.012420 -0.006502)
 23:   3077.87   0.007282   36.80  0.000738  (-0.013253  0.001776 -0.023655)

* The epsilon (eps) is given for a Dirac delta lineshape.
** The dipole moment derivative (T) already includes vibrational overlap.

The first frequency considered to be a vibration is 6
The total number of vibrations considered is 18


--------------------------
THERMOCHEMISTRY AT 298.15K
--------------------------

Temperature         ...   298.15 K
Pressure            ...     1.00 atm
Total Mass          ...    48.06 AMU
Quasi RRHO          ...     True
Cut-Off Frequency   ...     1.00 cm^-1

Throughout the following assumptions are being made:
  (1) The electronic state is orbitally nondegenerate
  (2) There are no thermally accessible electronically excited states
  (3) Hindered rotations indicated by low frequency modes are not
      treated as such but are treated as vibrations and this may
      cause some error
  (4) All equations used are the standard statistical mechanics
      equations for an ideal gas
  (5) All vibrations are strictly harmonic

freq.     262.58  E(vib)   ...       0.29 
freq.     402.08  E(vib)   ...       0.19 
freq.     781.40  E(vib)   ...       0.05 
freq.     831.26  E(vib)   ...       0.04 
freq.     984.46  E(vib)   ...       0.02 
freq.    1079.23  E(vib)   ...       0.02 
freq.    1123.32  E(vib)   ...       0.01 
freq.    1241.50  E(vib)   ...       0.01 
freq.    1316.54  E(vib)   ...       0.01 
freq.    1348.32  E(vib)   ...       0.01 
freq.    1378.53  E(vib)   ...       0.01 
freq.    1397.39  E(vib)   ...       0.00 
freq.    1420.53  E(vib)   ...       0.00 
freq.    2974.75  E(vib)   ...       0.00 
freq.    2992.21  E(vib)   ...       0.00 
freq.    3052.09  E(vib)   ...       0.00 
freq.    3067.57  E(vib)   ...       0.00 
freq.    3077.87  E(vib)   ...       0.00 

------------
INNER ENERGY
------------

The inner energy is: U= E(el) + E(ZPE) + E(vib) + E(rot) + E(trans)
    E(el)   - is the total energy from the electronic structure calculation
              = E(kin-el) + E(nuc-el) + E(el-el) + E(nuc-nuc)
    E(ZPE)  - the the zero temperature vibrational energy from the frequency calculation
    E(vib)  - the the finite temperature correction to E(ZPE) due to population
              of excited vibrational states
    E(rot)  - is the rotational thermal energy
    E(trans)- is the translational thermal energy

Summary of contributions to the inner energy U:
Electronic energy                ...   -178.73067163 Eh
Zero point energy                ...      0.06545546 Eh      41.07 kcal/mol
Thermal vibrational correction   ...      0.00107551 Eh       0.67 kcal/mol
Thermal rotational correction    ...      0.00141627 Eh       0.89 kcal/mol
Thermal translational correction ...      0.00141627 Eh       0.89 kcal/mol
-----------------------------------------------------------------------
Total thermal energy                   -178.66130813 Eh


Summary of corrections to the electronic energy:
(perhaps to be used in another calculation)
Total thermal correction                  0.00390805 Eh       2.45 kcal/mol
Non-thermal (ZPE) correction              0.06545546 Eh      41.07 kcal/mol
-----------------------------------------------------------------------
Total correction                          0.06936351 Eh      43.53 kcal/mol


--------
ENTHALPY
--------

The enthalpy is H = U + kB*T
                kB is Boltzmann's constant
Total thermal energy              ...   -178.66130813 Eh 
Thermal Enthalpy correction       ...      0.00094421 Eh       0.59 kcal/mol
-----------------------------------------------------------------------
Total Enthalpy                    ...   -178.66036392 Eh


Note: Only C1 symmetry has been detected, increase convergence thresholds 
      if your molecule has a higher symmetry. Symmetry factor of 1.0 is   
      used for the rotational entropy correction. 
 

Note: Rotational entropy computed according to Herzberg 
Infrared and Raman Spectra, Chapter V,1, Van Nostrand Reinhold, 1945 
Point Group:  C1, Symmetry Number:   1  
Rotational constants in cm-1:     1.186170     0.303313     0.266718 

Vibrational entropy computed according to the QRRHO of S. Grimme
Chem.Eur.J. 2012 18 9955 using a reference frequency of 100.0 cm-1


-------
ENTROPY
-------

The entropy contributions are T*S = T*(S(el)+S(vib)+S(rot)+S(trans))
     S(el)   - electronic entropy
     S(vib)  - vibrational entropy
     S(rot)  - rotational entropy
     S(trans)- translational entropy
The entropies will be listed as multiplied by the temperature to get
units of energy

Electronic entropy                ...      0.00000000 Eh      0.00 kcal/mol
Vibrational entropy               ...      0.00160341 Eh      1.01 kcal/mol
Rotational entropy                ...      0.01061731 Eh      6.66 kcal/mol
Translational entropy             ...      0.01783351 Eh     11.19 kcal/mol
-----------------------------------------------------------------------
Final entropy term                ...      0.03005423 Eh     18.86 kcal/mol

In case the symmetry of your molecule has not been determined correctly
or in case you have a reason to use a different symmetry number we print 
out the resulting rotational entropy values for sn=1,12:

 non-linear molecules -----------------------------------
|  sn= 1 | S(rot)=       0.01061731 Eh      6.66 kcal/mol|
|  sn= 2 | S(rot)=       0.00996285 Eh      6.25 kcal/mol|
|  sn= 3 | S(rot)=       0.00958002 Eh      6.01 kcal/mol|
|  sn= 4 | S(rot)=       0.00930840 Eh      5.84 kcal/mol|
|  sn= 5 | S(rot)=       0.00909771 Eh      5.71 kcal/mol|
|  sn= 6 | S(rot)=       0.00892556 Eh      5.60 kcal/mol|
|  sn= 7 | S(rot)=       0.00878002 Eh      5.51 kcal/mol|
|  sn= 8 | S(rot)=       0.00865394 Eh      5.43 kcal/mol|
|  sn= 9 | S(rot)=       0.00854273 Eh      5.36 kcal/mol|
|  sn=10 | S(rot)=       0.00844325 Eh      5.30 kcal/mol|
|  sn=11 | S(rot)=       0.00835326 Eh      5.24 kcal/mol|
|  sn=12 | S(rot)=       0.00827111 Eh      5.19 kcal/mol|
 linear molecules ---------------------------------------
|  Dinfh | S(rot)=       0.00657360 Eh      4.12 kcal/mol|
|  Cinfv | S(rot)=       0.00722806 Eh      4.54 kcal/mol|
 --------------------------------------------------------


-------------------
GIBBS FREE ENERGY
-------------------

The Gibbs free energy is G = H - T*S

Total enthalpy                    ...   -178.66036392 Eh 
Total entropy correction          ...     -0.03005423 Eh    -18.86 kcal/mol
-----------------------------------------------------------------------
Final Gibbs free energy         ...   -178.69041814 Eh

For completeness - the Gibbs free energy minus the electronic energy
G-E(el)                           ...      0.04025349 Eh     25.26 kcal/mol


Maximum memory used throughout the entire PROP-calculation: 16.9 MB

--------------------------------
SUGGESTED CITATIONS FOR THIS RUN
--------------------------------

Below you find a list of papers that are relevant to this ORCA run
We neither can nor want to force you to cite these papers, but we appreciate if you do
You receive ORCA, which is the product of decades of hard work by many enthusiastic individuals, for free
The only thing we kindly ask in return is that you cite our papers,
We deeply appreciate it, if you show your appreciation for ORCA by not just citing the generic ORCA reference.

Please note that relegating all ORCA citations to the supporting information does *not* help us.
SI sections are not indexed - citations you put there will not count into any citation statistics
But we need these citations in order to attract the funding resources that allow us to do what we are doing

Therefore, if you are a happy ORCA user, please consider citing a few of the papers listed below in the main body of your paper

In addition to the list printed below, the program has created the file job.bibtex that contains the list in bibtex format
You can import this file easily into all common literature databanks and citation aid programs


List of essential papers. We consider these as the minimum necessary citations

  1. Neese,F.
     Software update: the ORCA program system, version 5.0
     WIRES Comput. Molec. Sci., 2022 12(1)e1606
     doi.org/10.1002/wcms.1606

List of papers to cite with high priority. The work reported in these papers was absolutely
necessary for this run to complete.
Our perspective: the developers of density functionals and basis sets usually get cited in chemistry papers
Good! But without the algorithms to do something with them, the functionals or basis sets would not do anything.
Hence, in our opinion, the algorithm design and method developments papers are equally worthy of getting cited

  1. Neese,F.
     An improvement of the resolution of the identity approximation for the formation of the Coulomb matrix
     J. Comp. Chem., 2003 24(14)1740-1747
     doi.org/10.1002/jcc.10318
  2. Bykov,D.; Petrenko,T.; Izsak,R.; Kossmann,S.; Becker,U.; Valeev,E.; Neese,F.
     Efficient implementation of the analytic second derivatives of Hartree-Fock and hybrid DFT energies: a detailed analysis of different approximations
     Molec. Phys., 2015 113 1961-1977
     doi.org/10.1080/00268976.2015.1025114
  3. Garcia-Rates,M.; Neese,F.
     Efficient implementation of the analytical second derivatives of hartree-fock and hybrid DFT energies within the framework of the conductor-like polarizable continuum model
     J. Comput. Chem., 2019 40 1816-1828
     doi.org/10.1002/jcc.25833
  4. Garcia-Rates,M.; Neese,F.
     Effect of the Solute Cavity on the Solvation Energy and its Derivatives within the Framework of the Gaussian Charge Scheme
     J. Comput. Chem., 2020 41 922-939
     doi.org/10.1002/jcc.26139
  5. Neese,F.
     The SHARK Integral Generation and Digestion System
     J. Comp. Chem., 2022  1-16
     doi.org/10.1002/jcc.26942

List of suggested additional citations. These are papers that are important in the 'surrounding' of 
of this run, or papers that preceded the highly important papers. If you like your results we are grateful for a citation.

  1. Neese,F.
     The ORCA program system
     WIRES Comput. Molec. Sci., 2012 2(1)73-78
     doi.org/10.1002/wcms.81
  2. Neese,F.
     Software update: the ORCA program system, version 4.0
     WIRES Comput. Molec. Sci., 2018 8(1)1-6
     doi.org/10.1002/wcms.1327
  3. Neese,F.; Wennmohs,F.; Becker,U.; Riplinger,C.
     The ORCA quantum chemistry program package
     J. Chem. Phys., 2020 152 Art. No. L224108
     doi.org/10.1063/5.0004608

List of optional additional citations

  1. Neese,F.
     Approximate second-order SCF convergence for spin unrestricted wavefunctions
     Chem. Phys. Lett., 2000 325(1-3)93-98
     doi.org/10.1016/s0009-2614(00)00662-x

Timings for individual modules:

Sum of individual times          ...       60.837 sec (=   1.014 min)
Startup calculation              ...        8.946 sec (=   0.149 min)  14.7 %
SCF iterations                   ...       23.032 sec (=   0.384 min)  37.9 %
Property integrals               ...       10.469 sec (=   0.174 min)  17.2 %
SCF Response                     ...        3.398 sec (=   0.057 min)   5.6 %
Property calculations            ...        3.950 sec (=   0.066 min)   6.5 %
SCF Gradient evaluation          ...       10.852 sec (=   0.181 min)  17.8 %
Geometry relaxation              ...        0.192 sec (=   0.003 min)   0.3 %
                             ****ORCA TERMINATED NORMALLY****
TOTAL RUN TIME: 0 days 0 hours 1 minutes 6 seconds 791 msec
