   O                                    
   1.00000000000000     
    25.0000000000000000    0.0000000000000000    0.0000000000000000
     0.0000000000000000   25.0000000000000000    0.0000000000000000
     0.0000000000000000    0.0000000000000000   25.0000000000000000
   O 
     2
Direct
  0.5335283013743819  0.5139304246514058  0.4645091925822911
  0.4848624435501634  0.5133808408171916  0.4556158583916012
 
  0.00000000E+00  0.00000000E+00  0.00000000E+00
  0.00000000E+00  0.00000000E+00  0.00000000E+00
