       N       E                     dE             d eps       ncg     rms          rms(c)
DAV:   1     0.119730754287E+03    0.11973E+03   -0.15660E+03    80   0.315E+02
DAV:   2     0.381510460070E+02   -0.81580E+02   -0.81274E+02    76   0.843E+01
DAV:   3     0.718395557909E+01   -0.30967E+02   -0.30901E+02    64   0.703E+01
DAV:   4    -0.595679024872E+01   -0.13141E+02   -0.11775E+02    80   0.251E+01
DAV:   5    -0.966789738752E+01   -0.37111E+01   -0.37032E+01    68   0.136E+01    0.633E+00
RMM:   6    -0.958221582233E+01    0.85682E-01   -0.24404E+00    48   0.108E+01    0.295E+00
RMM:   7    -0.984992286993E+01   -0.26771E+00   -0.31296E-01    50   0.344E+00    0.148E+00
RMM:   8    -0.984332047200E+01    0.66024E-02   -0.95694E-02    48   0.211E+00    0.364E-01
RMM:   9    -0.985196288449E+01   -0.86424E-02   -0.61605E-03    50   0.521E-01    0.194E-01
RMM:  10    -0.985341641025E+01   -0.14535E-02   -0.16649E-03    48   0.342E-01    0.557E-02
RMM:  11    -0.985446045499E+01   -0.10440E-02   -0.94467E-05    48   0.817E-02    0.200E-02
RMM:  12    -0.985461608516E+01   -0.15563E-03   -0.44270E-05    48   0.370E-02    0.101E-02
RMM:  13    -0.985471877029E+01   -0.10269E-03   -0.16986E-05    48   0.223E-02    0.507E-03
RMM:  14    -0.985478325698E+01   -0.64487E-04   -0.34337E-06    42   0.114E-02    0.332E-03
RMM:  15    -0.985488162717E+01   -0.98370E-04   -0.91062E-06    44   0.149E-02    0.192E-03
RMM:  16    -0.985492546091E+01   -0.43834E-04   -0.31849E-06    41   0.840E-03    0.121E-03
RMM:  17    -0.985500502691E+01   -0.79566E-04   -0.45541E-06    44   0.857E-03    0.112E-03
RMM:  18    -0.985503390778E+01   -0.28881E-04   -0.72674E-07    36   0.481E-03    0.487E-04
RMM:  19    -0.985507072590E+01   -0.36818E-04   -0.16251E-06    40   0.578E-03    0.592E-04
RMM:  20    -0.985509302666E+01   -0.22301E-04   -0.11251E-06    37   0.431E-03    0.270E-04
RMM:  21    -0.985509842786E+01   -0.54012E-05   -0.28356E-07    32   0.260E-03    0.104E-04
RMM:  22    -0.985510502998E+01   -0.66021E-05   -0.22452E-07    33   0.228E-03    0.230E-04
RMM:  23    -0.985510678882E+01   -0.17588E-05   -0.98600E-08    26   0.151E-03    0.112E-04
RMM:  24    -0.985510747806E+01   -0.68924E-06   -0.51329E-08    26   0.129E-03
   1 F= -.98551387E+01 E0= -.98551387E+01  d E =-.985514E+01  mag=     2.0000
       N       E                     dE             d eps       ncg     rms          rms(c)
DAV:   1    -0.985498729695E+01    0.11949E-03   -0.15581E-01    64   0.324E+00    0.149E-01
RMM:   2    -0.985457474896E+01    0.41255E-03   -0.21375E-03    48   0.420E-01    0.676E-02
RMM:   3    -0.985496807453E+01   -0.39333E-03   -0.12623E-04    48   0.960E-02    0.301E-02
RMM:   4    -0.985506569363E+01   -0.97619E-04   -0.65736E-05    48   0.592E-02    0.103E-02
RMM:   5    -0.985509862255E+01   -0.32929E-04   -0.27271E-06    43   0.145E-02    0.551E-03
RMM:   6    -0.985511178517E+01   -0.13163E-04   -0.14456E-06    38   0.917E-03    0.202E-03
RMM:   7    -0.985511475835E+01   -0.29732E-05   -0.15576E-07    34   0.398E-03    0.628E-04
RMM:   8    -0.985511622432E+01   -0.14660E-05   -0.61299E-08    33   0.200E-03    0.264E-04
RMM:   9    -0.985511791823E+01   -0.16939E-05   -0.33296E-08    28   0.130E-03    0.242E-04
RMM:  10    -0.985511949997E+01   -0.15817E-05   -0.48504E-08    28   0.132E-03    0.844E-05
RMM:  11    -0.985512023059E+01   -0.73062E-06   -0.24485E-08    24   0.106E-03
   2 F= -.98551520E+01 E0= -.98551520E+01  d E =-.133240E-04  mag=     2.0000
       N       E                     dE             d eps       ncg     rms          rms(c)
DAV:   1    -0.985544554368E+01   -0.32604E-03   -0.94459E-03    60   0.799E-01    0.366E-02
RMM:   2    -0.985539878251E+01    0.46761E-04   -0.13390E-04    48   0.104E-01    0.166E-02
RMM:   3    -0.985544557379E+01   -0.46791E-04   -0.80397E-06    48   0.258E-02    0.742E-03
RMM:   4    -0.985545406551E+01   -0.84917E-05   -0.40365E-06    45   0.149E-02    0.254E-03
RMM:   5    -0.985545349724E+01    0.56827E-06   -0.25687E-07    34   0.515E-03
   3 F= -.98554852E+01 E0= -.98554852E+01  d E =-.333124E-03  mag=     2.0000
       N       E                     dE             d eps       ncg     rms          rms(c)
DAV:   1    -0.985556011304E+01   -0.10605E-03   -0.10063E-02    64   0.825E-01    0.381E-02
RMM:   2    -0.985551131469E+01    0.48798E-04   -0.14118E-04    48   0.107E-01    0.174E-02
RMM:   3    -0.985555777288E+01   -0.46458E-04   -0.87426E-06    48   0.268E-02    0.779E-03
RMM:   4    -0.985556695683E+01   -0.91839E-05   -0.45038E-06    45   0.157E-02    0.266E-03
RMM:   5    -0.985556670416E+01    0.25267E-06   -0.27367E-07    34   0.531E-03
   4 F= -.98555982E+01 E0= -.98555982E+01  d E =-.113061E-03  mag=     2.0000
