       N       E                     dE             d eps       ncg     rms          rms(c)
DAV:   1    -0.984455743173E+01   -0.98446E+01   -0.74816E-08   168   0.618E-04    0.170E-04
RMM:   2    -0.984455743943E+01   -0.76915E-08    0.00000E+00    68   0.136E-04
   1 F= -.98445889E+01 E0= -.98473420E+01  d E =0.110122E-01  mag=     2.0000
       N       E                     dE             d eps       ncg     rms          rms(c)
DAV:   1    -0.982856682594E+01    0.15991E-01   -0.20990E+00    96   0.608E+00    0.624E-01
RMM:   2    -0.982409489964E+01    0.44719E-02   -0.30520E-02    96   0.773E-01    0.315E-01
RMM:   3    -0.982992502901E+01   -0.58301E-02   -0.18041E-03    96   0.184E-01    0.132E-01
RMM:   4    -0.983045212516E+01   -0.52710E-03   -0.83828E-04    96   0.101E-01    0.440E-02
RMM:   5    -0.983091729536E+01   -0.46517E-03   -0.85223E-05    97   0.326E-02    0.195E-02
RMM:   6    -0.983109814400E+01   -0.18085E-03   -0.35071E-05    96   0.207E-02    0.460E-03
RMM:   7    -0.983114017984E+01   -0.42036E-04   -0.27412E-06    88   0.586E-03    0.164E-03
RMM:   8    -0.983117114541E+01   -0.30966E-04   -0.72683E-07    84   0.294E-03    0.104E-03
RMM:   9    -0.983119835514E+01   -0.27210E-04   -0.32526E-07    84   0.188E-03    0.115E-03
RMM:  10    -0.983120599116E+01   -0.76360E-05   -0.10679E-07    79   0.107E-03    0.807E-04
RMM:  11    -0.983124645338E+01   -0.40462E-04   -0.28150E-07    84   0.166E-03    0.629E-04
RMM:  12    -0.983127060065E+01   -0.24147E-04   -0.17541E-07    81   0.128E-03    0.363E-04
RMM:  13    -0.983128896799E+01   -0.18367E-04   -0.12440E-07    79   0.108E-03    0.185E-04
RMM:  14    -0.983131117722E+01   -0.22209E-04   -0.15903E-07    84   0.121E-03    0.177E-04
RMM:  15    -0.983132310318E+01   -0.11926E-04   -0.93858E-08    77   0.913E-04    0.761E-05
RMM:  16    -0.983132874903E+01   -0.56459E-05   -0.43965E-08    75   0.687E-04    0.649E-05
RMM:  17    -0.983133202599E+01   -0.32770E-05   -0.17065E-55    70   0.545E-04    0.421E-05
RMM:  18    -0.983133541100E+01   -0.33850E-05   -0.17480E-08    72   0.602E-04    0.478E-05
RMM:  19    -0.983133554463E+01   -0.13363E-06   -0.69473E-56    70   0.547E-04
   2 F= -.98313687E+01 E0= -.98341218E+01  d E =0.110122E-01  mag=     2.0000
       N       E                     dE             d eps       ncg     rms          rms(c)
DAV:   1    -0.981764387701E+01    0.13692E-01   -0.84923E+00    96   0.123E+01    0.124E+00
RMM:   2    -0.980999220147E+01    0.76517E-02   -0.12903E-01    96   0.157E+00    0.639E-01
RMM:   3    -0.982580723332E+01   -0.15815E-01   -0.69079E-03    96   0.356E-01    0.272E-01
RMM:   4    -0.982739856015E+01   -0.15913E-02   -0.47787E-03    96   0.240E-01    0.875E-02
RMM:   5    -0.982859944180E+01   -0.12009E-02   -0.32158E-04    98   0.623E-02    0.457E-02
RMM:   6    -0.982902330699E+01   -0.42387E-03   -0.24172E-04    96   0.539E-02    0.164E-02
RMM:   7    -0.982917835095E+01   -0.15504E-03   -0.18613E-05    96   0.163E-02    0.468E-03
RMM:   8    -0.982925650168E+01   -0.78151E-04   -0.43571E-06    92   0.684E-03    0.203E-03
RMM:   9    -0.982937289283E+01   -0.11639E-03   -0.14020E-06    85   0.381E-03    0.135E-03
RMM:  10    -0.982945377459E+01   -0.80882E-04   -0.10296E-06    84   0.308E-03    0.141E-03
RMM:  11    -0.982946042533E+01   -0.66507E-05   -0.26845E-07    83   0.153E-03    0.127E-03
RMM:  12    -0.982951854547E+01   -0.58120E-04   -0.49881E-07    84   0.204E-03    0.601E-04
RMM:  13    -0.982956495855E+01   -0.46413E-04   -0.50942E-07    84   0.213E-03    0.450E-04
RMM:  14    -0.982962153786E+01   -0.56579E-04   -0.72151E-07    84   0.238E-03    0.293E-04
RMM:  15    -0.982965744350E+01   -0.35906E-04   -0.58800E-07    84   0.196E-03    0.184E-04
RMM:  16    -0.982967254772E+01   -0.15104E-04   -0.26143E-07    79   0.122E-03    0.135E-04
RMM:  17    -0.982968115979E+01   -0.86121E-05   -0.12247E-07    76   0.917E-04    0.156E-04
RMM:  18    -0.982968232220E+01   -0.11624E-05   -0.43262E-08    72   0.638E-04    0.129E-04
RMM:  19    -0.982968918494E+01   -0.68627E-05   -0.47014E-08    75   0.715E-04    0.869E-05
RMM:  20    -0.982969251047E+01   -0.33255E-05   -0.25394E-08    74   0.608E-04    0.530E-05
RMM:  21    -0.982969526238E+01   -0.27519E-05   -0.34085E-56    70   0.512E-04    0.298E-05
RMM:  22    -0.982969684064E+01   -0.15783E-05   -0.21026E-56    70   0.529E-04    0.127E-05
RMM:  23    -0.982969737717E+01   -0.53653E-06    0.00000E+00    68   0.525E-04
   3 F= -.98297274E+01 E0= -.98324804E+01  d E =0.110122E-01  mag=     2.0000
       N       E                     dE             d eps       ncg     rms          rms(c)
DAV:   1    -0.983749341292E+01   -0.77966E-02   -0.44020E+00    96   0.877E+00    0.740E-01
RMM:   2    -0.982972197777E+01    0.77714E-02   -0.61170E-02    96   0.111E+00    0.364E-01
RMM:   3    -0.984211404833E+01   -0.12392E-01   -0.30530E-03    96   0.240E-01    0.152E-01
RMM:   4    -0.984313361985E+01   -0.10196E-02   -0.10815E-03    96   0.114E-01    0.526E-02
RMM:   5    -0.984391917662E+01   -0.78556E-03   -0.12599E-04    97   0.405E-02    0.225E-02
RMM:   6    -0.984417535273E+01   -0.25618E-03   -0.37392E-05    96   0.216E-02    0.740E-03
RMM:   7    -0.984425503730E+01   -0.79685E-04   -0.61812E-06    94   0.807E-03    0.464E-03
RMM:   8    -0.984428800795E+01   -0.32971E-04   -0.81326E-07    84   0.365E-03    0.568E-03
RMM:   9    -0.984429468476E+01   -0.66768E-05   -0.24957E-07    84   0.225E-03    0.452E-03
RMM:  10    -0.984434190467E+01   -0.47220E-04   -0.46576E-07    84   0.271E-03    0.126E-03
RMM:  11    -0.984439228898E+01   -0.50384E-04   -0.38753E-07    84   0.195E-03    0.615E-04
RMM:  12    -0.984443429489E+01   -0.42006E-04   -0.24478E-07    82   0.152E-03    0.395E-04
RMM:  13    -0.984447068934E+01   -0.36394E-04   -0.22183E-07    84   0.135E-03    0.275E-04
RMM:  14    -0.984450788796E+01   -0.37199E-04   -0.24556E-07    84   0.155E-03    0.179E-04
RMM:  15    -0.984452450709E+01   -0.16619E-04   -0.14052E-07    81   0.118E-03    0.114E-04
RMM:  16    -0.984453551592E+01   -0.11009E-04   -0.60844E-08    75   0.793E-04    0.100E-04
RMM:  17    -0.984453908180E+01   -0.35659E-05   -0.27008E-08    73   0.618E-04    0.778E-05
RMM:  18    -0.984454522979E+01   -0.61480E-05   -0.17220E-08    73   0.646E-04    0.830E-05
RMM:  19    -0.984454716786E+01   -0.19381E-05   -0.96661E-09    72   0.599E-04    0.593E-05
RMM:  20    -0.984454871672E+01   -0.15489E-05   -0.58207E-56    70   0.537E-04    0.294E-05
RMM:  21    -0.984455160804E+01   -0.28913E-05   -0.47311E-56    70   0.570E-04    0.182E-05
RMM:  22    -0.984455245358E+01   -0.84555E-06   -0.29643E-56    70   0.578E-04
   4 F= -.98445840E+01 E0= -.98473370E+01  d E =0.110122E-01  mag=     2.0000
       N       E                     dE             d eps       ncg     rms          rms(c)
DAV:   1    -0.982462855048E+01    0.19923E-01   -0.92160E+00    96   0.124E+01    0.760E-01
RMM:   2    -0.981688771958E+01    0.77408E-02   -0.13503E-01    96   0.146E+00    0.359E-01
RMM:   3    -0.984070037225E+01   -0.23813E-01   -0.64878E-03    97   0.291E-01    0.145E-01
RMM:   4    -0.984251334432E+01   -0.18130E-02   -0.74328E-04    97   0.822E-02    0.673E-02
RMM:   5    -0.984361489298E+01   -0.11015E-02   -0.17523E-04    96   0.505E-02    0.349E-02
RMM:   6    -0.984386041200E+01   -0.24552E-03   -0.20460E-05    96   0.172E-02    0.170E-02
RMM:   7    -0.984400730601E+01   -0.14689E-03   -0.10810E-05    97   0.141E-02    0.237E-02
RMM:   8    -0.984401898725E+01   -0.11681E-04   -0.53504E-06    92   0.110E-02    0.134E-02
RMM:   9    -0.984406404541E+01   -0.45058E-04   -0.16976E-06    86   0.538E-03    0.481E-03
RMM:  10    -0.984417947448E+01   -0.11543E-03   -0.13227E-06    85   0.491E-03    0.106E-03
RMM:  11    -0.984421761658E+01   -0.38142E-04   -0.31894E-07    83   0.241E-03    0.690E-04
RMM:  12    -0.984428818302E+01   -0.70566E-04   -0.20373E-07    83   0.199E-03    0.373E-04
RMM:  13    -0.984431986384E+01   -0.31681E-04   -0.11762E-07    82   0.122E-03    0.298E-04
RMM:  14    -0.984436253983E+01   -0.42676E-04   -0.11248E-07    82   0.134E-03    0.229E-04
RMM:  15    -0.984440826860E+01   -0.45729E-04   -0.14645E-07    83   0.170E-03    0.185E-04
RMM:  16    -0.984441960791E+01   -0.11339E-04   -0.47500E-08    74   0.762E-04    0.133E-04
RMM:  17    -0.984444431804E+01   -0.24710E-04   -0.83960E-08    82   0.133E-03    0.150E-04
RMM:  18    -0.984444836423E+01   -0.40462E-05   -0.26581E-08    73   0.575E-04    0.886E-05
RMM:  19    -0.984445662123E+01   -0.82570E-05   -0.17228E-08    74   0.668E-04    0.497E-05
RMM:  20    -0.984446483321E+01   -0.82120E-05   -0.21625E-08    76   0.737E-04    0.264E-05
RMM:  21    -0.984446693779E+01   -0.21046E-05   -0.66073E-10    71   0.493E-04    0.175E-05
RMM:  22    -0.984446887378E+01   -0.19360E-05   -0.28171E-56    70   0.474E-04    0.723E-06
RMM:  23    -0.984446927543E+01   -0.40165E-06    0.00000E+00    68   0.479E-04
   5 F= -.98445008E+01 E0= -.98472538E+01  d E =0.110122E-01  mag=     2.0000
       N       E                     dE             d eps       ncg     rms          rms(c)
DAV:   1    -0.983448553247E+01    0.99833E-02   -0.46028E+00    96   0.883E+00    0.544E-01
RMM:   2    -0.982794802266E+01    0.65375E-02   -0.65352E-02    96   0.105E+00    0.255E-01
RMM:   3    -0.984178528785E+01   -0.13837E-01   -0.29804E-03    97   0.216E-01    0.103E-01
RMM:   4    -0.984284226055E+01   -0.10570E-02   -0.32333E-04    96   0.584E-02    0.448E-02
RMM:   5    -0.984354716497E+01   -0.70490E-03   -0.10372E-04    97   0.361E-02    0.169E-02
RMM:   6    -0.984370154933E+01   -0.15438E-03   -0.81097E-06    94   0.946E-03    0.858E-03
RMM:   7    -0.984378496486E+01   -0.83416E-04   -0.25877E-06    87   0.689E-03    0.109E-02
RMM:   8    -0.984378383795E+01    0.11269E-05   -0.10238E-06    84   0.477E-03    0.777E-03
RMM:   9    -0.984380765765E+01   -0.23820E-04   -0.66058E-07    84   0.360E-03    0.320E-03
RMM:  10    -0.984389505875E+01   -0.87401E-04   -0.55742E-07    84   0.342E-03    0.608E-04
RMM:  11    -0.984392217073E+01   -0.27112E-04   -0.22042E-07    83   0.200E-03    0.393E-04
RMM:  12    -0.984395624054E+01   -0.34070E-04   -0.12434E-07    83   0.146E-03    0.285E-04
RMM:  13    -0.984400452386E+01   -0.48283E-04   -0.18105E-07    83   0.176E-03    0.196E-04
RMM:  14    -0.984402862877E+01   -0.24105E-04   -0.11240E-07    82   0.133E-03    0.140E-04
RMM:  15    -0.984404565739E+01   -0.17029E-04   -0.69359E-08    81   0.107E-03    0.159E-04
RMM:  16    -0.984404583884E+01   -0.18144E-06   -0.17708E-08    72   0.447E-04
   6 F= -.98440776E+01 E0= -.98468307E+01  d E =0.110122E-01  mag=     2.0000
       N       E                     dE             d eps       ncg     rms          rms(c)
DAV:   1    -0.982444713610E+01    0.19599E-01   -0.92009E+00    96   0.124E+01    0.774E-01
RMM:   2    -0.981703605889E+01    0.74111E-02   -0.13546E-01    96   0.150E+00    0.373E-01
RMM:   3    -0.984036638124E+01   -0.23330E-01   -0.62833E-03    97   0.292E-01    0.151E-01
RMM:   4    -0.984216458027E+01   -0.17982E-02   -0.95205E-04    97   0.951E-02    0.649E-02
RMM:   5    -0.984329608538E+01   -0.11315E-02   -0.16604E-04    97   0.477E-02    0.349E-02
RMM:   6    -0.984354962382E+01   -0.25354E-03   -0.25457E-05    96   0.185E-02    0.165E-02
RMM:   7    -0.984370588009E+01   -0.15626E-03   -0.11555E-05    97   0.145E-02    0.235E-02
RMM:   8    -0.984370916422E+01   -0.32841E-05   -0.32680E-06    90   0.870E-03    0.163E-02
RMM:   9    -0.984375780265E+01   -0.48638E-04   -0.20590E-06    87   0.590E-03    0.542E-03
RMM:  10    -0.984385634856E+01   -0.98546E-04   -0.13401E-06    85   0.464E-03    0.124E-03
RMM:  11    -0.984390519059E+01   -0.48842E-04   -0.34421E-07    83   0.236E-03    0.720E-04
RMM:  12    -0.984397447741E+01   -0.69287E-04   -0.20268E-07    84   0.186E-03    0.373E-04
RMM:  13    -0.984401092866E+01   -0.36451E-04   -0.13424E-07    82   0.126E-03    0.295E-04
RMM:  14    -0.984406459666E+01   -0.53668E-04   -0.16144E-07    84   0.158E-03    0.227E-04
RMM:  15    -0.984409041380E+01   -0.25817E-04   -0.90473E-08    80   0.108E-03    0.191E-04
RMM:  16    -0.984410913637E+01   -0.18723E-04   -0.61822E-08    78   0.927E-04    0.135E-04
RMM:  17    -0.984412995300E+01   -0.20817E-04   -0.79567E-08    81   0.111E-03    0.145E-04
RMM:  18    -0.984413348602E+01   -0.35330E-05   -0.24026E-08    72   0.516E-04    0.881E-05
RMM:  19    -0.984414463741E+01   -0.11151E-04   -0.29635E-08    76   0.729E-04    0.460E-05
RMM:  20    -0.984415086507E+01   -0.62277E-05   -0.11114E-08    73   0.603E-04    0.273E-05
RMM:  21    -0.984415327949E+01   -0.24144E-05   -0.70090E-09    72   0.521E-04    0.180E-05
RMM:  22    -0.984415521355E+01   -0.19341E-05   -0.30196E-56    70   0.471E-04    0.684E-06
RMM:  23    -0.984415557686E+01   -0.36331E-06    0.00000E+00    68   0.474E-04
   7 F= -.98441868E+01 E0= -.98469399E+01  d E =0.110122E-01  mag=     2.0000
       N       E                     dE             d eps       ncg     rms          rms(c)
DAV:   1    -0.982113948297E+01    0.23016E-01   -0.42510E+00    96   0.870E+00    0.746E-01
RMM:   2    -0.981469443824E+01    0.64450E-02   -0.70801E-02    96   0.111E+00    0.380E-01
RMM:   3    -0.982757533894E+01   -0.12881E-01   -0.32856E-03    96   0.239E-01    0.159E-01
RMM:   4    -0.982857301299E+01   -0.99767E-03   -0.14148E-03    96   0.124E-01    0.522E-02
RMM:   5    -0.982926422042E+01   -0.69121E-03   -0.16199E-04    99   0.410E-02    0.247E-02
RMM:   6    -0.982947122956E+01   -0.20701E-03   -0.46595E-05    96   0.244E-02    0.924E-03
RMM:   7    -0.982956085686E+01   -0.89627E-04   -0.73134E-06    95   0.104E-02    0.105E-02
RMM:   8    -0.982956649680E+01   -0.56399E-05   -0.61852E-07    84   0.405E-03    0.100E-02
RMM:   9    -0.982958876016E+01   -0.22263E-04   -0.54229E-07    84   0.319E-03    0.514E-03
RMM:  10    -0.982964638870E+01   -0.57629E-04   -0.71743E-07    84   0.369E-03    0.130E-03
RMM:  11    -0.982969340483E+01   -0.47016E-04   -0.43787E-07    84   0.250E-03    0.661E-04
RMM:  12    -0.982973984488E+01   -0.46440E-04   -0.33633E-07    84   0.205E-03    0.359E-04
RMM:  13    -0.982977164048E+01   -0.31796E-04   -0.26690E-07    84   0.174E-03    0.276E-04
RMM:  14    -0.982980921573E+01   -0.37575E-04   -0.30220E-07    84   0.178E-03    0.210E-04
RMM:  15    -0.982982039589E+01   -0.11180E-04   -0.12065E-07    77   0.102E-03    0.146E-04
RMM:  16    -0.982983695414E+01   -0.16558E-04   -0.12486E-07    83   0.116E-03    0.172E-04
RMM:  17    -0.982983894807E+01   -0.19939E-05   -0.48647E-08    74   0.572E-04    0.134E-04
RMM:  18    -0.982984217880E+01   -0.32307E-05   -0.20717E-08    72   0.519E-04    0.765E-05
RMM:  19    -0.982985129918E+01   -0.91204E-05   -0.39333E-08    75   0.743E-04    0.409E-05
RMM:  20    -0.982985437199E+01   -0.30728E-05   -0.15680E-08    73   0.604E-04    0.271E-05
RMM:  21    -0.982985686269E+01   -0.24907E-05   -0.92455E-09    72   0.561E-04    0.181E-05
RMM:  22    -0.982985792549E+01   -0.10628E-05   -0.30594E-56    70   0.492E-04    0.124E-05
RMM:  23    -0.982985815996E+01   -0.23447E-06   -0.15399E-56    70   0.491E-04
   8 F= -.98298881E+01 E0= -.98326412E+01  d E =0.110122E-01  mag=     2.0000
       N       E                     dE             d eps       ncg     rms          rms(c)
DAV:   1    -0.982028234427E+01    0.95756E-02   -0.83654E+00    96   0.121E+01    0.125E+00
RMM:   2    -0.981062992403E+01    0.96524E-02   -0.12243E-01    96   0.156E+00    0.628E-01
RMM:   3    -0.982695627033E+01   -0.16326E-01   -0.72043E-03    96   0.365E-01    0.265E-01
RMM:   4    -0.982870777361E+01   -0.17515E-02   -0.32275E-03    96   0.199E-01    0.893E-02
RMM:   5    -0.982998621780E+01   -0.12784E-02   -0.34020E-04    97   0.654E-02    0.382E-02
RMM:   6    -0.983049880755E+01   -0.51259E-03   -0.12996E-04    96   0.400E-02    0.851E-03
RMM:   7    -0.983060198776E+01   -0.10318E-03   -0.11635E-05    97   0.111E-02    0.308E-03
RMM:   8    -0.983067064729E+01   -0.68660E-04   -0.17468E-06    85   0.431E-03    0.189E-03
RMM:   9    -0.983076101239E+01   -0.90365E-04   -0.88968E-07    84   0.298E-03    0.185E-03
RMM:  10    -0.983079757307E+01   -0.36561E-04   -0.32532E-07    84   0.178E-03    0.118E-03
RMM:  11    -0.983089114211E+01   -0.93569E-04   -0.75354E-07    84   0.247E-03    0.134E-03
RMM:  12    -0.983091675208E+01   -0.25610E-04   -0.29643E-07    84   0.163E-03    0.821E-04
RMM:  13    -0.983095500137E+01   -0.38249E-04   -0.28666E-07    82   0.151E-03    0.389E-04
RMM:  14    -0.983100274876E+01   -0.47747E-04   -0.33208E-07    84   0.166E-03    0.305E-04
RMM:  15    -0.983104258659E+01   -0.39838E-04   -0.36586E-07    84   0.174E-03    0.143E-04
RMM:  16    -0.983105723587E+01   -0.14649E-04   -0.12548E-07    76   0.104E-03    0.100E-04
RMM:  17    -0.983106951906E+01   -0.12283E-04   -0.72868E-08    77   0.886E-04    0.741E-05
RMM:  18    -0.983107303272E+01   -0.35137E-05   -0.30638E-08    74   0.593E-04    0.646E-05
RMM:  19    -0.983107406651E+01   -0.10338E-05   -0.11740E-55    70   0.482E-04    0.512E-05
RMM:  20    -0.983107700022E+01   -0.29337E-05   -0.36281E-09    71   0.537E-04    0.523E-05
RMM:  21    -0.983107823285E+01   -0.12326E-05   -0.45086E-56    70   0.524E-04    0.336E-05
RMM:  22    -0.983107898100E+01   -0.74814E-06   -0.24131E-56    70   0.529E-04
   9 F= -.98311122E+01 E0= -.98338652E+01  d E =0.110122E-01  mag=     2.0000
       N       E                     dE             d eps       ncg     rms          rms(c)
DAV:   1    -0.983720939760E+01   -0.61312E-02   -0.44247E+00    96   0.882E+00    0.723E-01
RMM:   2    -0.983005190034E+01    0.71575E-02   -0.60850E-02    96   0.111E+00    0.365E-01
RMM:   3    -0.984216821037E+01   -0.12116E-01   -0.28885E-03    96   0.233E-01    0.153E-01
RMM:   4    -0.984325470981E+01   -0.10865E-02   -0.14634E-03    96   0.129E-01    0.503E-02
RMM:   5    -0.984397572717E+01   -0.72102E-03   -0.11709E-04    98   0.375E-02    0.254E-02
RMM:   6    -0.984422723513E+01   -0.25151E-03   -0.64155E-05    96   0.282E-02    0.969E-03
RMM:   7    -0.984431270940E+01   -0.85474E-04   -0.68701E-06    93   0.989E-03    0.809E-03
RMM:   8    -0.984432005208E+01   -0.73427E-05   -0.58656E-07    84   0.334E-03    0.773E-03
RMM:   9    -0.984435204943E+01   -0.31997E-04   -0.44515E-07    84   0.274E-03    0.405E-03
RMM:  10    -0.984440039722E+01   -0.48348E-04   -0.68988E-07    84   0.328E-03    0.143E-03
RMM:  11    -0.984443789679E+01   -0.37500E-04   -0.43312E-07    84   0.243E-03    0.818E-04
RMM:  12    -0.984449180901E+01   -0.53912E-04   -0.37391E-07    84   0.195E-03    0.428E-04
RMM:  13    -0.984452002744E+01   -0.28218E-04   -0.25491E-07    84   0.153E-03    0.292E-04
RMM:  14    -0.984454587669E+01   -0.25849E-04   -0.19708E-07    83   0.128E-03    0.289E-04
RMM:  15    -0.984455242708E+01   -0.65504E-05   -0.66804E-08    75   0.734E-04    0.235E-04
RMM:  16    -0.984457270884E+01   -0.20282E-04   -0.11867E-07    80   0.108E-03    0.221E-04
RMM:  17    -0.984458603956E+01   -0.13331E-04   -0.11023E-07    80   0.102E-03    0.134E-04
RMM:  18    -0.984459104324E+01   -0.50037E-05   -0.41852E-08    73   0.690E-04    0.810E-05
RMM:  19    -0.984460060963E+01   -0.95664E-05   -0.55441E-08    76   0.790E-04    0.502E-05
RMM:  20    -0.984460416447E+01   -0.35548E-05   -0.26966E-08    73   0.630E-04    0.324E-05
RMM:  21    -0.984460630318E+01   -0.21387E-05   -0.86180E-56    70   0.567E-04    0.188E-05
RMM:  22    -0.984460781484E+01   -0.15117E-05   -0.51071E-56    70   0.580E-04    0.159E-05
RMM:  23    -0.984460809319E+01   -0.27835E-06   -0.25803E-56    70   0.575E-04
  10 F= -.98446396E+01 E0= -.98473926E+01  d E =0.110122E-01  mag=     2.0000
       N       E                     dE             d eps       ncg     rms          rms(c)
DAV:   1    -0.982453413394E+01    0.20074E-01   -0.92149E+00    96   0.123E+01    0.761E-01
RMM:   2    -0.981670968553E+01    0.78244E-02   -0.13450E-01    96   0.145E+00    0.359E-01
RMM:   3    -0.984064831269E+01   -0.23939E-01   -0.67024E-03    97   0.292E-01    0.145E-01
RMM:   4    -0.984239559281E+01   -0.17473E-02   -0.74052E-04    97   0.820E-02    0.676E-02
RMM:   5    -0.984349965532E+01   -0.11041E-02   -0.17306E-04    96   0.502E-02    0.359E-02
RMM:   6    -0.984375911230E+01   -0.25946E-03   -0.20526E-05    96   0.172E-02    0.175E-02
RMM:   7    -0.984392133974E+01   -0.16223E-03   -0.10991E-05    97   0.144E-02    0.243E-02
RMM:   8    -0.984392788125E+01   -0.65415E-05   -0.52423E-06    92   0.101E-02    0.133E-02
RMM:   9    -0.984397586665E+01   -0.47985E-04   -0.17892E-06    87   0.555E-03    0.475E-03
RMM:  10    -0.984408880071E+01   -0.11293E-03   -0.12994E-06    85   0.485E-03    0.103E-03
RMM:  11    -0.984412625233E+01   -0.37452E-04   -0.32298E-07    83   0.239E-03    0.676E-04
RMM:  12    -0.984419176526E+01   -0.65513E-04   -0.20961E-07    83   0.195E-03    0.370E-04
RMM:  13    -0.984422460499E+01   -0.32840E-04   -0.13202E-07    83   0.129E-03    0.298E-04
RMM:  14    -0.984425782744E+01   -0.33222E-04   -0.83629E-08    80   0.114E-03    0.248E-04
RMM:  15    -0.984429648502E+01   -0.38658E-04   -0.11606E-07    82   0.152E-03    0.180E-04
RMM:  16    -0.984433378897E+01   -0.37304E-04   -0.12585E-07    83   0.152E-03    0.181E-04
RMM:  17    -0.984434246919E+01   -0.86802E-05   -0.45759E-08    74   0.719E-04    0.150E-04
RMM:  18    -0.984435018276E+01   -0.77136E-05   -0.30278E-08    75   0.761E-04    0.767E-05
RMM:  19    -0.984435977500E+01   -0.95922E-05   -0.27547E-08    78   0.772E-04    0.529E-05
RMM:  20    -0.984436770777E+01   -0.79328E-05   -0.16447E-08    75   0.594E-04    0.307E-05
RMM:  21    -0.984436912451E+01   -0.14167E-05   -0.52309E-56    70   0.406E-04    0.195E-05
RMM:  22    -0.984437116409E+01   -0.20396E-05   -0.28714E-56    70   0.434E-04    0.132E-05
RMM:  23    -0.984437182026E+01   -0.65617E-06    0.00000E+00    68   0.444E-04
  11 F= -.98444034E+01 E0= -.98471564E+01  d E =0.110122E-01  mag=     2.0000
       N       E                     dE             d eps       ncg     rms          rms(c)
DAV:   1    -0.983452942427E+01    0.98417E-02   -0.46080E+00    96   0.885E+00    0.543E-01
RMM:   2    -0.982768437760E+01    0.68450E-02   -0.65964E-02    96   0.104E+00    0.259E-01
RMM:   3    -0.984197424575E+01   -0.14290E-01   -0.29828E-03    97   0.216E-01    0.104E-01
RMM:   4    -0.984298866397E+01   -0.10144E-02   -0.39310E-04    96   0.624E-02    0.434E-02
RMM:   5    -0.984370594287E+01   -0.71728E-03   -0.10169E-04    98   0.349E-02    0.170E-02
RMM:   6    -0.984385572242E+01   -0.14978E-03   -0.90222E-06    94   0.103E-02    0.832E-03
RMM:   7    -0.984394010830E+01   -0.84386E-04   -0.35228E-06    89   0.778E-03    0.109E-02
RMM:   8    -0.984394133147E+01   -0.12232E-05   -0.69315E-07    84   0.399E-03    0.895E-03
RMM:   9    -0.984396882489E+01   -0.27493E-04   -0.61077E-07    84   0.339E-03    0.352E-03
RMM:  10    -0.984404010471E+01   -0.71280E-04   -0.60666E-07    84   0.333E-03    0.752E-04
RMM:  11    -0.984407250293E+01   -0.32398E-04   -0.21647E-07    84   0.183E-03    0.485E-04
RMM:  12    -0.984411610800E+01   -0.43605E-04   -0.12599E-07    82   0.142E-03    0.271E-04
RMM:  13    -0.984414404135E+01   -0.27933E-04   -0.96853E-08    83   0.111E-03    0.211E-04
RMM:  14    -0.984417470848E+01   -0.30667E-04   -0.97327E-08    82   0.118E-03    0.168E-04
RMM:  15    -0.984418847536E+01   -0.13767E-04   -0.40196E-08    73   0.778E-04    0.166E-04
RMM:  16    -0.984418992181E+01   -0.14464E-05   -0.19583E-08    74   0.648E-04    0.137E-04
RMM:  17    -0.984421306162E+01   -0.23140E-04   -0.75115E-08    82   0.111E-03    0.930E-05
RMM:  18    -0.984421843564E+01   -0.53740E-05   -0.23324E-08    73   0.545E-04    0.584E-05
RMM:  19    -0.984422427854E+01   -0.58429E-05   -0.13049E-55    70   0.531E-04    0.335E-05
RMM:  20    -0.984422861150E+01   -0.43330E-05   -0.15746E-08    72   0.598E-04    0.196E-05
RMM:  21    -0.984422981239E+01   -0.12009E-05   -0.45562E-56    70   0.543E-04    0.124E-05
RMM:  22    -0.984423110359E+01   -0.12912E-05   -0.22575E-56    70   0.545E-04    0.484E-06
RMM:  23    -0.984423133223E+01   -0.22865E-06    0.00000E+00    68   0.544E-04
  12 F= -.98442626E+01 E0= -.98470156E+01  d E =0.110122E-01  mag=     2.0000
       N       E                     dE             d eps       ncg     rms          rms(c)
DAV:   1    -0.982505088055E+01    0.19180E-01   -0.91928E+00    96   0.123E+01    0.776E-01
RMM:   2    -0.981653057518E+01    0.85203E-02   -0.13017E-01    96   0.150E+00    0.364E-01
RMM:   3    -0.984025032288E+01   -0.23720E-01   -0.59462E-03    97   0.292E-01    0.147E-01
RMM:   4    -0.984198007952E+01   -0.17298E-02   -0.62168E-04    96   0.808E-02    0.668E-02
RMM:   5    -0.984309945328E+01   -0.11194E-02   -0.20060E-04    97   0.505E-02    0.340E-02
RMM:   6    -0.984338099335E+01   -0.28154E-03   -0.18290E-05    96   0.161E-02    0.173E-02
RMM:   7    -0.984353716232E+01   -0.15617E-03   -0.99745E-06    96   0.157E-02    0.229E-02
RMM:   8    -0.984353775163E+01   -0.58931E-06   -0.60532E-06    92   0.115E-02
  13 F= -.98435695E+01 E0= -.98463226E+01  d E =0.110122E-01  mag=     2.0000
