Co                                      
   1.00000000000000     
     9.9560999999999993    0.0000000000000000    0.0000000000000000
    -7.4670500000000004   12.9333100000000005    0.0000000000000000
     0.0000000000000000    0.0000000000000000   23.1291000000000011
   Co
   120
Selective dynamics
Direct
  0.1666693366249987  0.0555596363188968  0.0000000000000000   F   F   F
  0.4166698388300034  0.0555596363188968  0.0000000000000000   F   F   F
  0.6666693366249987  0.0555596363188968  0.0000000000000000   F   F   F
  0.9166698388300034  0.0555596363188968  0.0000000000000000   F   F   F
  0.1666704598619972  0.2222199885409992  0.0000000000000000   F   F   F
  0.4166699576580015  0.2222199885409992  0.0000000000000000   F   F   F
  0.6666704598619971  0.2222199885409992  0.0000000000000000   F   F   F
  0.9166699576580015  0.2222199885409992  0.0000000000000000   F   F   F
  0.1666695021679985  0.3888896191309996  0.0000000000000000   F   F   F
  0.4166700043720013  0.3888896191309996  0.0000000000000000   F   F   F
  0.6666695021679985  0.3888896191309996  0.0000000000000000   F   F   F
  0.9166700043720013  0.3888896191309996  0.0000000000000000   F   F   F
  0.1666701287780021  0.5555600229180016  0.0000000000000000   F   F   F
  0.4166696265729974  0.5555600229180016  0.0000000000000000   F   F   F
  0.6666701287780015  0.5555600229180016  0.0000000000000000   F   F   F
  0.9166696265729969  0.5555600229180016  0.0000000000000000   F   F   F
  0.1666696677100035  0.7222196019430029  0.0000000000000000   F   F   F
  0.4166691655049988  0.7222196019430029  0.0000000000000000   F   F   F
  0.6666696677100035  0.7222196019430029  0.0000000000000000   F   F   F
  0.9166701699139992  0.7222196019430029  0.0000000000000000   F   F   F
  0.1666702943199995  0.8888900057290031  0.0000000000000000   F   F   F
  0.4166697921159966  0.8888900057290031  0.0000000000000000   F   F   F
  0.6666702943199995  0.8888900057290031  0.0000000000000000   F   F   F
  0.9166697921159965  0.8888900057290031  0.0000000000000000   F   F   F
  0.0000000000000000  0.0000000000000000  0.0878698263227022   F   F   F
  0.2500005022049976  0.0000000000000000  0.0878698263227022   F   F   F
  0.5000000000000000  0.0000000000000000  0.0878698263227022   F   F   F
  0.7500005022049976  0.0000000000000000  0.0878698263227022   F   F   F
  0.0000000000000000  0.1666696305900004  0.0878698263227022   F   F   F
  0.2499995445099970  0.1666696305900004  0.0878698263227022   F   F   F
  0.5000000467139998  0.1666696305900004  0.0878698263227022   F   F   F
  0.7499995445099970  0.1666696305900004  0.0878698263227022   F   F   F
  0.0000000000000001  0.3333299828120033  0.0878698263227022   F   F   F
  0.2499996633380022  0.3333299828120033  0.0878698263227022   F   F   F
  0.5000001655419979  0.3333299828120033  0.0878698263227022   F   F   F
  0.7499996633380022  0.3333299828120033  0.0878698263227022   F   F   F
  0.0000000000000001  0.4999996134010020  0.0878698263227022   F   F   F
  0.2499997100520021  0.4999996134010020  0.0878698263227022   F   F   F
  0.4999992078469973  0.4999996134010020  0.0878698263227022   F   F   F
  0.7499997100520019  0.4999996134010020  0.0878698263227022   F   F   F
  0.0000000000000001  0.6666700171879969  0.0878698263227022   F   F   F
  0.2500003366619978  0.6666700171879969  0.0878698263227022   F   F   F
  0.4999998344580021  0.6666700171879969  0.0878698263227022   F   F   F
  0.7500003366619976  0.6666700171879969  0.0878698263227022   F   F   F
  0.0000000000000000  0.8333295962129981  0.0878698263227022   F   F   F
  0.2499998755939998  0.8333295962129981  0.0878698263227022   F   F   F
  0.4999993733899969  0.8333295962129981  0.0878698263227022   F   F   F
  0.7499998755939998  0.8333295962129981  0.0878698263227022   F   F   F
  0.0833302078844014  0.1111099942709970  0.1757301408179971   F   F   F
  0.3333297056800006  0.1111099942709970  0.1757301408179971   F   F   F
  0.5833302078840035  0.1111099942709970  0.1757301408179971   F   F   F
  0.8333297056800006  0.1111099942709970  0.1757301408179971   F   F   F
  0.0833292501895002  0.2777796248600026  0.1757301408179971   F   F   F
  0.3333297523940004  0.2777796248600026  0.1757301408179971   F   F   F
  0.5833292501899976  0.2777796248600026  0.1757301408179971   F   F   F
  0.8333297523940004  0.2777796248600026  0.1757301408179971   F   F   F
  0.0833303734266977  0.4444399770819984  0.1757301408179971   F   F   F
  0.3333298712219985  0.4444399770819984  0.1757301408179971   F   F   F
  0.5833303734270032  0.4444399770819984  0.1757301408179971   F   F   F
  0.8333298712219985  0.4444399770819984  0.1757301408179971   F   F   F
  0.0833294157317965  0.6111096076719988  0.1757301408179971   F   F   F
  0.3333299179359983  0.6111096076719988  0.1757301408179971   F   F   F
  0.5833294157320026  0.6111096076719988  0.1757301408179971   F   F   F
  0.8333299179359982  0.6111096076719988  0.1757301408179971   F   F   F
  0.0833300423421977  0.7777800114590008  0.1757301408179971   F   F   F
  0.3333295401380033  0.7777800114590008  0.1757301408179971   F   F   F
  0.5833300423419987  0.7777800114590008  0.1757301408179971   F   F   F
  0.8333295401380028  0.7777800114590008  0.1757301408179971   F   F   F
  0.0833301611699966  0.9444403636809966  0.1757301408179971   F   F   F
  0.3333296589649990  0.9444403636809966  0.1757301408179971   F   F   F
  0.5833301611699966  0.9444403636809966  0.1757301408179971   F   F   F
  0.8333296589649990  0.9444403636809966  0.1757301408179971   F   F   F
  0.1660349705041003  0.0550783421633991  0.2645471741020015   T   T   T
  0.4159922149814202  0.0550062060739240  0.2645576635972817   T   T   T
  0.6660336339796635  0.0550781814640304  0.2645469199455935   T   T   T
  0.9159894565927613  0.0550088791855256  0.2645587399240576   T   T   T
  0.1659770851318204  0.2217468778539071  0.2644936399684933   T   T   T
  0.4160626381734208  0.2216986746153662  0.2645602032403073   T   T   T
  0.6659772243536254  0.2217478700318085  0.2644945018407442   T   T   T
  0.9160628039835450  0.2217004008689318  0.2645599108593168   T   T   T
  0.1659858878594358  0.3883187459293874  0.2644348829329846   T   T   T
  0.4158752837266806  0.3883772040591408  0.2645602861717500   T   T   T
  0.6659863017134315  0.3883184482807330  0.2644349723656239   T   T   T
  0.9158748548184499  0.3883773759707885  0.2645599478302441   T   T   T
  0.1660338116714507  0.5550754874326281  0.2645477193000016   T   T   T
  0.4159898950344440  0.5550072651956155  0.2645582426831630   T   T   T
  0.6660338300458211  0.5550781188780950  0.2645472400779651   T   T   T
  0.9159870570110714  0.5550061989134913  0.2645542571695049   T   T   T
  0.1659786503576262  0.7217475163728326  0.2644951030793197   T   T   T
  0.4160615824012704  0.7216974739132289  0.2645598868791289   T   T   T
  0.6659876348019528  0.7217496378724897  0.2644963472594797   T   T   T
  0.9160626380286223  0.7216986044195532  0.2645611848041220   T   T   T
  0.1659847467458312  0.8883179453940723  0.2644371434947976   T   T   T
  0.4158757318925664  0.8883758291737701  0.2645584188303413   T   T   T
  0.6659837865736654  0.8883180806961194  0.2644356826957203   T   T   T
  0.9158783262183414  0.8883774688491980  0.2645579452804252   T   T   T
  0.9994127410325752  0.9994818232819102  0.3496398548109688   T   T   T
  0.2493799406947179  0.9995565429747850  0.3496458171919501   T   T   T
  0.4994144286212052  0.9994820890359466  0.3496411956779701   T   T   T
  0.7493792048944474  0.9995553791414262  0.3496444786399525   T   T   T
  0.9994338936679555  0.1661623278415196  0.3496560403473702   T   T   T
  0.2494793312859547  0.1663328888013779  0.3496320163393219   T   T   T
  0.4994335615912203  0.1661620927035633  0.3496574965926817   T   T   T
  0.7494814452662220  0.1663332109455006  0.3496321626179631   T   T   T
  0.9994128798566427  0.3329002156867765  0.3496357831019569   T   T   T
  0.2493449789772272  0.3329683352381776  0.3496346212076190   T   T   T
  0.4994065335578283  0.3328948036709745  0.3496381163113544   T   T   T
  0.7493363765697121  0.3329595347753452  0.3496332378395074   T   T   T
  0.9994175985683711  0.4994808180064849  0.3496395989967684   T   T   T
  0.2493855821697595  0.4995537818002185  0.3496448197500249   T   T   T
  0.4994237106397071  0.4994817295256709  0.3496430555873279   T   T   T
  0.7493802024466728  0.4995545095117996  0.3496441528017689   T   T   T
  0.9994338827320850  0.6661594543703195  0.3496570139539595   T   T   T
  0.2494797945341840  0.6663284094109101  0.3496313805635120   T   T   T
  0.4994364293087308  0.6661606593623700  0.3496555152173770   T   T   T
  0.7494823843614478  0.6663322635005702  0.3496331994113566   T   T   T
  0.9994088801204017  0.8328963926703106  0.3496394374837807   T   T   T
  0.2493360448550564  0.8329588112233315  0.3496342390835095   T   T   T
  0.4994063495024837  0.8328932118641482  0.3496384677040286   T   T   T
  0.7493403744643576  0.8329644657027324  0.3496348560396916   T   T   T
 
