Co                                      
   1.00000000000000     
     9.9560999999999993    0.0000000000000000    0.0000000000000000
    -7.4670500000000004   12.9333100000000005    0.0000000000000000
     0.0000000000000000    0.0000000000000000   23.1291000000000011
 120
Selective dynamics
Direct
  0.1666693366249987  0.0555596363188968  0.0000000000000000   F   F   F
  0.4166698388300034  0.0555596363188968  0.0000000000000000   F   F   F
  0.6666693366249987  0.0555596363188968  0.0000000000000000   F   F   F
  0.9166698388300034  0.0555596363188968  0.0000000000000000   F   F   F
  0.1666704598619972  0.2222199885409992  0.0000000000000000   F   F   F
  0.4166699576580015  0.2222199885409992  0.0000000000000000   F   F   F
  0.6666704598619971  0.2222199885409992  0.0000000000000000   F   F   F
  0.9166699576580015  0.2222199885409992  0.0000000000000000   F   F   F
  0.1666695021679985  0.3888896191309996  0.0000000000000000   F   F   F
  0.4166700043720013  0.3888896191309996  0.0000000000000000   F   F   F
  0.6666695021679985  0.3888896191309996  0.0000000000000000   F   F   F
  0.9166700043720013  0.3888896191309996  0.0000000000000000   F   F   F
  0.1666701287780022  0.5555600229180016  0.0000000000000000   F   F   F
  0.4166696265729975  0.5555600229180016  0.0000000000000000   F   F   F
  0.6666701287780015  0.5555600229180016  0.0000000000000000   F   F   F
  0.9166696265729969  0.5555600229180016  0.0000000000000000   F   F   F
  0.1666696677100035  0.7222196019430029  0.0000000000000000   F   F   F
  0.4166691655049988  0.7222196019430029  0.0000000000000000   F   F   F
  0.6666696677100035  0.7222196019430029  0.0000000000000000   F   F   F
  0.9166701699139992  0.7222196019430029  0.0000000000000000   F   F   F
  0.1666702943199995  0.8888900057290031  0.0000000000000000   F   F   F
  0.4166697921159966  0.8888900057290031  0.0000000000000000   F   F   F
  0.6666702943199995  0.8888900057290031  0.0000000000000000   F   F   F
  0.9166697921159965  0.8888900057290031  0.0000000000000000   F   F   F
  0.0000000000000000  0.0000000000000000  0.0878698263227022   F   F   F
  0.2500005022049976  0.0000000000000000  0.0878698263227022   F   F   F
  0.5000000000000000  0.0000000000000000  0.0878698263227022   F   F   F
  0.7500005022049976  0.0000000000000000  0.0878698263227022   F   F   F
  0.0000000000000000  0.1666696305900004  0.0878698263227022   F   F   F
  0.2499995445099970  0.1666696305900004  0.0878698263227022   F   F   F
  0.5000000467139998  0.1666696305900004  0.0878698263227022   F   F   F
  0.7499995445099970  0.1666696305900004  0.0878698263227022   F   F   F
  0.0000000000000001  0.3333299828120033  0.0878698263227022   F   F   F
  0.2499996633380022  0.3333299828120033  0.0878698263227022   F   F   F
  0.5000001655419979  0.3333299828120033  0.0878698263227022   F   F   F
  0.7499996633380022  0.3333299828120033  0.0878698263227022   F   F   F
  0.0000000000000001  0.4999996134010020  0.0878698263227022   F   F   F
  0.2499997100520021  0.4999996134010020  0.0878698263227022   F   F   F
  0.4999992078469973  0.4999996134010020  0.0878698263227022   F   F   F
  0.7499997100520019  0.4999996134010020  0.0878698263227022   F   F   F
  0.0000000000000001  0.6666700171879969  0.0878698263227022   F   F   F
  0.2500003366619978  0.6666700171879969  0.0878698263227022   F   F   F
  0.4999998344580021  0.6666700171879969  0.0878698263227022   F   F   F
  0.7500003366619976  0.6666700171879969  0.0878698263227022   F   F   F
  0.0000000000000000  0.8333295962129981  0.0878698263227022   F   F   F
  0.2499998755939998  0.8333295962129981  0.0878698263227022   F   F   F
  0.4999993733899969  0.8333295962129981  0.0878698263227022   F   F   F
  0.7499998755939998  0.8333295962129981  0.0878698263227022   F   F   F
  0.0833302078844014  0.1111099942709970  0.1757301408179971   F   F   F
  0.3333297056800006  0.1111099942709970  0.1757301408179971   F   F   F
  0.5833302078840035  0.1111099942709970  0.1757301408179971   F   F   F
  0.8333297056800006  0.1111099942709970  0.1757301408179971   F   F   F
  0.0833292501895002  0.2777796248600026  0.1757301408179971   F   F   F
  0.3333297523940004  0.2777796248600026  0.1757301408179971   F   F   F
  0.5833292501899976  0.2777796248600026  0.1757301408179971   F   F   F
  0.8333297523940004  0.2777796248600026  0.1757301408179971   F   F   F
  0.0833303734266977  0.4444399770819984  0.1757301408179971   F   F   F
  0.3333298712219985  0.4444399770819984  0.1757301408179971   F   F   F
  0.5833303734270032  0.4444399770819984  0.1757301408179971   F   F   F
  0.8333298712219985  0.4444399770819984  0.1757301408179971   F   F   F
  0.0833294157317965  0.6111096076719988  0.1757301408179971   F   F   F
  0.3333299179359983  0.6111096076719988  0.1757301408179971   F   F   F
  0.5833294157320026  0.6111096076719988  0.1757301408179971   F   F   F
  0.8333299179359982  0.6111096076719988  0.1757301408179971   F   F   F
  0.0833300423421977  0.7777800114590008  0.1757301408179971   F   F   F
  0.3333295401380034  0.7777800114590008  0.1757301408179971   F   F   F
  0.5833300423419987  0.7777800114590008  0.1757301408179971   F   F   F
  0.8333295401380028  0.7777800114590008  0.1757301408179971   F   F   F
  0.0833301611699966  0.9444403636809966  0.1757301408179971   F   F   F
  0.3333296589649990  0.9444403636809966  0.1757301408179971   F   F   F
  0.5833301611699966  0.9444403636809966  0.1757301408179971   F   F   F
  0.8333296589649990  0.9444403636809966  0.1757301408179971   F   F   F
  0.1659360033280344  0.0550517743556323  0.2647082074293634   T   T   T
  0.4159365055330390  0.0550517743556323  0.2647082074293634   T   T   T
  0.6659360033280339  0.0550517743556323  0.2647082074293634   T   T   T
  0.9159365055330391  0.0550517743556323  0.2647082074293634   T   T   T
  0.1659167250969612  0.2216963848337469  0.2647034987964719   T   T   T
  0.4159172273019657  0.2216963848337469  0.2647034987964719   T   T   T
  0.6659177295059613  0.2216963848337469  0.2647034987964719   T   T   T
  0.9159172273019659  0.2216963848337469  0.2647034987964719   T   T   T
  0.1659368919722473  0.3883827796959484  0.2647058953012923   T   T   T
  0.4159373941762500  0.3883827796959484  0.2647058953012923   T   T   T
  0.6659368919722473  0.3883827796959484  0.2647058953012923   T   T   T
  0.9159373941762499  0.3883827796959484  0.2647058953012923   T   T   T
  0.1659367954810373  0.5550521609547373  0.2647082074293634   T   T   T
  0.4159362932760327  0.5550521609547373  0.2647082074293634   T   T   T
  0.6659367954810371  0.5550521609547373  0.2647082074293634   T   T   T
  0.9159362932760324  0.5550521609547373  0.2647082074293634   T   T   T
  0.1659169373539681  0.7216959982357508  0.2647034987964719   T   T   T
  0.4159164351489635  0.7216959982357508  0.2647034987964719   T   T   T
  0.6659169373539681  0.7216959982357508  0.2647034987964719   T   T   T
  0.9159174395579637  0.7216959982357508  0.2647034987964719   T   T   T
  0.1659376841242485  0.8883831662939519  0.2647058953012923   T   T   T
  0.4159371819202455  0.8883831662939519  0.2647058953012923   T   T   T
  0.6659376841242483  0.8883831662939519  0.2647058953012923   T   T   T
  0.9159371819202451  0.8883831662939519  0.2647058953012923   T   T   T
 -0.0001843188681997 -0.0001535584229659  0.3499412480533997   T   T   T
  0.2498151789268027 -0.0001535584229659  0.3499412480533997   T   T   T
  0.4998156811318000 -0.0001535584229659  0.3499412480533997   T   T   T
  0.7498151789268026 -0.0001535584229659  0.3499412480533997   T   T   T
 -0.0001747835206716  0.1665273098145461  0.3499371798839186   T   T   T
  0.2498247609893252  0.1665273098145461  0.3499371798839186   T   T   T
  0.4998252631933280  0.1665273098145461  0.3499371798839186   T   T   T
  0.7498247609893250  0.1665273098145461  0.3499371798839186   T   T   T
 -0.0001952545896703  0.3331624891846993  0.3499325049247718   T   T   T
  0.2498044087483318  0.3331624891846993  0.3499325049247718   T   T   T
  0.4998049109523276  0.3331624891846993  0.3499325049247718   T   T   T
  0.7498044087483318  0.3331624891846993  0.3499325049247718   T   T   T
 -0.0001843188681993  0.4998460549780362  0.3499412480533997   T   T   T
  0.2498153911838025  0.4998460549780362  0.3499412480533997   T   T   T
  0.4998148889787977  0.4998460549780362  0.3499412480533997   T   T   T
  0.7498153911838024  0.4998460549780362  0.3499412480533997   T   T   T
 -0.0001747835206716  0.6665276964125363  0.3499371798839186   T   T   T
  0.2498255531413262  0.6665276964125363  0.3499371798839186   T   T   T
  0.4998250509373304  0.6665276964125363  0.3499371798839186   T   T   T
  0.7498255531413258  0.6665276964125363  0.3499371798839186   T   T   T
 -0.0001952545896707  0.8331621025856938  0.3499325049247718   T   T   T
  0.2498046210043294  0.8331621025856938  0.3499325049247718   T   T   T
  0.4998041188003264  0.8331621025856938  0.3499325049247718   T   T   T
  0.7498046210043290  0.8331621025856938  0.3499325049247718   T   T   T
 
