!pbe ma-def2-SVP Freq 
%maxcore 3000
%pal
nprocs 4
end
# MECP_BC

*xyz 0 1
  F   -2.10504731132954      2.48974335902009      0.84232517478476
  H   -4.61873475782265     -4.96582372166399      1.93795246825144
  H   -5.48653706543224     -2.85523310160738      3.00425297821420
  C   -3.69080925143499     -0.33751718793401      4.86602369069636
  C   -5.42471897184803     -4.38320610815880      1.44928841065336
  H   -6.39026315411123     -4.87172215110905      1.70057480331947
  H   -5.39304085418823      3.48170490779367      4.92522448776265
  C   -5.40197112757095     -2.92078150514836      1.89582132609370
  C   -1.51332364590222     -0.25914932725383      3.58662050527256
  C   -2.74787572610514      0.54087335127761      4.03520775747529
  H   -4.41929276519219     -2.47261683772215      1.63153292249022
  C   -6.32555424187689      3.96529236692226      4.56756684953409
  O   -3.52064114363453      0.93771199122162      2.87751784948015
  H   -7.14361738943033      3.65677166331561      5.25273415077665
  H   -6.45672834945164     -0.53206911177359      2.76278419801955
  H   -5.28025820022683     -4.45970357794896      0.35202471375027
  H   -5.91001525841589      1.54830485866550      3.27799821591267
  H   -6.19439462234871      5.06052075017139      4.67740133515511
  C   -6.51348174820889     -2.08990340515147      1.23461169307538
  C   -2.32301903969073      1.78789262804016      4.82898927251408
  C   -6.40937007633014     -0.62856485472586      1.66111394231781
  H   -7.49751524966179     -2.52835847540736      1.51291489094390
  H   -10.47981306726712     -0.03634848898313      4.17431655765007
  C   -6.82324215877166      2.07156528435270      2.92430378201097
  H   -2.95779574983531      1.50034893107082      2.30183810257329
  H   -7.67459798337639      1.73929552944412      3.55959803456647
  C   -6.62529539392315      3.58420165283405      3.11717025888477
  H   -5.43724739478538     -0.20263771739964      1.34783553590090
  H   -8.62138490480475     -0.00517710624312      2.85579842720203
  H   -5.80025533160770      3.91876172803015      2.45188020633535
  C   -11.27017508952579      0.55037347097303      3.66284364780313
  H   -12.23469212639461      0.24899819167910      4.11831169471102
  H   -6.38912540507560     -2.17721794057202      0.13234707622565
  H   -11.10783007738724      1.62005307626982      3.91312575563632
  C   -8.80296007282328     -0.03683730351470      1.76515732362132
  C   -7.06586767999310      1.75785634952458      1.44903897963967
  N   -7.47929392972316      0.32775385849426      1.11023094949337
  H   -8.98274508710642     -1.09576692291432      1.49915100111877
  H   -7.53618714954930      4.12329993430060      2.77012755766460
  H   -6.15108397304545      1.97565788801655      0.86206536671619
  C   -11.28635114362568      0.32775760251158      2.14796652636073
  H   -11.46061148286616     -0.74847826613895      1.92594931487914
  C   -10.02460874369562      0.80264788898386      1.40063999198837
  H   -6.55311471179535     -0.23227085627680     -0.75003933700952
  C   -7.54937840611209      0.14116217504120     -0.41969269228828
  H   -7.86365645316451      2.41071610020098      1.04894670480334
  H   -9.85099538285969      1.87455908750335      1.63605985763206
  H   -3.70251934565985      3.40568010037581      0.45106877132823
  C   -3.92738628874810      6.01587862564682      0.49968777652424
  H   -8.25758001471659     -0.69421102016248     -0.58388409667160
  H   -12.15503779526150      0.86315631455089      1.71135415519346
  C   -4.47716004565516      4.97523724242677     -0.49159694901162
  O   -4.59881344226908      3.69756724679932      0.16913350373129
  H   -10.21465720944288      0.74168023350910      0.30989239796324
  C   -3.54786636330158      4.84301510793730     -1.71017042738649
  C   -7.92772627576131      1.34255707594899     -1.28266960029785
  H   -7.15141116892367      2.13175550534034     -1.19934421813083
  H   -8.88815341243468      1.80631818435746     -0.97198069938583
  C   -5.89726387701179      5.34743000644205     -0.93295612692634
  H   -7.08662069522555      0.38230386583656     -3.03867735697897
  C   -8.02715890465930      0.90375555198358     -2.75428558188705
  H   -8.83384350689569      0.14386913276449     -2.85793443671390
  C   -8.29325581298583      2.07299477391891     -3.70205033933961
  H   -7.47925738907478      2.82687903447253     -3.65109266987305
  H   -9.24374066596109      2.59522789946499     -3.45919841604126
  H   -8.36134473436518      1.72987401096449     -4.75351035101813
  H   -4.59235799324681      0.23560477716315      5.16495111270455
  H   -3.19064105164844     -0.69464652379153      5.78725335950149
  H   -4.01582934808954     -1.22188569889193      4.28159867138402
  H   -1.63468135245684      2.42342646489596      4.23388161358323
  H   -1.79210691437548      1.50563897635497      5.76098711613925
  H   -3.21298416348221      2.38824258746135      5.10663484171669
  H   -0.83070718438026      0.37565901043272      2.98441249033215
  H   -1.81602188604205     -1.13403735106050      2.97625179144461
  H   -0.93750719882969     -0.62671062691839      4.46028899064812
  H   -3.84582864368230      7.01809023328989      0.03208856515626
  H   -2.91709218239604      5.72543660295491      0.85476654528913
  H   -4.59010766229344      6.09688544935115      1.38456926205595
  H   -3.93000879755765      4.07100220910456     -2.40825260263543
  H   -2.52550771919638      4.54750345594091     -1.39572860924998
  H   -3.46516066341323      5.80231600208089     -2.26056300387775
  H   -6.30047344980405      4.58428988805849     -1.62933319089887
  H   -5.90703312962669      6.32747142281815     -1.44976248516174
  H   -6.57062449792244      5.41016596315316     -0.05447231483748
  Br  -4.74512198275142     -1.54114783904250     -2.05718929130866
  H   -3.37990401142766     -0.33509629038747      0.11100538177807
  C   -3.25129006172401      0.36898477357536     -0.72319473845711
  H   -1.11511461994663      0.12060286867225     -0.87603498722580
  C   -1.98972103078518      0.73883979260043     -1.13662965282046
  H   -4.12526183816109      0.97594553828308     -0.99430850693894
  H   -2.08796525589994      1.73462211783039      0.04837615566667
  H   -1.86464498564259      1.42514284435440     -1.99063635258442
  H   2.18921709190238      2.45954850642899      0.77492031903915
  C   1.68403124867852      3.42466282775140      0.57091913394950
  H   2.42372831977021      4.11686283741777      0.11777643821462
  H   0.88468860762834      3.24308653516004     -0.17768032996026
  H   2.67922137360011      3.22320318875371      3.14639574545264
  C   2.18809164761039      4.19146192207339      2.92418940879247
  H   2.95847895342777      4.90628865984010      2.57287749049766
  C   1.09165784784932      4.00104545313047      1.87024585617391
  O   0.16555216456434      3.06045101620594      2.44017742905865
  H   -0.56664209666235      2.91727684170199      1.80102511828381
  H   1.75334495184689      4.57840630396976      3.86697187515478
  C   0.37242061644931      5.33318886788072      1.58840084062545
  H   1.06808188169368      6.09322228884573      1.17699086325603
  H   -0.44488375952070      5.18720485587651      0.85067611971529
  H   -0.07208742637433      5.73523169609056      2.52092293465144
*
