6
Coordinates from ORCA-job job E -78.416579377669
  C           0.96528185823368      0.01730640137660      0.09014125249120
  C           0.29328198999518      0.94804303487000     -0.60865242621998
  H           0.44174746715417     -0.75980310163455      0.67384854538712
  H           2.06873794376554     -0.00870513924248      0.10978674158685
  H          -0.81017409648057      0.97405456946365     -0.62829791616778
  H           0.81681637733200      1.72515253516678     -1.19235972707742
