!pbe ma-def2-SVP Freq 
%maxcore 3000
%pal
nprocs 4
end
# MECP_BC

*xyz 0 1
  H   -3.98064838792404     -0.28022030607218      0.54082821200371
  C   -3.91993622154781     -0.54897797386281     -0.52484633853628
  Br  -1.72049202454575     -1.56028920516349      0.00749848551154
  H   -3.37894378246351      0.16844850538948     -1.16050632644394
  C   -4.97488019506358     -1.27940711822572     -1.09307333035238
  H   -5.87495018809417     -0.09915821879990     -1.12431670871540
  H   -5.50556256934045     -2.01083019379715     -0.45893643919128
  H   -4.89810127863506     -1.56937060041406     -2.15552152642595
  H   -9.51271763053239      3.46560951034250      2.30396000331389
  H   -2.86523445744638      8.15967323313068      3.10486631789379
  C   -9.31296445864625      2.44678163606276      1.90978228171797
  H   -4.51097655568360      7.62326742443908      1.26125041133515
  H   -9.68902564733792      2.41202131328193      0.86682367143120
  H   -9.91723542161488      1.73494168660266      2.50574760273693
  H   -3.46031741315244      6.49443368072504      3.30707512672302
  C   -2.88153757275172      7.15768279447318      2.63164745080116
  H   -7.12608537132281      4.10068341396653      1.50619207460367
  C   -3.47191417013608      7.22767353747430      1.21945584842057
  H   -5.48273430410565      5.28420090105277      0.93250473642725
  H   -2.89764551843035      7.96699233254680      0.62336234697362
  C   -7.82546219493450      2.09854284625342      1.97106009214209
  C   -6.95654466670882      3.06229287256886      1.14625817272077
  H   -7.28919326598609      3.00469555651956      0.09076648215614
  H   -1.83636487625440      6.78458999429341      2.61177770786187
  H   -7.48122248786652      2.09685358357427      3.02970010883193
  C   -4.45191255585629      4.89536337059319      1.03898295784720
  H   -5.69251836940677      4.28174455256743     -1.09413315585519
  H   -2.96251937162885      4.65776229542102     -4.59540299798027
  H   -5.27842356990356      4.52853818119461     -3.52653382292801
  H   -4.26591390494103      4.76463491042248      2.12207613100622
  C   -3.46206821945827      5.89426760437513      0.44534935424924
  H   -3.27503723117771      4.55974783513129     -1.99151376892500
  H   -3.71550811694145      6.09338196311333     -0.61546794297716
  C   -3.59008477365132      3.74316301375637     -4.64995267200750
  H   -7.66698869389315      1.06899047046312      1.58585638950851
  C   -4.57682670392159      3.66493534096359     -3.48511791052144
  C   -4.93281882473735      3.47894580442231     -1.01551243940951
  C   -3.88161916983103      3.63762865555165     -2.11279147067520
  C   -5.48931884999960      2.66073750523940      1.25726525695859
  H   -4.11867150792040      3.76073148822102     -5.62346030670285
  N   -4.47315868336920      3.49180739329911      0.45754600225545
  H   -5.15629132788134      2.70388215687112      2.31115379812466
  H   -2.43001247975295      5.48397181085891      0.45499292136419
  H   -5.45721806329630      2.50605659672637     -1.15419235783103
  H   -5.20934638754578      2.75637642543346     -3.58549495071774
  H   -2.90528396914642      2.86961805945776     -4.65996338742481
  H   -3.17219789968607      2.78393894222817     -2.09750114379569
  H   -5.37245205386539      1.62438438210792      0.88597189524023
  C   -3.10704772346627      2.81555407579330      0.57818480232822
  H   -2.39423212057597      3.66991891246516      2.46098958755768
  H   -2.41618456557769      3.38913242374389     -0.06534425269753
  C   -2.50984640096750      2.67558003937623      1.97502659431223
  F   -6.52816290251859      0.81191599904391     -1.13812424341962
  H   -3.16877252047842      2.07075360933012      2.63243139126746
  H   -3.23257893529908      1.81844676289908      0.11743623582414
  C   -1.13695179574139      1.98232487150923      1.88773550357287
  H   -0.32382295919417      2.73333066271463      3.79089149537173
  H   -0.46382817547547      2.58881763955423      1.24119147011116
  C   -0.49179822442826      1.77338439713004      3.25785905184236
  H   -1.12598008905334      1.13331772403713      3.90598152844431
  H   -1.25174706186142      0.99874263408088      1.37593881555321
  H   0.48809486297457      1.26690028354144      3.15758917718779
*
