       N       E                     dE             d eps       ncg     rms          rms(c)
DAV:   1    -0.823302195688E+03   -0.82330E+03   -0.20379E-06  1872   0.100E-02    0.209E-02
RMM:   2    -0.823302456472E+03   -0.26078E-03   -0.84191E-05  3010   0.165E-02    0.235E-01
RMM:   3    -0.823302193374E+03    0.26310E-03   -0.60191E-05  3003   0.151E-02    0.376E-02
RMM:   4    -0.823302193055E+03    0.31891E-06   -0.43600E-06  2448   0.354E-03
   1 F= -.82330219E+03 E0= -.82323036E+03  d E =-.287350E+00  mag=   201.5282
       N       E                     dE             d eps       ncg     rms          rms(c)
DAV:   1    -0.823297648731E+03    0.45446E-02   -0.11869E-01  3088   0.186E-01    0.145E-01
RMM:   2    -0.823298037832E+03   -0.38910E-03   -0.32675E-03  3024   0.496E-02    0.261E-01
RMM:   3    -0.823298428466E+03   -0.39063E-03   -0.76813E-04  3029   0.444E-02    0.412E-01
RMM:   4    -0.823298156738E+03    0.27173E-03   -0.41909E-04  3028   0.352E-02    0.313E-01
RMM:   5    -0.823297741309E+03    0.41543E-03   -0.21577E-04  3028   0.260E-02    0.887E-02
RMM:   6    -0.823297999019E+03   -0.25771E-03   -0.18304E-04  3014   0.237E-02    0.252E-01
RMM:   7    -0.823297779512E+03    0.21951E-03   -0.12176E-04  3020   0.209E-02    0.102E-01
RMM:   8    -0.823297761847E+03    0.17666E-04   -0.55419E-05  3013   0.137E-02    0.592E-02
RMM:   9    -0.823297761830E+03    0.16458E-07   -0.14638E-05  2998   0.729E-03    0.493E-02
RMM:  10    -0.823297752858E+03    0.89720E-05   -0.77704E-06  2883   0.542E-03    0.128E-02
RMM:  11    -0.823297755965E+03   -0.31071E-05   -0.27526E-06  2002   0.301E-03    0.236E-02
RMM:  12    -0.823297754504E+03    0.14612E-05   -0.16671E-06  1642   0.291E-03    0.477E-03
RMM:  13    -0.823297755561E+03   -0.10570E-05   -0.43992E-07  1605   0.122E-03    0.925E-03
RMM:  14    -0.823297756779E+03   -0.12174E-05   -0.32148E-07  1629   0.113E-03    0.633E-03
RMM:  15    -0.823297757132E+03   -0.35384E-06   -0.14928E-07  1594   0.769E-04
   2 F= -.82329776E+03 E0= -.82322589E+03  d E =-.287474E+00  mag=   201.5282
       N       E                     dE             d eps       ncg     rms          rms(c)
DAV:   1    -0.823303386709E+03   -0.56299E-02   -0.47818E-01  3040   0.374E-01    0.285E-01
RMM:   2    -0.823304536302E+03   -0.11496E-02   -0.11661E-02  3025   0.921E-02    0.441E-01
RMM:   3    -0.823306683624E+03   -0.21473E-02   -0.30681E-03  3028   0.873E-02    0.852E-01
RMM:   4    -0.823305153487E+03    0.15301E-02   -0.15814E-03  3032   0.690E-02    0.581E-01
RMM:   5    -0.823303711282E+03    0.14422E-02   -0.76604E-04  3024   0.487E-02    0.167E-01
RMM:   6    -0.823304663842E+03   -0.95256E-03   -0.85470E-04  3021   0.500E-02    0.481E-01
RMM:   7    -0.823303799655E+03    0.86419E-03   -0.55570E-04  3025   0.449E-02    0.130E-01
RMM:   8    -0.823303843189E+03   -0.43534E-04   -0.14895E-04  3019   0.215E-02    0.161E-01
RMM:   9    -0.823303777597E+03    0.65592E-04   -0.58534E-05  3014   0.150E-02    0.850E-02
RMM:  10    -0.823303757415E+03    0.20181E-04   -0.23010E-05  3007   0.908E-03    0.288E-02
RMM:  11    -0.823303766495E+03   -0.90799E-05   -0.10231E-05  2978   0.562E-03    0.439E-02
RMM:  12    -0.823303761629E+03    0.48665E-05   -0.54642E-06  2726   0.460E-03    0.883E-03
RMM:  13    -0.823303765577E+03   -0.39481E-05   -0.17894E-06  1712   0.241E-03    0.178E-02
RMM:  14    -0.823303768519E+03   -0.29419E-05   -0.13360E-06  1685   0.243E-03    0.595E-03
RMM:  15    -0.823303770327E+03   -0.18086E-05   -0.45782E-07  1625   0.124E-03    0.963E-03
RMM:  16    -0.823303773631E+03   -0.33034E-05   -0.39862E-07  1664   0.114E-03    0.681E-03
RMM:  17    -0.823303774514E+03   -0.88327E-06   -0.18328E-07  1611   0.852E-04
   3 F= -.82330377E+03 E0= -.82323197E+03  d E =-.287207E+00  mag=   201.5284
       N       E                     dE             d eps       ncg     rms          rms(c)
DAV:   1    -0.823302559958E+03    0.12137E-02   -0.24223E-01  3072   0.266E-01    0.179E-01
RMM:   2    -0.823303102719E+03   -0.54276E-03   -0.49580E-03  3026   0.604E-02    0.241E-01
RMM:   3    -0.823303857607E+03   -0.75489E-03   -0.11234E-03  3025   0.527E-02    0.503E-01
RMM:   4    -0.823303491845E+03    0.36576E-03   -0.58839E-04  3031   0.422E-02    0.354E-01
RMM:   5    -0.823302981794E+03    0.51005E-03   -0.28943E-04  3026   0.301E-02    0.130E-01
RMM:   6    -0.823303347401E+03   -0.36561E-03   -0.38785E-04  3018   0.337E-02    0.313E-01
RMM:   7    -0.823302983517E+03    0.36388E-03   -0.24001E-04  3023   0.294E-02    0.878E-02
RMM:   8    -0.823302984640E+03   -0.11231E-05   -0.54313E-05  3017   0.129E-02    0.795E-02
RMM:   9    -0.823302976286E+03    0.83538E-05   -0.19027E-05  3002   0.841E-03    0.603E-02
RMM:  10    -0.823302963927E+03    0.12359E-04   -0.99432E-06  2947   0.607E-03    0.158E-02
RMM:  11    -0.823302967702E+03   -0.37754E-05   -0.39563E-06  2415   0.353E-03    0.278E-02
RMM:  12    -0.823302965491E+03    0.22112E-05   -0.22137E-06  1722   0.321E-03    0.525E-03
RMM:  13    -0.823302967076E+03   -0.15849E-05   -0.93697E-07  1628   0.174E-03    0.129E-02
RMM:  14    -0.823302967687E+03   -0.61089E-06   -0.65431E-07  1639   0.173E-03
   4 F= -.82330297E+03 E0= -.82323116E+03  d E =-.287243E+00  mag=   201.5273
       N       E                     dE             d eps       ncg     rms          rms(c)
DAV:   1    -0.823292050699E+03    0.10916E-01   -0.49284E-01  3248   0.387E-01    0.460E-01
RMM:   2    -0.823294315039E+03   -0.22643E-02   -0.26330E-02  3023   0.124E-01    0.883E-01
RMM:   3    -0.823298228847E+03   -0.39138E-02   -0.89695E-03  3031   0.148E-01    0.139E+00
RMM:   4    -0.823294766867E+03    0.34620E-02   -0.46337E-03  3029   0.117E-01    0.990E-01
RMM:   5    -0.823290171727E+03    0.45951E-02   -0.19376E-03  3029   0.773E-02    0.226E-01
RMM:   6    -0.823292026117E+03   -0.18544E-02   -0.16332E-03  3021   0.699E-02    0.688E-01
RMM:   7    -0.823290247785E+03    0.17783E-02   -0.11196E-03  3025   0.634E-02    0.212E-01
RMM:   8    -0.823290320963E+03   -0.73179E-04   -0.37939E-04  3022   0.346E-02    0.234E-01
RMM:   9    -0.823290208407E+03    0.11256E-03   -0.13983E-04  3028   0.231E-02    0.143E-01
RMM:  10    -0.823290138602E+03    0.69805E-04   -0.66326E-05  3011   0.156E-02    0.430E-02
RMM:  11    -0.823290156519E+03   -0.17917E-04   -0.24998E-05  3013   0.873E-03    0.701E-02
RMM:  12    -0.823290138324E+03    0.18195E-04   -0.13960E-05  2994   0.728E-03    0.111E-02
RMM:  13    -0.823290143817E+03   -0.54931E-05   -0.45253E-06  2534   0.370E-03    0.281E-02
RMM:  14    -0.823290143830E+03   -0.13446E-07   -0.24982E-06  1810   0.323E-03
   5 F= -.82329014E+03 E0= -.82321828E+03  d E =-.287436E+00  mag=   201.5283
       N       E                     dE             d eps       ncg     rms          rms(c)
DAV:   1    -0.823295664003E+03   -0.55202E-02   -0.23601E-01  3088   0.256E-01    0.168E-01
RMM:   2    -0.823296183043E+03   -0.51904E-03   -0.46006E-03  3025   0.543E-02    0.236E-01
RMM:   3    -0.823296825451E+03   -0.64241E-03   -0.93613E-04  3029   0.491E-02    0.467E-01
RMM:   4    -0.823296514872E+03    0.31058E-03   -0.51234E-04  3031   0.397E-02    0.332E-01
RMM:   5    -0.823296075091E+03    0.43978E-03   -0.25628E-04  3025   0.286E-02    0.121E-01
RMM:   6    -0.823296487383E+03   -0.41229E-03   -0.28859E-04  3020   0.297E-02    0.335E-01
RMM:   7    -0.823296066306E+03    0.42108E-03   -0.19669E-04  3026   0.266E-02    0.834E-02
RMM:   8    -0.823296069015E+03   -0.27093E-05   -0.49163E-05  3015   0.126E-02    0.591E-02
RMM:   9    -0.823296066965E+03    0.20503E-05   -0.15892E-05  2998   0.758E-03    0.495E-02
RMM:  10    -0.823296059025E+03    0.79403E-05   -0.88919E-06  2938   0.576E-03    0.172E-02
RMM:  11    -0.823296063329E+03   -0.43049E-05   -0.32046E-06  2167   0.323E-03    0.259E-02
RMM:  12    -0.823296062764E+03    0.56573E-06   -0.18669E-06  1679   0.301E-03
   6 F= -.82329606E+03 E0= -.82322420E+03  d E =-.287453E+00  mag=   201.5290
       N       E                     dE             d eps       ncg     rms          rms(c)
DAV:   1    -0.823303361371E+03   -0.72980E-02   -0.48069E-01  3072   0.381E-01    0.284E-01
RMM:   2    -0.823304755269E+03   -0.13939E-02   -0.12411E-02  3024   0.991E-02    0.503E-01
RMM:   3    -0.823305912477E+03   -0.11572E-02   -0.30387E-03  3023   0.880E-02    0.746E-01
RMM:   4    -0.823305728373E+03    0.18410E-03   -0.14851E-03  3029   0.665E-02    0.648E-01
RMM:   5    -0.823303821597E+03    0.19068E-02   -0.81193E-04  3026   0.505E-02    0.180E-01
RMM:   6    -0.823304823967E+03   -0.10024E-02   -0.96711E-04  3020   0.537E-02    0.515E-01
RMM:   7    -0.823303883823E+03    0.94014E-03   -0.60491E-04  3025   0.466E-02    0.176E-01
RMM:   8    -0.823303876581E+03    0.72416E-05   -0.17925E-04  3024   0.239E-02    0.163E-01
RMM:   9    -0.823303841305E+03    0.35276E-04   -0.71033E-05  3017   0.159E-02    0.119E-01
RMM:  10    -0.823303795439E+03    0.45866E-04   -0.39528E-05  3009   0.121E-02    0.319E-02
RMM:  11    -0.823303811817E+03   -0.16378E-04   -0.15075E-05  3007   0.667E-03    0.516E-02
RMM:  12    -0.823303807915E+03    0.39020E-05   -0.74752E-06  2883   0.526E-03    0.951E-03
RMM:  13    -0.823303815562E+03   -0.76462E-05   -0.23823E-06  1882   0.274E-03    0.194E-02
RMM:  14    -0.823303826526E+03   -0.10964E-04   -0.18480E-06  1787   0.260E-03    0.111E-02
RMM:  15    -0.823303829313E+03   -0.27874E-05   -0.52634E-07  1649   0.138E-03    0.651E-03
RMM:  16    -0.823303840264E+03   -0.10950E-04   -0.66980E-07  1718   0.117E-03    0.830E-03
RMM:  17    -0.823303844788E+03   -0.45240E-05   -0.36574E-07  1659   0.116E-03    0.237E-03
RMM:  18    -0.823303853243E+03   -0.84550E-05   -0.36623E-07  1694   0.738E-04    0.525E-03
RMM:  19    -0.823303860407E+03   -0.71643E-05   -0.32593E-07  1692   0.799E-04    0.199E-03
RMM:  20    -0.823303867536E+03   -0.71288E-05   -0.31208E-07  1695   0.594E-04    0.383E-03
RMM:  21    -0.823303874606E+03   -0.70706E-05   -0.36028E-07  1699   0.664E-04    0.128E-03
RMM:  22    -0.823303878736E+03   -0.41300E-05   -0.17862E-07  1607   0.462E-04    0.247E-03
RMM:  23    -0.823303882499E+03   -0.37631E-05   -0.15847E-07  1598   0.460E-04    0.992E-04
RMM:  24    -0.823303884980E+03   -0.24802E-05   -0.79603E-08  1328   0.329E-04    0.177E-03
RMM:  25    -0.823303887513E+03   -0.25331E-05   -0.81072E-08  1319   0.319E-04    0.649E-04
RMM:  26    -0.823303889346E+03   -0.18327E-05   -0.49439E-08   987   0.273E-04    0.122E-03
RMM:  27    -0.823303890800E+03   -0.14543E-05   -0.36938E-08   905   0.257E-04    0.476E-04
RMM:  28    -0.823303891630E+03   -0.83061E-06   -0.21893E-08   773   0.242E-04
   7 F= -.82330389E+03 E0= -.82323209E+03  d E =-.287208E+00  mag=   201.5266
       N       E                     dE             d eps       ncg     rms          rms(c)
DAV:   1    -0.823302297583E+03    0.15932E-02   -0.22550E-01  3024   0.293E-01    0.186E-01
RMM:   2    -0.823304067385E+03   -0.17698E-02   -0.78353E-03  3020   0.112E-01    0.608E-01
RMM:   3    -0.823302909945E+03    0.11574E-02   -0.20487E-03  3020   0.768E-02    0.270E-01
RMM:   4    -0.823303817216E+03   -0.90727E-03   -0.69150E-04  3025   0.455E-02    0.465E-01
RMM:   5    -0.823303009512E+03    0.80770E-03   -0.42490E-04  3022   0.366E-02    0.257E-01
RMM:   6    -0.823302757528E+03    0.25198E-03   -0.24436E-04  3018   0.268E-02    0.126E-01
RMM:   7    -0.823302799755E+03   -0.42227E-04   -0.11159E-04  3017   0.186E-02    0.157E-01
RMM:   8    -0.823302716931E+03    0.82824E-04   -0.67431E-05  3011   0.157E-02    0.565E-02
RMM:   9    -0.823302738002E+03   -0.21071E-04   -0.30708E-05  3010   0.979E-03    0.875E-02
RMM:  10    -0.823302715307E+03    0.22695E-04   -0.16133E-05  2991   0.766E-03    0.351E-02
RMM:  11    -0.823302716747E+03   -0.14401E-05   -0.49192E-06  2642   0.397E-03    0.276E-02
RMM:  12    -0.823302722967E+03   -0.62204E-05   -0.28522E-06  1952   0.315E-03    0.182E-02
RMM:  13    -0.823302724126E+03   -0.11589E-05   -0.13882E-06  1653   0.247E-03    0.679E-03
RMM:  14    -0.823302729915E+03   -0.57882E-05   -0.60128E-07  1670   0.137E-03    0.102E-02
RMM:  15    -0.823302732053E+03   -0.21384E-05   -0.39627E-07  1627   0.134E-03    0.426E-03
RMM:  16    -0.823302734456E+03   -0.24031E-05   -0.15207E-07  1617   0.679E-04    0.597E-03
RMM:  17    -0.823302738988E+03   -0.45317E-05   -0.15127E-07  1654   0.695E-04    0.251E-03
RMM:  18    -0.823302740239E+03   -0.12512E-05   -0.53207E-08  1537   0.422E-04    0.207E-03
RMM:  19    -0.823302743774E+03   -0.35347E-05   -0.54969E-08  1405   0.330E-04    0.170E-03
RMM:  20    -0.823302744811E+03   -0.10376E-05   -0.19715E-08  1138   0.284E-04    0.118E-03
RMM:  21    -0.823302748629E+03   -0.38177E-05   -0.49699E-08   873   0.260E-04    0.128E-03
RMM:  22    -0.823302749729E+03   -0.10997E-05   -0.14799E-08   658   0.232E-04    0.909E-04
RMM:  23    -0.823302752919E+03   -0.31907E-05   -0.10466E-07  1325   0.306E-04    0.135E-03
RMM:  24    -0.823302753876E+03   -0.95701E-06   -0.26192E-08   990   0.261E-04
   8 F= -.82330275E+03 E0= -.82323086E+03  d E =-.287581E+00  mag=   201.5351
       N       E                     dE             d eps       ncg     rms          rms(c)
DAV:   1    -0.823301883245E+03    0.86967E-03   -0.42492E-01  3008   0.400E-01    0.291E-01
RMM:   2    -0.823306205115E+03   -0.43219E-02   -0.17166E-02  3023   0.175E-01    0.101E+00
RMM:   3    -0.823303687496E+03    0.25176E-02   -0.61662E-03  3023   0.136E-01    0.610E-01
RMM:   4    -0.823304257899E+03   -0.57040E-03   -0.13081E-03  3027   0.618E-02    0.675E-01
RMM:   5    -0.823301893957E+03    0.23639E-02   -0.83854E-04  3027   0.482E-02    0.162E-01
RMM:   6    -0.823302138845E+03   -0.24489E-03   -0.55246E-04  3023   0.398E-02    0.301E-01
RMM:   7    -0.823301938171E+03    0.20067E-03   -0.29327E-04  3029   0.304E-02    0.209E-01
RMM:   8    -0.823301815600E+03    0.12257E-03   -0.12185E-04  3026   0.203E-02    0.100E-01
RMM:   9    -0.823301848635E+03   -0.33035E-04   -0.72347E-05  3018   0.151E-02    0.126E-01
RMM:  10    -0.823301791501E+03    0.57134E-04   -0.44374E-05  3010   0.125E-02    0.260E-02
RMM:  11    -0.823301807012E+03   -0.15511E-04   -0.16088E-05  3007   0.690E-03    0.516E-02
RMM:  12    -0.823301800568E+03    0.64437E-05   -0.79051E-06  2893   0.537E-03    0.136E-02
RMM:  13    -0.823301805309E+03   -0.47405E-05   -0.26946E-06  1972   0.298E-03    0.226E-02
RMM:  14    -0.823301809804E+03   -0.44958E-05   -0.18243E-06  1734   0.276E-03    0.132E-02
RMM:  15    -0.823301810947E+03   -0.11430E-05   -0.76886E-07  1633   0.179E-03    0.696E-03
RMM:  16    -0.823301814597E+03   -0.36492E-05   -0.43892E-07  1651   0.121E-03    0.108E-02
RMM:  17    -0.823301816535E+03   -0.19386E-05   -0.29281E-07  1627   0.115E-03    0.278E-03
RMM:  18    -0.823301818670E+03   -0.21348E-05   -0.13500E-07  1616   0.639E-04    0.454E-03
RMM:  19    -0.823301822734E+03   -0.40645E-05   -0.14800E-07  1653   0.644E-04    0.210E-03
RMM:  20    -0.823301824063E+03   -0.13285E-05   -0.56263E-08  1537   0.411E-04    0.221E-03
RMM:  21    -0.823301827801E+03   -0.37377E-05   -0.97244E-08  1513   0.375E-04    0.148E-03
RMM:  22    -0.823301829012E+03   -0.12113E-05   -0.39083E-08  1425   0.330E-04    0.170E-03
RMM:  23    -0.823301832384E+03   -0.33717E-05   -0.11250E-07  1408   0.330E-04    0.127E-03
RMM:  24    -0.823301833187E+03   -0.80328E-06   -0.30662E-08  1184   0.287E-04
   9 F= -.82330183E+03 E0= -.82323006E+03  d E =-.287079E+00  mag=   201.5224
       N       E                     dE             d eps       ncg     rms          rms(c)
DAV:   1    -0.823302180699E+03   -0.34832E-03   -0.21203E-01  3008   0.279E-01    0.188E-01
RMM:   2    -0.823303606231E+03   -0.14255E-02   -0.76538E-03  3025   0.110E-01    0.572E-01
RMM:   3    -0.823303217041E+03    0.38919E-03   -0.22359E-03  3026   0.813E-02    0.460E-01
RMM:   4    -0.823303183010E+03    0.34031E-04   -0.65010E-04  3026   0.435E-02    0.459E-01
RMM:   5    -0.823302143502E+03    0.10395E-02   -0.40356E-04  3026   0.339E-02    0.100E-01
RMM:   6    -0.823302292248E+03   -0.14875E-03   -0.25817E-04  3025   0.273E-02    0.219E-01
RMM:   7    -0.823302143347E+03    0.14890E-03   -0.14066E-04  3032   0.213E-02    0.127E-01
RMM:   8    -0.823302101619E+03    0.41728E-04   -0.53096E-05  3021   0.132E-02    0.658E-02
RMM:   9    -0.823302109414E+03   -0.77951E-05   -0.28653E-05  3009   0.964E-03    0.745E-02
RMM:  10    -0.823302090640E+03    0.18774E-04   -0.17891E-05  2994   0.800E-03    0.140E-02
RMM:  11    -0.823302102856E+03   -0.12216E-04   -0.59649E-06  2734   0.419E-03    0.325E-02
RMM:  12    -0.823302102797E+03    0.59648E-07   -0.33223E-06  2224   0.367E-03
  10 F= -.82330210E+03 E0= -.82323029E+03  d E =-.287251E+00  mag=   201.5269
       N       E                     dE             d eps       ncg     rms          rms(c)
DAV:   1    -0.823301748180E+03    0.35468E-03   -0.43650E-01  3008   0.402E-01    0.326E-01
RMM:   2    -0.823311408333E+03   -0.96602E-02   -0.19478E-02  3021   0.224E-01    0.156E+00
RMM:   3    -0.823302384457E+03    0.90239E-02   -0.10351E-02  3020   0.182E-01    0.381E-01
RMM:   4    -0.823303794759E+03   -0.14103E-02   -0.11238E-03  3024   0.569E-02    0.606E-01
RMM:   5    -0.823302106193E+03    0.16886E-02   -0.59365E-04  3025   0.415E-02    0.266E-01
RMM:   6    -0.823301917894E+03    0.18830E-03   -0.41979E-04  3021   0.359E-02    0.194E-01
RMM:   7    -0.823302059700E+03   -0.14181E-03   -0.26633E-04  3023   0.281E-02    0.289E-01
RMM:   8    -0.823301781363E+03    0.27834E-03   -0.16778E-04  3018   0.244E-02    0.110E-01
RMM:   9    -0.823301818407E+03   -0.37044E-04   -0.83506E-05  3016   0.160E-02    0.136E-01
RMM:  10    -0.823301754043E+03    0.64364E-04   -0.48085E-05  3011   0.131E-02    0.321E-02
RMM:  11    -0.823301761373E+03   -0.73299E-05   -0.11838E-05  2997   0.589E-03    0.386E-02
RMM:  12    -0.823301764492E+03   -0.31191E-05   -0.50152E-06  2589   0.407E-03    0.180E-02
RMM:  13    -0.823301766741E+03   -0.22490E-05   -0.22395E-06  1796   0.286E-03    0.139E-02
RMM:  14    -0.823301774788E+03   -0.80473E-05   -0.13996E-06  1729   0.224E-03    0.151E-02
RMM:  15    -0.823301775823E+03   -0.10354E-05   -0.69116E-07  1640   0.179E-03    0.483E-03
RMM:  16    -0.823301779049E+03   -0.32253E-05   -0.31039E-07  1644   0.972E-04    0.945E-03
RMM:  17    -0.823301781765E+03   -0.27162E-05   -0.24507E-07  1649   0.101E-03    0.327E-03
RMM:  18    -0.823301782762E+03   -0.99656E-06   -0.87855E-08  1602   0.538E-04
  11 F= -.82330178E+03 E0= -.82322993E+03  d E =-.287405E+00  mag=   201.5264
       N       E                     dE             d eps       ncg     rms          rms(c)
DAV:   1    -0.823302012332E+03   -0.23057E-03   -0.21559E-01  3008   0.280E-01    0.193E-01
RMM:   2    -0.823305631826E+03   -0.36195E-02   -0.74578E-03  3020   0.129E-01    0.941E-01
RMM:   3    -0.823302455574E+03    0.31763E-02   -0.33614E-03  3025   0.102E-01    0.302E-01
RMM:   4    -0.823302675585E+03   -0.22001E-03   -0.43642E-04  3029   0.344E-02    0.326E-01
RMM:   5    -0.823302308982E+03    0.36660E-03   -0.28355E-04  3027   0.274E-02    0.213E-01
RMM:   6    -0.823302160577E+03    0.14840E-03   -0.20344E-04  3022   0.251E-02    0.124E-01
RMM:   7    -0.823302251445E+03   -0.90867E-04   -0.13181E-04  3024   0.198E-02    0.202E-01
RMM:   8    -0.823302107535E+03    0.14391E-03   -0.82316E-05  3010   0.173E-02    0.661E-02
RMM:   9    -0.823302115797E+03   -0.82622E-05   -0.29336E-05  3010   0.948E-03    0.728E-02
RMM:  10    -0.823302099033E+03    0.16764E-04   -0.15705E-05  2971   0.735E-03    0.337E-02
RMM:  11    -0.823302096457E+03    0.25763E-05   -0.57522E-06  2735   0.441E-03    0.169E-02
RMM:  12    -0.823302098891E+03   -0.24339E-05   -0.16776E-06  1706   0.245E-03    0.153E-02
RMM:  13    -0.823302099252E+03   -0.36154E-06   -0.12224E-06  1636   0.236E-03
  12 F= -.82330210E+03 E0= -.82323014E+03  d E =-.287833E+00  mag=   201.5300
       N       E                     dE             d eps       ncg     rms          rms(c)
DAV:   1    -0.823302375818E+03   -0.27693E-03   -0.42811E-01  3008   0.410E-01    0.283E-01
RMM:   2    -0.823307866030E+03   -0.54902E-02   -0.16906E-02  3022   0.156E-01    0.112E+00
RMM:   3    -0.823304248064E+03    0.36180E-02   -0.49409E-03  3028   0.120E-01    0.662E-01
RMM:   4    -0.823304487134E+03   -0.23907E-03   -0.17654E-03  3024   0.703E-02    0.685E-01
RMM:   5    -0.823302231824E+03    0.22553E-02   -0.10180E-03  3028   0.541E-02    0.208E-01
RMM:   6    -0.823302372119E+03   -0.14030E-03   -0.47955E-04  3028   0.375E-02    0.281E-01
RMM:   7    -0.823302298078E+03    0.74041E-04   -0.29425E-04  3031   0.303E-02    0.254E-01
RMM:   8    -0.823302083073E+03    0.21501E-03   -0.16206E-04  3023   0.240E-02    0.820E-02
RMM:   9    -0.823302110612E+03   -0.27540E-04   -0.69809E-05  3020   0.147E-02    0.119E-01
RMM:  10    -0.823302059989E+03    0.50624E-04   -0.39027E-05  3009   0.119E-02    0.284E-02
RMM:  11    -0.823302068972E+03   -0.89837E-05   -0.16532E-05  3006   0.709E-03    0.486E-02
RMM:  12    -0.823302067200E+03    0.17718E-05   -0.78508E-06  2861   0.511E-03    0.204E-02
RMM:  13    -0.823302069546E+03   -0.23456E-05   -0.25889E-06  1926   0.301E-03    0.199E-02
RMM:  14    -0.823302076768E+03   -0.72217E-05   -0.18891E-06  1742   0.266E-03    0.213E-02
RMM:  15    -0.823302077724E+03   -0.95640E-06   -0.11159E-06  1656   0.225E-03
  13 F= -.82330208E+03 E0= -.82323037E+03  d E =-.286814E+00  mag=   201.5264
       N       E                     dE             d eps       ncg     rms          rms(c)
DAV:   1    -0.823298456912E+03    0.36199E-02   -0.23726E+00  3008   0.141E+00    0.266E-01
RMM:   2    -0.823305088095E+03   -0.66312E-02   -0.65241E-02  3032   0.238E-01    0.447E-01
RMM:   3    -0.823305819160E+03   -0.73106E-03   -0.50963E-03  3028   0.102E-01    0.640E-01
RMM:   4    -0.823306291951E+03   -0.47279E-03   -0.15214E-03  3044   0.629E-02    0.662E-01
RMM:   5    -0.823304027110E+03    0.22648E-02   -0.86528E-04  3026   0.524E-02    0.152E-01
RMM:   6    -0.823304471912E+03   -0.44480E-03   -0.44454E-04  3026   0.367E-02    0.362E-01
RMM:   7    -0.823304036015E+03    0.43590E-03   -0.29831E-04  3028   0.312E-02    0.148E-01
RMM:   8    -0.823304076004E+03   -0.39989E-04   -0.22092E-04  3022   0.266E-02    0.158E-01
RMM:   9    -0.823304085882E+03   -0.98780E-05   -0.14227E-04  3027   0.199E-02    0.154E-01
RMM:  10    -0.823303988759E+03    0.97123E-04   -0.65994E-05  3014   0.152E-02    0.275E-02
RMM:  11    -0.823303997021E+03   -0.82625E-05   -0.14842E-05  3009   0.654E-03    0.453E-02
RMM:  12    -0.823303989376E+03    0.76455E-05   -0.59703E-06  2767   0.475E-03    0.120E-02
RMM:  13    -0.823303991773E+03   -0.23970E-05   -0.26351E-06  1883   0.297E-03    0.259E-02
RMM:  14    -0.823303990266E+03    0.15066E-05   -0.21544E-06  1744   0.291E-03    0.156E-02
RMM:  15    -0.823303989919E+03    0.34734E-06   -0.10870E-06  1623   0.211E-03
  14 F= -.82330399E+03 E0= -.82323223E+03  d E =-.287058E+00  mag=   201.5211
       N       E                     dE             d eps       ncg     rms          rms(c)
DAV:   1    -0.823282024542E+03    0.21966E-01   -0.88702E+00  3008   0.273E+00    0.452E-01
RMM:   2    -0.823300749726E+03   -0.18725E-01   -0.17917E-01  3029   0.397E-01    0.902E-01
RMM:   3    -0.823300905491E+03   -0.15577E-03   -0.14260E-02  3032   0.160E-01    0.976E-01
RMM:   4    -0.823304583824E+03   -0.36783E-02   -0.42784E-03  3035   0.104E-01    0.115E+00
RMM:   5    -0.823297393904E+03    0.71899E-02   -0.19254E-03  3034   0.795E-02    0.222E-01
RMM:   6    -0.823298426463E+03   -0.10326E-02   -0.12134E-03  3027   0.596E-02    0.511E-01
RMM:   7    -0.823297667046E+03    0.75942E-03   -0.83383E-04  3031   0.504E-02    0.252E-01
RMM:   8    -0.823297810046E+03   -0.14300E-03   -0.59928E-04  3026   0.436E-02    0.303E-01
RMM:   9    -0.823297747623E+03    0.62423E-04   -0.34892E-04  3028   0.329E-02    0.245E-01
RMM:  10    -0.823297516657E+03    0.23097E-03   -0.15212E-04  3029   0.233E-02    0.465E-02
RMM:  11    -0.823297539444E+03   -0.22787E-04   -0.37263E-05  3021   0.106E-02    0.707E-02
RMM:  12    -0.823297523349E+03    0.16095E-04   -0.15213E-05  2998   0.760E-03    0.185E-02
RMM:  13    -0.823297531024E+03   -0.76754E-05   -0.91047E-06  2956   0.522E-03    0.400E-02
RMM:  14    -0.823297530020E+03    0.10039E-05   -0.64689E-06  2757   0.453E-03    0.165E-02
RMM:  15    -0.823297533475E+03   -0.34551E-05   -0.28557E-06  1920   0.313E-03    0.254E-02
RMM:  16    -0.823297535624E+03   -0.21488E-05   -0.17157E-06  1707   0.271E-03    0.154E-02
RMM:  17    -0.823297535851E+03   -0.22630E-06   -0.67334E-07  1611   0.173E-03
  15 F= -.82329754E+03 E0= -.82322563E+03  d E =-.287617E+00  mag=   201.5322
       N       E                     dE             d eps       ncg     rms          rms(c)
DAV:   1    -0.823283607246E+03    0.13928E-01   -0.44495E+00  3008   0.195E+00    0.371E-01
RMM:   2    -0.823291426035E+03   -0.78188E-02   -0.89101E-02  3030   0.281E-01    0.361E-01
RMM:   3    -0.823296389975E+03   -0.49639E-02   -0.90366E-03  3032   0.137E-01    0.109E+00
RMM:   4    -0.823292163582E+03    0.42264E-02   -0.28586E-03  3038   0.917E-02    0.532E-01
RMM:   5    -0.823290991156E+03    0.11724E-02   -0.86027E-04  3030   0.503E-02    0.234E-01
RMM:   6    -0.823291196298E+03   -0.20514E-03   -0.47925E-04  3028   0.363E-02    0.351E-01
RMM:   7    -0.823290803469E+03    0.39283E-03   -0.38221E-04  3028   0.362E-02    0.143E-01
RMM:   8    -0.823291183999E+03   -0.38053E-03   -0.41877E-04  3027   0.356E-02    0.329E-01
RMM:   9    -0.823290810415E+03    0.37358E-03   -0.29153E-04  3029   0.312E-02    0.970E-02
RMM:  10    -0.823290802885E+03    0.75298E-05   -0.73995E-05  3025   0.153E-02    0.607E-02
RMM:  11    -0.823290797100E+03    0.57849E-05   -0.13440E-05  2993   0.714E-03    0.345E-02
RMM:  12    -0.823290794095E+03    0.30052E-05   -0.46513E-06  2598   0.414E-03    0.152E-02
RMM:  13    -0.823290800152E+03   -0.60570E-05   -0.42352E-06  2362   0.349E-03    0.343E-02
RMM:  14    -0.823290796869E+03    0.32824E-05   -0.32794E-06  2005   0.366E-03    0.104E-02
RMM:  15    -0.823290798872E+03   -0.20031E-05   -0.15806E-06  1690   0.234E-03    0.194E-02
RMM:  16    -0.823290798632E+03    0.24015E-06   -0.10357E-06  1649   0.221E-03
  16 F= -.82329080E+03 E0= -.82321897E+03  d E =-.287334E+00  mag=   201.5274
       N       E                     dE             d eps       ncg     rms          rms(c)
DAV:   1    -0.823289954750E+03    0.84412E-03   -0.88445E+00  3008   0.259E+00    0.760E-01
RMM:   2    -0.823306700824E+03   -0.16746E-01   -0.21887E-01  3029   0.372E-01    0.869E-01
RMM:   3    -0.823340221050E+03   -0.33520E-01   -0.33112E-02  3032   0.269E-01    0.288E+00
RMM:   4    -0.823308846165E+03    0.31375E-01   -0.13416E-02  3037   0.200E-01    0.133E+00
RMM:   5    -0.823302080386E+03    0.67658E-02   -0.43008E-03  3035   0.114E-01    0.356E-01
RMM:   6    -0.823303837686E+03   -0.17573E-02   -0.24588E-03  3032   0.820E-02    0.717E-01
RMM:   7    -0.823302062925E+03    0.17748E-02   -0.15266E-03  3030   0.717E-02    0.198E-01
RMM:   8    -0.823303271720E+03   -0.12088E-02   -0.12224E-03  3032   0.608E-02    0.558E-01
RMM:   9    -0.823302291246E+03    0.98047E-03   -0.75809E-04  3032   0.519E-02    0.216E-01
RMM:  10    -0.823302192749E+03    0.98497E-04   -0.21437E-04  3033   0.264E-02    0.116E-01
RMM:  11    -0.823302206910E+03   -0.14161E-04   -0.66315E-05  3028   0.147E-02    0.106E-01
RMM:  12    -0.823302168143E+03    0.38767E-04   -0.32223E-05  3016   0.111E-02    0.227E-02
RMM:  13    -0.823302184405E+03   -0.16262E-04   -0.13275E-05  3008   0.610E-03    0.481E-02
RMM:  14    -0.823302183827E+03    0.57778E-06   -0.92205E-06  2916   0.535E-03
  17 F= -.82330218E+03 E0= -.82323034E+03  d E =-.287368E+00  mag=   201.5302
       N       E                     dE             d eps       ncg     rms          rms(c)
DAV:   1    -0.823296529510E+03    0.56549E-02   -0.44478E+00  3008   0.188E+00    0.395E-01
RMM:   2    -0.823306507138E+03   -0.99776E-02   -0.10613E-01  3029   0.297E-01    0.379E-01
RMM:   3    -0.823312077687E+03   -0.55705E-02   -0.87892E-03  3029   0.136E-01    0.127E+00
RMM:   4    -0.823306361451E+03    0.57162E-02   -0.30545E-03  3035   0.978E-02    0.377E-01
RMM:   5    -0.823306680635E+03   -0.31918E-03   -0.10452E-03  3027   0.573E-02    0.405E-01
RMM:   6    -0.823307841321E+03   -0.11607E-02   -0.91732E-04  3030   0.502E-02    0.647E-01
RMM:   7    -0.823305994759E+03    0.18466E-02   -0.10208E-03  3026   0.567E-02    0.197E-01
RMM:   8    -0.823306117745E+03   -0.12299E-03   -0.56146E-04  3022   0.423E-02    0.251E-01
RMM:   9    -0.823305907798E+03    0.20995E-03   -0.22629E-04  3026   0.277E-02    0.115E-01
RMM:  10    -0.823305867533E+03    0.40265E-04   -0.52338E-05  3018   0.136E-02    0.394E-02
RMM:  11    -0.823305878795E+03   -0.11262E-04   -0.14432E-05  3002   0.668E-03    0.607E-02
RMM:  12    -0.823305868740E+03    0.10055E-04   -0.89230E-06  2932   0.572E-03    0.182E-02
RMM:  13    -0.823305878943E+03   -0.10203E-04   -0.53280E-06  2695   0.402E-03    0.344E-02
RMM:  14    -0.823305888461E+03   -0.95179E-05   -0.44454E-06  2150   0.355E-03    0.168E-02
RMM:  15    -0.823305894439E+03   -0.59784E-05   -0.24309E-06  1802   0.297E-03    0.133E-02
RMM:  16    -0.823305912327E+03   -0.17888E-04   -0.16699E-06  1762   0.210E-03    0.995E-03
RMM:  17    -0.823305916097E+03   -0.37708E-05   -0.56103E-07  1647   0.150E-03    0.405E-03
RMM:  18    -0.823305931092E+03   -0.14995E-04   -0.54188E-07  1690   0.893E-04    0.588E-03
RMM:  19    -0.823305937769E+03   -0.66764E-05   -0.28089E-07  1655   0.917E-04    0.303E-03
RMM:  20    -0.823305959837E+03   -0.22068E-04   -0.10626E-06  1762   0.898E-04    0.591E-03
RMM:  21    -0.823305971081E+03   -0.11245E-04   -0.57328E-07  1700   0.962E-04    0.233E-03
RMM:  22    -0.823305982816E+03   -0.11735E-04   -0.59595E-07  1715   0.694E-04    0.379E-03
RMM:  23    -0.823305987460E+03   -0.46440E-05   -0.21598E-07  1655   0.651E-04    0.141E-03
RMM:  24    -0.823305992264E+03   -0.48037E-05   -0.16756E-07  1555   0.417E-04    0.223E-03
RMM:  25    -0.823305995010E+03   -0.27463E-05   -0.86376E-08  1517   0.396E-04    0.897E-04
RMM:  26    -0.823305999000E+03   -0.39899E-05   -0.12162E-07  1308   0.330E-04    0.151E-03
RMM:  27    -0.823306000573E+03   -0.15724E-05   -0.41578E-08  1160   0.292E-04    0.707E-04
RMM:  28    -0.823306002861E+03   -0.22880E-05   -0.60711E-08  1024   0.277E-04    0.106E-03
RMM:  29    -0.823306003790E+03   -0.92901E-06   -0.19204E-08   682   0.238E-04
  18 F= -.82330600E+03 E0= -.82323420E+03  d E =-.287213E+00  mag=   201.5278
       N       E                     dE             d eps       ncg     rms          rms(c)
DAV:   1    -0.823277822054E+03    0.28181E-01   -0.88301E+00  3008   0.258E+00    0.631E-01
RMM:   2    -0.823298620589E+03   -0.20799E-01   -0.19783E-01  3027   0.388E-01    0.129E+00
RMM:   3    -0.823297872374E+03    0.74822E-03   -0.19342E-02  3030   0.189E-01    0.124E+00
RMM:   4    -0.823302529345E+03   -0.46570E-02   -0.83357E-03  3028   0.150E-01    0.146E+00
RMM:   5    -0.823291374337E+03    0.11155E-01   -0.44888E-03  3026   0.117E-01    0.505E-01
RMM:   6    -0.823294839005E+03   -0.34647E-02   -0.46139E-03  3033   0.113E-01    0.105E+00
RMM:   7    -0.823290418055E+03    0.44210E-02   -0.32103E-03  3028   0.104E-01    0.262E-01
RMM:   8    -0.823291667431E+03   -0.12494E-02   -0.17412E-03  3029   0.727E-02    0.606E-01
RMM:   9    -0.823290282265E+03    0.13852E-02   -0.93039E-04  3030   0.584E-02    0.191E-01
RMM:  10    -0.823290213237E+03    0.69028E-04   -0.19645E-04  3030   0.252E-02    0.116E-01
RMM:  11    -0.823290233581E+03   -0.20345E-04   -0.69469E-05  3023   0.152E-02    0.123E-01
RMM:  12    -0.823290179341E+03    0.54240E-04   -0.39426E-05  3013   0.122E-02    0.302E-02
RMM:  13    -0.823290222837E+03   -0.43496E-04   -0.32490E-05  3020   0.970E-03    0.818E-02
RMM:  14    -0.823290224989E+03   -0.21525E-05   -0.24455E-05  3016   0.886E-03    0.259E-02
RMM:  15    -0.823290250771E+03   -0.25781E-04   -0.87643E-06  2942   0.517E-03    0.422E-02
RMM:  16    -0.823290269548E+03   -0.18777E-04   -0.38659E-06  2369   0.379E-03    0.185E-02
RMM:  17    -0.823290277181E+03   -0.76331E-05   -0.11425E-06  1668   0.205E-03    0.890E-03
RMM:  18    -0.823290314884E+03   -0.37703E-04   -0.12802E-06  1742   0.174E-03    0.139E-02
RMM:  19    -0.823290342316E+03   -0.27432E-04   -0.10999E-06  1715   0.192E-03    0.516E-03
RMM:  20    -0.823290398406E+03   -0.56090E-04   -0.20125E-06  1864   0.170E-03    0.130E-02
RMM:  21    -0.823290446302E+03   -0.47895E-04   -0.22002E-06  1877   0.198E-03    0.524E-03
RMM:  22    -0.823290472016E+03   -0.25714E-04   -0.99216E-07  1740   0.122E-03    0.784E-03
RMM:  23    -0.823290491967E+03   -0.19951E-04   -0.73771E-07  1720   0.121E-03    0.271E-03
RMM:  24    -0.823290504439E+03   -0.12473E-04   -0.35320E-07  1679   0.732E-04    0.452E-03
RMM:  25    -0.823290517081E+03   -0.12642E-04   -0.33683E-07  1694   0.746E-04    0.174E-03
RMM:  26    -0.823290525824E+03   -0.87424E-05   -0.19482E-07  1625   0.505E-04    0.312E-03
RMM:  27    -0.823290534389E+03   -0.85650E-05   -0.21276E-07  1621   0.542E-04    0.134E-03
RMM:  28    -0.823290540300E+03   -0.59116E-05   -0.14768E-07  1564   0.398E-04    0.214E-03
RMM:  29    -0.823290543535E+03   -0.32345E-05   -0.85247E-08  1505   0.387E-04    0.784E-04
RMM:  30    -0.823290545815E+03   -0.22798E-05   -0.41516E-08   929   0.268E-04    0.133E-03
RMM:  31    -0.823290547398E+03   -0.15832E-05   -0.32723E-08   907   0.253E-04    0.553E-04
RMM:  32    -0.823290548548E+03   -0.11506E-05   -0.30271E-08   877   0.259E-04    0.963E-04
RMM:  33    -0.823290549289E+03   -0.74040E-06   -0.23517E-08   707   0.241E-04
  19 F= -.82329055E+03 E0= -.82321868E+03  d E =-.287469E+00  mag=   201.5284
