 Co   H   O                             
   1.00000000000000     
     9.9561004600000000    0.0000000000000000    0.0000000000000000
    -7.4670500799999999   12.9333095599999996    0.0000000000000000
     0.0000000000000000    0.0000000000000000   23.1291007999999998
   Co   H    O 
   120     2     1
Selective dynamics
Direct
  0.1666694432497025  0.0555598065257072  0.0000000000000000   F   F   F
  0.4166699051856995  0.0555595867335796  0.0000000000000000   F   F   F
  0.6666697263717651  0.0555597320199013  0.0000000000000000   F   F   F
  0.9166700243949890  0.0555594377219677  0.0000000000000000   F   F   F
  0.1666705757379532  0.2222200781106949  0.0000000000000000   F   F   F
  0.4166698157787323  0.2222198694944382  0.0000000000000000   F   F   F
  0.6666705608367920  0.2222200185060501  0.0000000000000000   F   F   F
  0.9166703224182129  0.2222200483083725  0.0000000000000000   F   F   F
  0.1666695177555013  0.3888895511627197  0.0000000000000000   F   F   F
  0.4166700541973114  0.3888895213603973  0.0000000000000000   F   F   F
  0.6666694283485413  0.3888894915580750  0.0000000000000000   F   F   F
  0.9166700839996338  0.3888895511627197  0.0000000000000000   F   F   F
  0.1666700243949890  0.5555601119995117  0.0000000000000000   F   F   F
  0.4166697859764099  0.5555601119995117  0.0000000000000000   F   F   F
  0.6666702032089233  0.5555600523948669  0.0000000000000000   F   F   F
  0.9166697263717651  0.5555599927902222  0.0000000000000000   F   F   F
  0.1666693985462189  0.7222195863723755  0.0000000000000000   F   F   F
  0.4166692197322845  0.7222195863723755  0.0000000000000000   F   F   F
  0.6666694879531860  0.7222195863723755  0.0000000000000000   F   F   F
  0.9166703224182129  0.7222195863723755  0.0000000000000000   F   F   F
  0.1666703522205353  0.8888903856277466  0.0000000000000000   F   F   F
  0.4166694879531860  0.8888899683952332  0.0000000000000000   F   F   F
  0.6666705012321472  0.8888900876045227  0.0000000000000000   F   F   F
  0.9166697263717651  0.8888899683952332  0.0000000000000000   F   F   F
  0.0000000000000000  0.0000000000000000  0.0878698304295540   F   F   F
  0.2500001192092896  0.0000000000000000  0.0878697857260704   F   F   F
  0.5000000596046448  0.0000000000000000  0.0878698080778122   F   F   F
  0.7500005960464478  0.0000000000000000  0.0878698080778122   F   F   F
  0.0000000000000000  0.1666696816682816  0.0878698900341988   F   F   F
  0.2499993592500687  0.1666694283485413  0.0878698825836182   F   F   F
  0.5000000000000000  0.1666696816682816  0.0878698304295540   F   F   F
  0.7499993443489075  0.1666693240404129  0.0878697857260704   F   F   F
  0.9999999999999929  0.3333298563957214  0.0878698155283928   F   F   F
  0.2499994635581970  0.3333297073841095  0.0878697708249092   F   F   F
  0.5000002384185791  0.3333300054073334  0.0878697782754898   F   F   F
  0.7499996423721313  0.3333298861980438  0.0878698527812958   F   F   F
  0.0000000000000000  0.4999995827674866  0.0878698155283928   F   F   F
  0.2499998509883881  0.4999995827674866  0.0878698304295540   F   F   F
  0.4999991655349731  0.4999995529651642  0.0878697708249092   F   F   F
  0.7499997615814209  0.4999995529651642  0.0878698825836182   F   F   F
  0.9999999999999858  0.6666702032089233  0.0878698527812958   F   F   F
  0.2500002682208944  0.6666701436042786  0.0878697857260704   F   F   F
  0.4999999403953552  0.6666702032089233  0.0878697782754898   F   F   F
  0.7500004172325134  0.6666702032089233  0.0878697559237480   F   F   F
  0.9999999999999858  0.8333296775817871  0.0878697261214256   F   F   F
  0.2500000298023153  0.8333299160003662  0.0878695994615555   F   F   F
  0.4999994337558746  0.8333297371864319  0.0878696665167809   F   F   F
  0.7499998807907104  0.8333296775817871  0.0878696814179420   F   F   F
  0.0833304077386856  0.1111102104187012  0.1757302135229111   F   F   F
  0.3333297073841095  0.1111097335815430  0.1757301986217499   F   F   F
  0.5833302736282349  0.1111099198460579  0.1757301986217499   F   F   F
  0.8333297967910767  0.1111097708344460  0.1757302135229111   F   F   F
  0.0833291113376617  0.2777794301509857  0.1757301539182663   F   F   F
  0.3333297073841095  0.2777795493602753  0.1757301688194275   F   F   F
  0.5833293199539185  0.2777793407440186  0.1757301688194275   F   F   F
  0.8333296775817871  0.2777793407440186  0.1757301688194275   F   F   F
  0.0833302736282278  0.4444398581981659  0.1757301688194275   F   F   F
  0.3333298861980438  0.4444399476051331  0.1757301539182663   F   F   F
  0.5833303928375244  0.4444399476051331  0.1757301539182663   F   F   F
  0.8333300352096558  0.4444399476051331  0.1757301539182663   F   F   F
  0.0833294391632080  0.6111097335815430  0.1757301092147827   F   F   F
  0.3333300054073334  0.6111097335815430  0.1757301390171051   F   F   F
  0.5833294391632080  0.6111095547676086  0.1757301539182663   F   F   F
  0.8333299756050110  0.6111096143722534  0.1757301390171051   F   F   F
  0.0833307504653931  0.7777805328369141  0.1757300943136215   F   F   F
  0.3333295583724976  0.7777802944183350  0.1757301092147827   F   F   F
  0.5833302140235901  0.7777799963951111  0.1757300645112991   F   F   F
  0.8333296179771423  0.7777801156044006  0.1757301390171051   F   F   F
  0.0833296775817871  0.9444404244422913  0.1757300645112991   F   F   F
  0.3333294093608785  0.9444404840469360  0.1757300943136215   F   F   F
  0.5833301544189453  0.9444401860237122  0.1757300645112991   F   F   F
  0.8333294391632080  0.9444401860237122  0.1757301539182663   F   F   F
  0.1655209672620259  0.0545888176870690  0.2644805657305298   F   F   F
  0.4154424304287119  0.0545929894844619  0.2644845827894073   F   F   F
  0.6653789141919830  0.0546260242599246  0.2645029656567672   F   F   F
  0.9157530969553562  0.0545769561585487  0.2645017858224321   F   F   F
  0.1652437832686005  0.2212136072166899  0.2644073082452820   F   F   F
  0.4155190699254590  0.2211767713296240  0.2642844471251777   F   F   F
  0.6656930225774502  0.2213490344359528  0.2645155233175416   F   F   F
  0.9156295086448978  0.2213603481267867  0.2645476016645816   F   F   F
  0.1656706588659631  0.3880873286050530  0.2642233588282537   F   F   F
  0.4158396982944410  0.3891126878668061  0.2650063911547065   F   F   F
  0.6654575015606952  0.3879264592874705  0.2639122254742645   F   F   F
  0.9153270003892047  0.3880847806479153  0.2647068210743058   F   F   F
  0.1657239396907642  0.5547750574270580  0.2645426361512619   F   F   F
  0.4158105555598226  0.5540279105769983  0.2651998594898330   F   F   F
  0.6624310291583271  0.5537234487353118  0.2657087501974331   F   F   F
  0.9152078397934815  0.5546647329770025  0.2646649719249652   F   F   F
  0.1653092697533225  0.7213997925786728  0.2645037519683200   F   F   F
  0.4155669801800386  0.7214731315772056  0.2645585148758940   F   F   F
  0.6653121960817288  0.7215107137321937  0.2639553003168942   F   F   F
  0.9152403681126700  0.7212577205898825  0.2645704923378815   F   F   F
  0.1657229806617551  0.8878989524905805  0.2644161501333286   F   F   F
  0.4156055556579972  0.8878196568527201  0.2644838209185778   F   F   F
  0.6657686681931452  0.8881278591073993  0.2644041644979893   F   F   F
  0.9157393463190218  0.8879354982288348  0.2645338683908562   F   F   F
  0.9989064091764561  0.9988898351674251  0.3497549295434865   F   F   F
  0.2494787769907063  0.9993365805299703  0.3497494272691668   F   F   F
  0.4992655743713925  0.9993817445543058  0.3496154407193544   F   F   F
  0.7488768912767725  0.9990675636359470  0.3496292381877524   F   F   F
  0.9983176799081335  0.1650965851685129  0.3495921077905635   F   F   F
  0.2485042846083942  0.1654261630543630  0.3495165395921731   F   F   F
  0.4991617793781984  0.1654422646443550  0.3495992348059787   F   F   F
  0.7487591130217126  0.1658322608616842  0.3497569877303874   F   F   F
  0.9981111459973562  0.3322450323887409  0.3496213075464496   F   F   F
  0.2464710814390401  0.3308075217119466  0.3491078428838250   F   F   F
  0.4984194402234863  0.3304137598184127  0.3486948626012705   F   F   F
  0.7487112238004698  0.3328520933012058  0.3494741006050148   F   F   F
  0.9984035015475499  0.4994018093300099  0.3495112680430168   F   F   F
  0.2467568597428311  0.4989394848105988  0.3494686782335990   F   F   F
  0.4944320512731224  0.4969679377928529  0.3553338613370798   F   F   F
  0.7519713008625715  0.5004919465589666  0.3500438269411177   F   F   F
  0.0008754760748886  0.6665350715258285  0.3498283186539766   F   F   F
  0.2487410971870858  0.6657575543346539  0.3495652385207748   F   F   F
  0.4991389189547633  0.6675437778743643  0.3491424267004604   F   F   F
  0.7537919294525537  0.6671956623057937  0.3497987556124613   F   F   F
  0.0000738789699994  0.8331099426814177  0.3495385774072730   F   F   F
  0.2498079031200646  0.8330974899491110  0.3496247041439489   F   F   F
  0.4992110672572281  0.8331369077041302  0.3495923969149786   F   F   F
  0.7496487827889666  0.8327006208045020  0.3492973890567370   F   F   F
  0.5318091430480933  0.4597729203715986  0.4568665587864800   T   T   T
  0.6858915779812591  0.5607836133049844  0.4004503968193873   T   T   T
  0.5409294367855395  0.5213205270203574  0.4362942042505550   T   T   T
 
  0.00000000E+00  0.00000000E+00  0.00000000E+00
  0.00000000E+00  0.00000000E+00  0.00000000E+00
  0.00000000E+00  0.00000000E+00  0.00000000E+00
  0.00000000E+00  0.00000000E+00  0.00000000E+00
  0.00000000E+00  0.00000000E+00  0.00000000E+00
  0.00000000E+00  0.00000000E+00  0.00000000E+00
  0.00000000E+00  0.00000000E+00  0.00000000E+00
  0.00000000E+00  0.00000000E+00  0.00000000E+00
  0.00000000E+00  0.00000000E+00  0.00000000E+00
  0.00000000E+00  0.00000000E+00  0.00000000E+00
  0.00000000E+00  0.00000000E+00  0.00000000E+00
  0.00000000E+00  0.00000000E+00  0.00000000E+00
  0.00000000E+00  0.00000000E+00  0.00000000E+00
  0.00000000E+00  0.00000000E+00  0.00000000E+00
  0.00000000E+00  0.00000000E+00  0.00000000E+00
  0.00000000E+00  0.00000000E+00  0.00000000E+00
  0.00000000E+00  0.00000000E+00  0.00000000E+00
  0.00000000E+00  0.00000000E+00  0.00000000E+00
  0.00000000E+00  0.00000000E+00  0.00000000E+00
  0.00000000E+00  0.00000000E+00  0.00000000E+00
  0.00000000E+00  0.00000000E+00  0.00000000E+00
  0.00000000E+00  0.00000000E+00  0.00000000E+00
  0.00000000E+00  0.00000000E+00  0.00000000E+00
  0.00000000E+00  0.00000000E+00  0.00000000E+00
  0.00000000E+00  0.00000000E+00  0.00000000E+00
  0.00000000E+00  0.00000000E+00  0.00000000E+00
  0.00000000E+00  0.00000000E+00  0.00000000E+00
  0.00000000E+00  0.00000000E+00  0.00000000E+00
  0.00000000E+00  0.00000000E+00  0.00000000E+00
  0.00000000E+00  0.00000000E+00  0.00000000E+00
  0.00000000E+00  0.00000000E+00  0.00000000E+00
  0.00000000E+00  0.00000000E+00  0.00000000E+00
  0.00000000E+00  0.00000000E+00  0.00000000E+00
  0.00000000E+00  0.00000000E+00  0.00000000E+00
  0.00000000E+00  0.00000000E+00  0.00000000E+00
  0.00000000E+00  0.00000000E+00  0.00000000E+00
  0.00000000E+00  0.00000000E+00  0.00000000E+00
  0.00000000E+00  0.00000000E+00  0.00000000E+00
  0.00000000E+00  0.00000000E+00  0.00000000E+00
  0.00000000E+00  0.00000000E+00  0.00000000E+00
  0.00000000E+00  0.00000000E+00  0.00000000E+00
  0.00000000E+00  0.00000000E+00  0.00000000E+00
  0.00000000E+00  0.00000000E+00  0.00000000E+00
  0.00000000E+00  0.00000000E+00  0.00000000E+00
  0.00000000E+00  0.00000000E+00  0.00000000E+00
  0.00000000E+00  0.00000000E+00  0.00000000E+00
  0.00000000E+00  0.00000000E+00  0.00000000E+00
  0.00000000E+00  0.00000000E+00  0.00000000E+00
  0.00000000E+00  0.00000000E+00  0.00000000E+00
  0.00000000E+00  0.00000000E+00  0.00000000E+00
  0.00000000E+00  0.00000000E+00  0.00000000E+00
  0.00000000E+00  0.00000000E+00  0.00000000E+00
  0.00000000E+00  0.00000000E+00  0.00000000E+00
  0.00000000E+00  0.00000000E+00  0.00000000E+00
  0.00000000E+00  0.00000000E+00  0.00000000E+00
  0.00000000E+00  0.00000000E+00  0.00000000E+00
  0.00000000E+00  0.00000000E+00  0.00000000E+00
  0.00000000E+00  0.00000000E+00  0.00000000E+00
  0.00000000E+00  0.00000000E+00  0.00000000E+00
  0.00000000E+00  0.00000000E+00  0.00000000E+00
  0.00000000E+00  0.00000000E+00  0.00000000E+00
  0.00000000E+00  0.00000000E+00  0.00000000E+00
  0.00000000E+00  0.00000000E+00  0.00000000E+00
  0.00000000E+00  0.00000000E+00  0.00000000E+00
  0.00000000E+00  0.00000000E+00  0.00000000E+00
  0.00000000E+00  0.00000000E+00  0.00000000E+00
  0.00000000E+00  0.00000000E+00  0.00000000E+00
  0.00000000E+00  0.00000000E+00  0.00000000E+00
  0.00000000E+00  0.00000000E+00  0.00000000E+00
  0.00000000E+00  0.00000000E+00  0.00000000E+00
  0.00000000E+00  0.00000000E+00  0.00000000E+00
  0.00000000E+00  0.00000000E+00  0.00000000E+00
  0.00000000E+00  0.00000000E+00  0.00000000E+00
  0.00000000E+00  0.00000000E+00  0.00000000E+00
  0.00000000E+00  0.00000000E+00  0.00000000E+00
  0.00000000E+00  0.00000000E+00  0.00000000E+00
  0.00000000E+00  0.00000000E+00  0.00000000E+00
  0.00000000E+00  0.00000000E+00  0.00000000E+00
  0.00000000E+00  0.00000000E+00  0.00000000E+00
  0.00000000E+00  0.00000000E+00  0.00000000E+00
  0.00000000E+00  0.00000000E+00  0.00000000E+00
  0.00000000E+00  0.00000000E+00  0.00000000E+00
  0.00000000E+00  0.00000000E+00  0.00000000E+00
  0.00000000E+00  0.00000000E+00  0.00000000E+00
  0.00000000E+00  0.00000000E+00  0.00000000E+00
  0.00000000E+00  0.00000000E+00  0.00000000E+00
  0.00000000E+00  0.00000000E+00  0.00000000E+00
  0.00000000E+00  0.00000000E+00  0.00000000E+00
  0.00000000E+00  0.00000000E+00  0.00000000E+00
  0.00000000E+00  0.00000000E+00  0.00000000E+00
  0.00000000E+00  0.00000000E+00  0.00000000E+00
  0.00000000E+00  0.00000000E+00  0.00000000E+00
  0.00000000E+00  0.00000000E+00  0.00000000E+00
  0.00000000E+00  0.00000000E+00  0.00000000E+00
  0.00000000E+00  0.00000000E+00  0.00000000E+00
  0.00000000E+00  0.00000000E+00  0.00000000E+00
  0.00000000E+00  0.00000000E+00  0.00000000E+00
  0.00000000E+00  0.00000000E+00  0.00000000E+00
  0.00000000E+00  0.00000000E+00  0.00000000E+00
  0.00000000E+00  0.00000000E+00  0.00000000E+00
  0.00000000E+00  0.00000000E+00  0.00000000E+00
  0.00000000E+00  0.00000000E+00  0.00000000E+00
  0.00000000E+00  0.00000000E+00  0.00000000E+00
  0.00000000E+00  0.00000000E+00  0.00000000E+00
  0.00000000E+00  0.00000000E+00  0.00000000E+00
  0.00000000E+00  0.00000000E+00  0.00000000E+00
  0.00000000E+00  0.00000000E+00  0.00000000E+00
  0.00000000E+00  0.00000000E+00  0.00000000E+00
  0.00000000E+00  0.00000000E+00  0.00000000E+00
  0.00000000E+00  0.00000000E+00  0.00000000E+00
  0.00000000E+00  0.00000000E+00  0.00000000E+00
  0.00000000E+00  0.00000000E+00  0.00000000E+00
  0.00000000E+00  0.00000000E+00  0.00000000E+00
  0.00000000E+00  0.00000000E+00  0.00000000E+00
  0.00000000E+00  0.00000000E+00  0.00000000E+00
  0.00000000E+00  0.00000000E+00  0.00000000E+00
  0.00000000E+00  0.00000000E+00  0.00000000E+00
  0.00000000E+00  0.00000000E+00  0.00000000E+00
  0.00000000E+00  0.00000000E+00  0.00000000E+00
  0.00000000E+00  0.00000000E+00  0.00000000E+00
  0.00000000E+00  0.00000000E+00  0.00000000E+00
  0.00000000E+00  0.00000000E+00  0.00000000E+00
  0.00000000E+00  0.00000000E+00  0.00000000E+00
