 Co   H   O
   1.0 
   9.95610046   0.00000000   0.00000000 
  -7.46705008  12.93330956   0.00000000 
   0.00000000   0.00000000  23.12910080 
 120 2 1 
Selective dynamics
Direct
  0.166669443249703  0.055559806525707  0.000000000000000   F   F   F 
  0.416669905185700  0.055559586733580  0.000000000000000   F   F   F 
  0.666669726371765  0.055559732019901  0.000000000000000   F   F   F 
  0.916670024394989  0.055559437721968  0.000000000000000   F   F   F 
  0.166670575737953  0.222220078110695  0.000000000000000   F   F   F 
  0.416669815778732  0.222219869494438  0.000000000000000   F   F   F 
  0.666670560836792  0.222220018506050  0.000000000000000   F   F   F 
  0.916670322418213  0.222220048308372  0.000000000000000   F   F   F 
  0.166669517755501  0.388889551162720  0.000000000000000   F   F   F 
  0.416670054197311  0.388889521360397  0.000000000000000   F   F   F 
  0.666669428348541  0.388889491558075  0.000000000000000   F   F   F 
  0.916670083999634  0.388889551162720  0.000000000000000   F   F   F 
  0.166670024394989  0.555560111999512  0.000000000000000   F   F   F 
  0.416669785976410  0.555560111999512  0.000000000000000   F   F   F 
  0.666670203208923  0.555560052394867  0.000000000000000   F   F   F 
  0.916669726371765  0.555559992790222  0.000000000000000   F   F   F 
  0.166669398546219  0.722219586372375  0.000000000000000   F   F   F 
  0.416669219732284  0.722219586372375  0.000000000000000   F   F   F 
  0.666669487953186  0.722219586372375  0.000000000000000   F   F   F 
  0.916670322418213  0.722219586372375  0.000000000000000   F   F   F 
  0.166670352220535  0.888890385627747  0.000000000000000   F   F   F 
  0.416669487953186  0.888889968395233  0.000000000000000   F   F   F 
  0.666670501232147  0.888890087604523  0.000000000000000   F   F   F 
  0.916669726371765  0.888889968395233  0.000000000000000   F   F   F 
  0.000000000000000  0.000000000000000  0.087869830429554   F   F   F 
  0.250000119209290  0.000000000000000  0.087869785726070   F   F   F 
  0.500000059604645  0.000000000000000  0.087869808077812   F   F   F 
  0.750000596046448  0.000000000000000  0.087869808077812   F   F   F 
  0.000000000000000  0.166669681668282  0.087869890034199   F   F   F 
  0.249999359250069  0.166669428348541  0.087869882583618   F   F   F 
  0.500000000000000  0.166669681668282  0.087869830429554   F   F   F 
  0.749999344348907  0.166669324040413  0.087869785726070   F   F   F 
  0.999999999999993  0.333329856395721  0.087869815528393   F   F   F 
  0.249999463558197  0.333329707384109  0.087869770824909   F   F   F 
  0.500000238418579  0.333330005407333  0.087869778275490   F   F   F 
  0.749999642372131  0.333329886198044  0.087869852781296   F   F   F 
  0.000000000000000  0.499999582767487  0.087869815528393   F   F   F 
  0.249999850988388  0.499999582767487  0.087869830429554   F   F   F 
  0.499999165534973  0.499999552965164  0.087869770824909   F   F   F 
  0.749999761581421  0.499999552965164  0.087869882583618   F   F   F 
  0.999999999999986  0.666670203208923  0.087869852781296   F   F   F 
  0.250000268220894  0.666670143604279  0.087869785726070   F   F   F 
  0.499999940395355  0.666670203208923  0.087869778275490   F   F   F 
  0.750000417232513  0.666670203208923  0.087869755923748   F   F   F 
  0.999999999999986  0.833329677581787  0.087869726121426   F   F   F 
  0.250000029802315  0.833329916000366  0.087869599461555   F   F   F 
  0.499999433755875  0.833329737186432  0.087869666516781   F   F   F 
  0.749999880790710  0.833329677581787  0.087869681417942   F   F   F 
  0.083330407738686  0.111110210418701  0.175730213522911   F   F   F 
  0.333329707384109  0.111109733581543  0.175730198621750   F   F   F 
  0.583330273628235  0.111109919846058  0.175730198621750   F   F   F 
  0.833329796791077  0.111109770834446  0.175730213522911   F   F   F 
  0.083329111337662  0.277779430150986  0.175730153918266   F   F   F 
  0.333329707384109  0.277779549360275  0.175730168819427   F   F   F 
  0.583329319953918  0.277779340744019  0.175730168819427   F   F   F 
  0.833329677581787  0.277779340744019  0.175730168819427   F   F   F 
  0.083330273628228  0.444439858198166  0.175730168819427   F   F   F 
  0.333329886198044  0.444439947605133  0.175730153918266   F   F   F 
  0.583330392837524  0.444439947605133  0.175730153918266   F   F   F 
  0.833330035209656  0.444439947605133  0.175730153918266   F   F   F 
  0.083329439163208  0.611109733581543  0.175730109214783   F   F   F 
  0.333330005407333  0.611109733581543  0.175730139017105   F   F   F 
  0.583329439163208  0.611109554767609  0.175730153918266   F   F   F 
  0.833329975605011  0.611109614372253  0.175730139017105   F   F   F 
  0.083330750465393  0.777780532836914  0.175730094313621   F   F   F 
  0.333329558372498  0.777780294418335  0.175730109214783   F   F   F 
  0.583330214023590  0.777779996395111  0.175730064511299   F   F   F 
  0.833329617977142  0.777780115604401  0.175730139017105   F   F   F 
  0.083329677581787  0.944440424442291  0.175730064511299   F   F   F 
  0.333329409360879  0.944440484046936  0.175730094313621   F   F   F 
  0.583330154418945  0.944440186023712  0.175730064511299   F   F   F 
  0.833329439163208  0.944440186023712  0.175730153918266   F   F   F 
  0.165520967262026  0.054588817687069  0.264480565730530   F   F   F 
  0.415442430428712  0.054592989484462  0.264484582789407   F   F   F 
  0.665378914191983  0.054626024259925  0.264502965656767   F   F   F 
  0.915753096955356  0.054576956158549  0.264501785822432   F   F   F 
  0.165243783268601  0.221213607216690  0.264407308245282   F   F   F 
  0.415519069925459  0.221176771329624  0.264284447125178   F   F   F 
  0.665693022577450  0.221349034435953  0.264515523317542   F   F   F 
  0.915629508644898  0.221360348126787  0.264547601664582   F   F   F 
  0.165670658865963  0.388087328605053  0.264223358828254   F   F   F 
  0.415839698294441  0.389112687866806  0.265006391154706   F   F   F 
  0.665457501560695  0.387926459287470  0.263912225474265   F   F   F 
  0.915327000389205  0.388084780647915  0.264706821074306   F   F   F 
  0.165723939690764  0.554775057427058  0.264542636151262   F   F   F 
  0.415810555559823  0.554027910576998  0.265199859489833   F   F   F 
  0.662431029158327  0.553723448735312  0.265708750197433   F   F   F 
  0.915207839793482  0.554664732977002  0.264664971924965   F   F   F 
  0.165309269753322  0.721399792578673  0.264503751968320   F   F   F 
  0.415566980180039  0.721473131577206  0.264558514875894   F   F   F 
  0.665312196081729  0.721510713732194  0.263955300316894   F   F   F 
  0.915240368112670  0.721257720589882  0.264570492337881   F   F   F 
  0.165722980661755  0.887898952490580  0.264416150133329   F   F   F 
  0.415605555657997  0.887819656852720  0.264483820918578   F   F   F 
  0.665768668193145  0.888127859107399  0.264404164497989   F   F   F 
  0.915739346319022  0.887935498228835  0.264533868390856   F   F   F 
  0.998906409176456  0.998889835167425  0.349754929543487   F   F   F 
  0.249478776990706  0.999336580529970  0.349749427269167   F   F   F 
  0.499265574371393  0.999381744554306  0.349615440719354   F   F   F 
  0.748876891276772  0.999067563635947  0.349629238187752   F   F   F 
  0.998317679908133  0.165096585168513  0.349592107790563   F   F   F 
  0.248504284608394  0.165426163054363  0.349516539592173   F   F   F 
  0.499161779378198  0.165442264644355  0.349599234805979   F   F   F 
  0.748759113021713  0.165832260861684  0.349756987730387   F   F   F 
  0.998111145997356  0.332245032388741  0.349621307546450   F   F   F 
  0.246471081439040  0.330807521711947  0.349107842883825   F   F   F 
  0.498419440223486  0.330413759818413  0.348694862601271   F   F   F 
  0.748711223800470  0.332852093301206  0.349474100605015   F   F   F 
  0.998403501547550  0.499401809330010  0.349511268043017   F   F   F 
  0.246756859742831  0.498939484810599  0.349468678233599   F   F   F 
  0.494432051273122  0.496967937792853  0.355333861337080   F   F   F 
  0.751971300862571  0.500491946558967  0.350043826941118   F   F   F 
  0.000875476074889  0.666535071525828  0.349828318653977   F   F   F 
  0.248741097187086  0.665757554334654  0.349565238520775   F   F   F 
  0.499138918954763  0.667543777874364  0.349142426700460   F   F   F 
  0.753791929452554  0.667195662305794  0.349798755612461   F   F   F 
  0.000073878969999  0.833109942681418  0.349538577407273   F   F   F 
  0.249807903120065  0.833097489949111  0.349624704143949   F   F   F 
  0.499211067257228  0.833136907704130  0.349592396914979   F   F   F 
  0.749648782788967  0.832700620804502  0.349297389056737   F   F   F 
  0.531809143048093  0.459772920371599  0.456866558786480   T   T   T 
  0.685891577981259  0.560783613304984  0.400450396819387   T   T   T 
  0.540929436785540  0.521320527020357  0.436294204250555   T   T   T 
