!pbe ma-def2-SVP Freq 
%maxcore 3000
%pal
nprocs 4
end
# MECP_BC

*xyz 0 1
  N   0.58551734277323      0.60274938909130     -0.41848938127735
  C   1.99452681689685     -0.01024212762817     -0.46890023076074
  C   -0.07394032962546      0.13447758605066      0.88265905195964
  C   -0.19636937967788     -0.05855076977233     -1.56724475835436
  C   3.00171344531819      0.36572842514491      0.61354428737730
  H   2.40211194140183      0.26599739111272     -1.45948461959416
  H   1.75957362957472     -1.11532112175875     -0.43389391715401
  H   3.31880110806898      1.43044040374320      0.54715948768324
  C   4.24792246627773     -0.52672944752893      0.48442402357415
  H   2.57555275132687      0.21833879863122      1.62833635635452
  H   4.67595476493006     -0.41648235417949     -0.53760941225452
  H   3.93312535560651     -1.58890460447325      0.56613655817521
  C   5.32175725576652     -0.21257609296393      1.52636506213952
  H   5.67304508787877      0.83810624252507      1.44931343044522
  H   6.20697009253779     -0.86840198415031      1.40689930910352
  H   4.93822112145322     -0.35721123391672      2.55822926143352
  H   0.52935990028030      0.56137384413978      1.70566731256910
  H   0.07246656508145     -0.98611398363854      0.83045224363764
  C   -1.54626318765643      0.49107867290121      1.07321060514386
  H   -1.74640224727549      1.58060489619093      0.94977653128451
  C   -2.01075872149439      0.05868627939959      2.47387705970003
  H   -2.17471164048608     -0.03588404725720      0.32595821061274
  H   -1.41083958301372      0.59476514207693      3.24258779128968
  H   -1.77957621931357     -1.02004259886762      2.60640169727327
  C   -3.50015564805299      0.30551699860071      2.71795464321963
  H   -3.75818043093833      1.38125592369686      2.61843551594922
  H   -3.80328366668527     -0.01635468907380      3.73440670144152
  H   -4.12692525377672     -0.25394098280026      1.99316129258751
  C   0.29419680084927      0.21027205934869     -2.98614393193039
  H   -1.23557282437585      0.30766707151247     -1.46460327402043
  H   -0.14026970973456     -1.15139170630342     -1.29828991652641
  H   0.33851723427670      1.29824539779103     -3.21895550959476
  C   -0.63897305701136     -0.47108809965773     -4.00094105813274
  H   1.31896023075188     -0.19032792342809     -3.13559719777571
  H   -1.67229810852515     -0.07812131663553     -3.87199148531944
  H   -0.69588966844565     -1.55466024458910     -3.76221136860041
  C   -0.19248880756992     -0.27822943826320     -5.45093950712353
  H   -0.15813471609390      0.79624316613326     -5.72870375524870
  H   -0.87972441593298     -0.78422966794718     -6.15770664707036
  H   0.82232518452144     -0.69467161720972     -5.62002788042504
  C   0.57766047138720      2.10906257578901     -0.59251842915829
  C   0.86055964220856      2.96525955267033      0.64351805629595
  H   -0.41754598601112      2.36567342200104     -1.00559444020431
  H   1.32304969381980      2.33175655489579     -1.38188425566659
  H   0.04278747591914      2.84738230143188      1.38494173671758
  C   1.00649475436752      4.45769256786027      0.29204963934185
  H   1.78710320212148      2.62548541890388      1.14311365671550
  C   -0.25256126906454      5.11968268268062     -0.27810950166343
  H   1.85342369774996      4.58678307019204     -0.41891368013868
  H   1.31133804493699      4.99284437540586      1.21604984270030
  H   -0.54276120825889      4.70117003148963     -1.26347136373962
  H   -0.09900519494526      6.20762132119572     -0.42481596714916
  H   -1.11893550431658      4.99487169956192      0.40561230949431
  F   0.55058070019908     -2.40962721012525     -0.14476018533689
*
